NAME : XML1000_1123_01
COMMENT : Generated as the XML100 dataset from the CVRPLIB
TYPE : CVRP
DIMENSION : 1001
EDGE_WEIGHT_TYPE : EUC_2D
CAPACITY : 46
NODE_COORD_SECTION
1    7906 9471
2    5099 9456
3    9958 9316
4    631  1822
5    7521 7459
6    9939 1180
7    6660 4649
8    7093 6671
9    9975 6085
10   2178 7486
11   3629 5178
12   6224 8317
13   9924 3053
14   7849 7229
15   4281 1838
16   9468 5696
17   4500 2351
18   5277 1210
19   2803 308 
20   9884 8467
21   622  1003
22   8463 7675
23   4102 4388
24   5573 1855
25   507  5784
26   7455 5235
27   817  9918
28   1443 1737
29   2868 5796
30   6504 5317
31   2057 7737
32   3738 6867
33   9363 2588
34   3125 8565
35   9787 4827
36   2792 1250
37   8445 5889
38   7249 885 
39   1051 4305
40   8301 7689
41   7466 4957
42   4837 4328
43   2562 3674
44   2294 4375
45   453  901 
46   7092 2499
47   3943 7354
48   9723 5358
49   7906 9864
50   2724 8018
51   7516 9308
52   535  2365
53   5979 5043
54   1403 9138
55   3964 2312
56   5440 8876
57   5694 5374
58   6556 512 
59   8190 1028
60   8808 8187
61   6608 376 
62   2899 9387
63   5606 6514
64   5609 6753
65   9101 3416
66   6496 9999
67   6719 210 
68   3244 4411
69   5998 2631
70   4472 7619
71   5319 8223
72   59   7275
73   2437 2171
74   2877 9965
75   9595 7039
76   7376 1939
77   4667 1855
78   4604 6171
79   3154 3956
80   1518 4040
81   6002 9377
82   6151 6548
83   2452 6298
84   3204 9642
85   1486 6557
86   4785 9702
87   9454 5907
88   8409 5459
89   6795 5308
90   9991 7399
91   7514 1385
92   4750 8742
93   2819 9793
94   9554 592 
95   9669 1722
96   165  3040
97   3030 3942
98   8775 299 
99   8549 7785
100  9833 9869
101  5076 4204
102  5094 3658
103  3602 9339
104  1977 7571
105  8316 4380
106  9111 873 
107  7163 7716
108  8198 4653
109  7300 4021
110  956  2694
111  7138 3280
112  9064 4707
113  7874 816 
114  9742 7312
115  4714 5482
116  9798 380 
117  5273 7192
118  3625 8821
119  5820 4393
120  6147 5630
121  2584 9517
122  1228 5342
123  2517 3888
124  8929 2282
125  7097 1923
126  5917 730 
127  7339 5203
128  5545 2919
129  7066 1266
130  8488 9153
131  6430 3298
132  3637 1826
133  995  9364
134  7611 9561
135  3961 7015
136  1273 5658
137  2777 864 
138  5480 8648
139  8952 4909
140  4539 7906
141  776  5872
142  4555 1287
143  6379 2727
144  8841 7040
145  2538 9931
146  8114 5453
147  4523 7682
148  2365 8481
149  6123 9882
150  127  2102
151  8028 7234
152  3843 2909
153  691  2807
154  6860 5271
155  897  7809
156  2535 706 
157  7203 5858
158  5088 5274
159  821  598 
160  1848 1082
161  6511 7196
162  5839 4907
163  7824 9275
164  3348 8060
165  7560 1085
166  7578 8049
167  1765 7415
168  2697 3206
169  8517 5790
170  5850 1144
171  7821 6145
172  4738 3302
173  2619 6446
174  6766 979 
175  6789 1574
176  6011 2226
177  6667 7811
178  9829 915 
179  1375 8844
180  5745 4984
181  1246 4095
182  5501 3043
183  2241 7434
184  5066 2688
185  6022 7601
186  6935 5380
187  9379 7663
188  9418 4837
189  677  3071
190  3922 7203
191  3344 5707
192  1972 7609
193  9958 4006
194  5547 8062
195  813  1382
196  779  5850
197  5750 1352
198  7151 8210
199  8370 9801
200  4335 5479
201  49   9901
202  2074 6548
203  281  8703
204  4141 6170
205  6421 1544
206  5893 7961
207  9640 787 
208  7325 5623
209  2990 1306
210  700  6484
211  166  1270
212  6127 4625
213  6227 9992
214  3003 8122
215  3983 1558
216  4782 5300
217  9961 4897
218  4782 3717
219  8776 9014
220  7231 1616
221  4060 4547
222  1064 9577
223  802  3638
224  5767 362 
225  3692 6269
226  4854 7132
227  5016 267 
228  7988 18  
229  7625 1177
230  7993 5354
231  1522 8355
232  8967 1359
233  4172 5901
234  3286 1819
235  9992 6678
236  2535 8493
237  56   3493
238  7887 7423
239  3260 2826
240  4451 8521
241  3040 4958
242  8512 6824
243  5546 7657
244  9441 6111
245  563  8530
246  1332 588 
247  1766 3058
248  4855 2501
249  1446 5959
250  7760 8639
251  6901 9686
252  1962 3344
253  3444 2593
254  8576 9797
255  6013 6639
256  2278 4346
257  7650 5147
258  9174 3125
259  9969 4452
260  9596 9049
261  7247 8341
262  3967 7792
263  5973 2307
264  5748 8928
265  1859 572 
266  3181 8573
267  2305 455 
268  7112 8134
269  9616 7160
270  4363 9964
271  8599 5054
272  5420 4526
273  4796 5707
274  7524 2792
275  1453 3428
276  2702 2855
277  5940 871 
278  192  7440
279  7646 4816
280  1957 4374
281  5488 1241
282  1458 757 
283  3853 6889
284  6488 7466
285  454  3719
286  811  9502
287  2508 8410
288  4873 2645
289  6721 7387
290  7939 6827
291  7714 1519
292  8315 4319
293  5041 1563
294  9693 794 
295  6322 3124
296  8740 7307
297  9481 12  
298  7691 7302
299  6271 7392
300  8724 4761
301  5595 5717
302  8523 9023
303  4546 2625
304  5293 539 
305  6917 5139
306  6944 9990
307  586  9240
308  8687 1500
309  3184 1589
310  2863 3111
311  6628 7235
312  2155 9719
313  5290 5050
314  5193 8805
315  9781 5708
316  82   8926
317  4515 5917
318  1519 2490
319  6502 2021
320  7550 8908
321  4896 751 
322  1564 8829
323  2837 3969
324  6236 1097
325  5721 8825
326  5973 1155
327  283  2320
328  4707 5823
329  7742 2987
330  8404 3100
331  6998 392 
332  6291 1462
333  565  6534
334  2649 2472
335  6205 1146
336  7379 7403
337  9030 7342
338  2647 1203
339  1850 1582
340  251  3105
341  7510 6360
342  6129 8457
343  6889 5839
344  807  5362
345  6147 725 
346  6114 7777
347  6938 7333
348  9548 3569
349  7700 1833
350  4078 149 
351  8051 877 
352  4214 7147
353  2787 2589
354  2175 1271
355  2528 936 
356  2914 2042
357  3227 8320
358  9620 7862
359  7098 6784
360  8868 9583
361  7360 6631
362  6304 7495
363  3369 4874
364  71   8229
365  200  2589
366  4969 3966
367  2645 7915
368  9722 262 
369  5825 5598
370  820  1252
371  6219 2445
372  4192 1180
373  9785 9021
374  292  3370
375  9007 4205
376  4739 5007
377  4025 6289
378  5246 9045
379  545  8570
380  160  5998
381  9351 859 
382  4622 8792
383  7010 6634
384  7313 6659
385  9525 6891
386  6158 4398
387  1712 7129
388  6730 4931
389  1781 9965
390  6991 4826
391  1750 6910
392  46   7185
393  1208 5053
394  283  7054
395  2730 4497
396  2760 9878
397  2128 904 
398  4039 4740
399  3033 6413
400  2105 7904
401  3144 9693
402  3145 5732
403  988  3456
404  3894 9404
405  3008 9441
406  992  950 
407  679  878 
408  250  9300
409  546  6537
410  5197 7929
411  1147 1164
412  465  2753
413  3393 1167
414  7913 1392
415  5222 7223
416  6423 4865
417  8925 6404
418  4900 3828
419  8786 2846
420  9328 8364
421  4449 8162
422  5896 1102
423  74   6699
424  2137 3250
425  9007 7456
426  2691 510 
427  9204 4587
428  9293 2150
429  217  2516
430  4857 5743
431  5252 4099
432  7548 7072
433  5490 3499
434  3334 8293
435  4245 7507
436  1587 8360
437  7738 8184
438  2171 9402
439  3773 731 
440  8921 6213
441  4424 907 
442  3580 6236
443  8799 1107
444  1033 3976
445  8230 9845
446  9445 3406
447  6125 5480
448  1078 1500
449  8774 239 
450  5546 8995
451  2667 2758
452  118  8436
453  9690 3189
454  2159 3350
455  6764 3905
456  9849 2808
457  3997 671 
458  9112 1146
459  4248 815 
460  9919 8717
461  9541 2874
462  9452 6539
463  8136 4934
464  9357 6453
465  7340 6632
466  6012 6296
467  9099 2768
468  4160 2331
469  7694 4490
470  2340 6153
471  9259 5995
472  7075 6988
473  4161 6359
474  9446 3347
475  1764 8079
476  6015 4940
477  6924 5092
478  3272 1149
479  8269 8039
480  1106 9151
481  8793 8374
482  7024 5901
483  3946 2761
484  7498 873 
485  4646 4297
486  9286 2098
487  2995 6909
488  7253 3848
489  496  4470
490  6464 4107
491  7405 5031
492  4907 7604
493  5401 4411
494  9651 4244
495  9905 8015
496  9406 1030
497  8003 1359
498  427  1226
499  6905 1899
500  2720 5152
501  6802 578 
502  2542 7385
503  1142 3088
504  6354 8026
505  4740 813 
506  9263 4683
507  8003 562 
508  8753 2787
509  6660 9783
510  8775 5407
511  1713 9432
512  2391 972 
513  2133 1170
514  961  8885
515  7025 7880
516  8492 1248
517  9007 8771
518  7471 7008
519  9249 5905
520  6973 6347
521  6213 1678
522  9803 1812
523  1541 1205
524  5892 9411
525  2282 7514
526  4813 3123
527  7503 7461
528  1572 5054
529  5947 6102
530  3955 8607
531  9220 9116
532  3774 6223
533  7036 924 
534  1280 5778
535  2813 1281
536  927  9974
537  4503 5187
538  8849 3673
539  5581 4691
540  5136 3091
541  1892 6849
542  1759 7900
543  349  1063
544  1312 115 
545  2729 3715
546  4807 8216
547  9671 5479
548  2716 9154
549  4285 8620
550  828  5728
551  2651 226 
552  3262 82  
553  267  499 
554  6719 6955
555  8550 2923
556  5969 1899
557  3227 1516
558  7240 9898
559  3504 2402
560  8010 3864
561  3790 5985
562  3296 7088
563  3375 9704
564  162  5273
565  2280 4860
566  6312 1104
567  3368 2085
568  1112 8768
569  6401 289 
570  2306 1712
571  8946 576 
572  2917 8543
573  6887 2272
574  665  9917
575  7217 2378
576  6584 1297
577  2930 2798
578  9400 666 
579  4894 9206
580  1200 7158
581  6475 219 
582  6535 6026
583  5874 7615
584  3999 8117
585  5460 8433
586  7485 6949
587  4356 9789
588  9350 132 
589  6165 9472
590  1111 6001
591  2678 9773
592  6645 7671
593  5764 5681
594  9988 3249
595  8902 8853
596  723  5614
597  1893 7828
598  6599 9982
599  3668 4487
600  1414 4013
601  5723 1445
602  5451 5845
603  1490 1749
604  885  7116
605  3919 1873
606  7691 3975
607  9814 9561
608  9086 2497
609  8806 3496
610  6192 4351
611  5233 3975
612  1235 8016
613  3442 1752
614  126  3433
615  2224 6888
616  3559 2662
617  3851 1750
618  3141 9331
619  5646 813 
620  8293 600 
621  3115 9339
622  849  2711
623  7143 7700
624  878  9578
625  9851 2452
626  5841 1833
627  2403 214 
628  643  4045
629  5087 9860
630  1423 404 
631  5456 40  
632  2895 1632
633  2946 2772
634  9821 960 
635  280  9134
636  6329 8929
637  9801 8018
638  971  2648
639  1028 6815
640  4148 2884
641  9554 2698
642  6783 6045
643  8875 9412
644  1269 4949
645  6934 3757
646  9972 9985
647  6526 8503
648  1268 7595
649  5613 4411
650  9824 8519
651  3840 3654
652  7590 8322
653  2523 7396
654  7234 2725
655  8298 8182
656  7286 7713
657  2467 8154
658  324  9963
659  8195 5828
660  6252 6901
661  7148 5263
662  3071 8550
663  6610 7077
664  3128 5712
665  9253 530 
666  1374 1634
667  1309 4288
668  604  520 
669  1267 376 
670  156  5594
671  2699 8687
672  6882 5038
673  1901 2463
674  9798 7024
675  2108 819 
676  8017 7439
677  5048 8030
678  9903 6235
679  474  4846
680  9196 3713
681  3263 5810
682  5471 4900
683  7928 3323
684  5624 5839
685  9750 6564
686  9577 9757
687  9121 2792
688  5378 611 
689  2565 6105
690  4488 7517
691  5096 5362
692  5186 5199
693  9640 529 
694  2219 7609
695  8765 6032
696  9334 1278
697  9281 2200
698  7177 3585
699  547  7169
700  8740 1326
701  5776 7554
702  7279 2282
703  8994 7383
704  6875 6532
705  5100 2910
706  4378 2609
707  5021 9336
708  783  9038
709  6493 399 
710  3574 8447
711  4064 3319
712  6447 8859
713  686  2308
714  4295 4347
715  2074 7126
716  2538 975 
717  4456 3998
718  6497 1939
719  1629 2146
720  9886 7167
721  7533 8008
722  7314 9   
723  4314 1873
724  560  7289
725  6811 9244
726  7612 2776
727  6763 3847
728  2200 3859
729  5756 2751
730  654  1919
731  408  1906
732  7125 6779
733  6939 5625
734  3194 4962
735  5646 8108
736  7655 9546
737  3404 4061
738  5309 4814
739  4519 6646
740  6330 3750
741  7931 6236
742  509  2053
743  8079 6874
744  9154 8401
745  2933 5549
746  4487 1730
747  140  1980
748  1075 3570
749  1790 5229
750  2478 990 
751  200  8171
752  6986 5388
753  8195 520 
754  7259 1808
755  8690 6726
756  1074 3155
757  8567 3053
758  8477 7279
759  9540 9533
760  7038 1518
761  944  2596
762  6166 8858
763  4049 4459
764  2925 4880
765  7420 6056
766  9426 7847
767  331  6272
768  239  7110
769  5622 2002
770  431  9116
771  7253 8869
772  1645 947 
773  4241 282 
774  8844 3421
775  2567 8918
776  4384 6793
777  5904 6450
778  9144 8703
779  6553 6492
780  7335 899 
781  8772 1063
782  7771 1633
783  4921 4061
784  5801 6651
785  2632 790 
786  1493 7548
787  994  1653
788  6614 1583
789  6604 5305
790  6205 8704
791  7122 3664
792  7439 7947
793  5164 8036
794  2885 7866
795  9695 5368
796  2836 2886
797  370  7942
798  966  1786
799  5278 9330
800  6938 1458
801  2472 441 
802  8426 5887
803  8228 7049
804  2664 7820
805  3129 8997
806  9744 7848
807  8385 814 
808  5271 4727
809  7548 6902
810  6692 6256
811  7597 2876
812  6438 674 
813  9412 1269
814  3935 5150
815  4021 583 
816  609  7350
817  7963 6939
818  2792 2583
819  6544 8892
820  9397 6623
821  3937 9929
822  4789 3813
823  6339 1255
824  4135 2536
825  5049 9687
826  5189 9348
827  4851 6332
828  6784 1812
829  1210 6908
830  9293 6130
831  977  2384
832  2559 6261
833  8024 9673
834  780  9474
835  152  7859
836  8834 1628
837  9698 2002
838  7911 411 
839  9061 6631
840  5636 2308
841  1960 8191
842  5642 47  
843  1697 6501
844  8958 6891
845  7705 2990
846  255  9112
847  2832 2805
848  379  7272
849  2090 544 
850  3943 1724
851  9875 1857
852  9369 7197
853  7095 9683
854  5010 6863
855  662  3674
856  8542 1439
857  6948 5016
858  9550 66  
859  8232 3727
860  7781 3081
861  5906 7884
862  2164 1205
863  4387 6836
864  4923 781 
865  1097 9194
866  2584 1923
867  2769 9270
868  9749 6282
869  4254 8478
870  5133 7603
871  7786 4790
872  5315 7800
873  8936 2873
874  4819 767 
875  9349 8485
876  7836 8043
877  7560 6572
878  4828 8336
879  2103 721 
880  4045 4036
881  5061 1831
882  9310 5367
883  3943 5656
884  7731 2331
885  9877 9829
886  7613 8429
887  2314 5914
888  2631 8700
889  8799 1972
890  1730 4677
891  1518 9442
892  8029 5370
893  7319 7815
894  2300 2182
895  3468 8104
896  9981 8389
897  6611 4946
898  9929 5659
899  4971 3010
900  1934 9362
901  859  5004
902  4372 9088
903  3118 2630
904  6991 3403
905  9160 6162
906  7237 8512
907  7631 3721
908  9241 5352
909  3172 4628
910  2532 4191
911  2858 2780
912  9693 8816
913  5917 7047
914  2229 6683
915  1171 229 
916  5559 9408
917  6398 2736
918  8635 7006
919  1671 3222
920  715  5433
921  4617 7174
922  903  6749
923  9549 2592
924  1268 9744
925  752  6956
926  6934 2004
927  4258 9350
928  8441 7755
929  9154 1683
930  7869 4274
931  216  2492
932  444  8873
933  4768 2066
934  9245 4035
935  8933 2747
936  3705 6280
937  9882 5817
938  1714 8513
939  1306 5845
940  4776 6232
941  1143 4266
942  1068 4429
943  9227 4264
944  7131 3628
945  7683 5387
946  6399 8122
947  6860 9029
948  4165 7086
949  8550 793 
950  7561 4560
951  7023 7143
952  5502 2340
953  1484 1686
954  6400 738 
955  243  3376
956  8514 8575
957  3725 5796
958  57   9433
959  80   5334
960  3889 5590
961  7150 4270
962  905  5701
963  703  8259
964  7791 9230
965  8876 9   
966  3100 1286
967  9401 3164
968  3113 3789
969  9909 8724
970  3961 555 
971  2371 9068
972  3616 6452
973  7792 9705
974  1967 6371
975  1072 9757
976  8420 2734
977  8787 5998
978  279  8885
979  7598 8559
980  7006 8351
981  3860 2195
982  6115 4125
983  89   2018
984  1538 5912
985  8766 9328
986  3193 8055
987  7383 2340
988  9970 6391
989  1623 5662
990  3097 8209
991  4181 1717
992  8204 8920
993  4966 5940
994  1548 946 
995  3748 6348
996  9556 7644
997  2217 5745
998  1594 817 
999  7484 2861
1000 8881 2606
1001 2654 5613
DEMAND_SECTION
1    0   
2    4   
3    8   
4    4   
5    7   
6    10  
7    9   
8    5   
9    9   
10   7   
11   9   
12   8   
13   7   
14   8   
15   4   
16   8   
17   7   
18   5   
19   1   
20   2   
21   7   
22   2   
23   3   
24   1   
25   10  
26   2   
27   8   
28   10  
29   7   
30   5   
31   4   
32   9   
33   9   
34   10  
35   5   
36   1   
37   9   
38   2   
39   3   
40   5   
41   1   
42   1   
43   9   
44   8   
45   1   
46   2   
47   10  
48   6   
49   10  
50   3   
51   3   
52   7   
53   3   
54   6   
55   2   
56   5   
57   8   
58   9   
59   5   
60   1   
61   3   
62   3   
63   3   
64   2   
65   8   
66   9   
67   5   
68   7   
69   7   
70   5   
71   8   
72   8   
73   9   
74   10  
75   2   
76   1   
77   4   
78   8   
79   4   
80   5   
81   5   
82   2   
83   1   
84   4   
85   1   
86   7   
87   2   
88   9   
89   8   
90   6   
91   5   
92   9   
93   7   
94   4   
95   4   
96   8   
97   2   
98   10  
99   4   
100  2   
101  4   
102  8   
103  5   
104  3   
105  10  
106  6   
107  10  
108  7   
109  1   
110  4   
111  7   
112  2   
113  4   
114  5   
115  1   
116  6   
117  3   
118  7   
119  9   
120  4   
121  8   
122  4   
123  6   
124  5   
125  6   
126  9   
127  8   
128  4   
129  7   
130  10  
131  4   
132  8   
133  10  
134  6   
135  7   
136  1   
137  9   
138  8   
139  8   
140  3   
141  4   
142  8   
143  5   
144  7   
145  10  
146  2   
147  7   
148  7   
149  10  
150  8   
151  1   
152  9   
153  5   
154  9   
155  10  
156  5   
157  1   
158  9   
159  6   
160  6   
161  7   
162  10  
163  4   
164  4   
165  5   
166  7   
167  6   
168  10  
169  3   
170  3   
171  1   
172  5   
173  8   
174  7   
175  6   
176  4   
177  5   
178  9   
179  8   
180  6   
181  1   
182  6   
183  6   
184  3   
185  8   
186  2   
187  7   
188  3   
189  1   
190  2   
191  3   
192  6   
193  10  
194  4   
195  10  
196  4   
197  8   
198  10  
199  4   
200  9   
201  8   
202  4   
203  5   
204  1   
205  9   
206  10  
207  7   
208  10  
209  3   
210  3   
211  5   
212  2   
213  6   
214  6   
215  2   
216  6   
217  10  
218  7   
219  10  
220  4   
221  7   
222  4   
223  7   
224  6   
225  6   
226  1   
227  5   
228  7   
229  6   
230  8   
231  1   
232  10  
233  4   
234  7   
235  3   
236  5   
237  10  
238  9   
239  1   
240  8   
241  9   
242  4   
243  4   
244  4   
245  10  
246  2   
247  2   
248  8   
249  7   
250  3   
251  10  
252  6   
253  9   
254  4   
255  10  
256  10  
257  2   
258  8   
259  7   
260  6   
261  3   
262  8   
263  8   
264  5   
265  4   
266  7   
267  6   
268  5   
269  2   
270  9   
271  5   
272  3   
273  8   
274  6   
275  5   
276  6   
277  2   
278  4   
279  7   
280  10  
281  8   
282  6   
283  3   
284  2   
285  10  
286  9   
287  4   
288  9   
289  9   
290  8   
291  7   
292  8   
293  2   
294  10  
295  4   
296  1   
297  6   
298  5   
299  4   
300  5   
301  7   
302  5   
303  6   
304  10  
305  5   
306  4   
307  5   
308  3   
309  1   
310  7   
311  9   
312  7   
313  8   
314  9   
315  5   
316  4   
317  1   
318  4   
319  10  
320  9   
321  4   
322  5   
323  9   
324  4   
325  2   
326  2   
327  1   
328  9   
329  1   
330  1   
331  2   
332  9   
333  1   
334  7   
335  1   
336  7   
337  9   
338  8   
339  10  
340  8   
341  3   
342  7   
343  6   
344  3   
345  3   
346  6   
347  8   
348  9   
349  2   
350  1   
351  2   
352  1   
353  9   
354  9   
355  9   
356  9   
357  5   
358  7   
359  2   
360  4   
361  3   
362  4   
363  4   
364  5   
365  10  
366  2   
367  9   
368  9   
369  10  
370  7   
371  8   
372  10  
373  2   
374  8   
375  9   
376  7   
377  7   
378  7   
379  4   
380  10  
381  5   
382  7   
383  4   
384  1   
385  3   
386  6   
387  6   
388  7   
389  5   
390  7   
391  4   
392  1   
393  8   
394  4   
395  8   
396  5   
397  8   
398  4   
399  8   
400  8   
401  7   
402  5   
403  5   
404  2   
405  2   
406  10  
407  5   
408  1   
409  3   
410  4   
411  4   
412  4   
413  6   
414  4   
415  4   
416  10  
417  6   
418  6   
419  2   
420  7   
421  2   
422  8   
423  4   
424  3   
425  3   
426  9   
427  8   
428  1   
429  7   
430  9   
431  3   
432  4   
433  9   
434  8   
435  10  
436  10  
437  10  
438  2   
439  10  
440  5   
441  10  
442  3   
443  7   
444  9   
445  8   
446  6   
447  7   
448  1   
449  7   
450  1   
451  10  
452  3   
453  4   
454  4   
455  5   
456  6   
457  8   
458  8   
459  2   
460  8   
461  5   
462  8   
463  10  
464  3   
465  8   
466  3   
467  10  
468  5   
469  4   
470  1   
471  7   
472  3   
473  1   
474  5   
475  10  
476  1   
477  5   
478  5   
479  2   
480  1   
481  5   
482  1   
483  7   
484  4   
485  4   
486  1   
487  5   
488  7   
489  3   
490  1   
491  1   
492  7   
493  3   
494  5   
495  1   
496  7   
497  1   
498  9   
499  2   
500  4   
501  6   
502  1   
503  3   
504  6   
505  3   
506  1   
507  4   
508  7   
509  3   
510  7   
511  6   
512  7   
513  8   
514  8   
515  9   
516  6   
517  10  
518  1   
519  10  
520  9   
521  6   
522  6   
523  1   
524  4   
525  10  
526  8   
527  3   
528  1   
529  5   
530  7   
531  8   
532  1   
533  5   
534  10  
535  10  
536  3   
537  5   
538  2   
539  10  
540  8   
541  6   
542  6   
543  9   
544  2   
545  5   
546  9   
547  6   
548  7   
549  6   
550  9   
551  1   
552  8   
553  5   
554  7   
555  6   
556  8   
557  5   
558  1   
559  7   
560  5   
561  7   
562  7   
563  9   
564  8   
565  6   
566  5   
567  2   
568  1   
569  4   
570  3   
571  9   
572  8   
573  7   
574  7   
575  9   
576  2   
577  2   
578  10  
579  6   
580  7   
581  3   
582  5   
583  5   
584  3   
585  5   
586  6   
587  5   
588  6   
589  6   
590  4   
591  10  
592  3   
593  4   
594  5   
595  2   
596  8   
597  10  
598  3   
599  1   
600  2   
601  3   
602  1   
603  8   
604  7   
605  6   
606  3   
607  4   
608  10  
609  2   
610  2   
611  2   
612  7   
613  10  
614  1   
615  7   
616  2   
617  3   
618  9   
619  3   
620  10  
621  1   
622  5   
623  6   
624  4   
625  6   
626  9   
627  5   
628  8   
629  7   
630  8   
631  7   
632  7   
633  10  
634  2   
635  9   
636  1   
637  4   
638  3   
639  3   
640  10  
641  4   
642  6   
643  2   
644  7   
645  5   
646  9   
647  9   
648  4   
649  10  
650  9   
651  1   
652  2   
653  8   
654  6   
655  8   
656  8   
657  3   
658  2   
659  1   
660  8   
661  5   
662  2   
663  9   
664  1   
665  6   
666  10  
667  3   
668  5   
669  10  
670  2   
671  10  
672  4   
673  4   
674  5   
675  1   
676  7   
677  10  
678  2   
679  3   
680  8   
681  5   
682  3   
683  7   
684  9   
685  7   
686  1   
687  8   
688  10  
689  9   
690  2   
691  5   
692  9   
693  3   
694  8   
695  2   
696  9   
697  6   
698  5   
699  3   
700  7   
701  1   
702  1   
703  2   
704  9   
705  2   
706  1   
707  4   
708  4   
709  4   
710  3   
711  2   
712  9   
713  6   
714  2   
715  3   
716  6   
717  6   
718  7   
719  1   
720  3   
721  8   
722  10  
723  6   
724  9   
725  4   
726  7   
727  1   
728  8   
729  9   
730  4   
731  2   
732  9   
733  1   
734  1   
735  10  
736  8   
737  3   
738  2   
739  3   
740  10  
741  6   
742  10  
743  5   
744  9   
745  5   
746  10  
747  6   
748  9   
749  3   
750  6   
751  2   
752  5   
753  1   
754  4   
755  9   
756  10  
757  10  
758  7   
759  2   
760  8   
761  9   
762  9   
763  4   
764  10  
765  7   
766  6   
767  1   
768  10  
769  1   
770  2   
771  6   
772  4   
773  7   
774  9   
775  1   
776  10  
777  1   
778  9   
779  9   
780  5   
781  2   
782  6   
783  7   
784  5   
785  1   
786  6   
787  10  
788  4   
789  2   
790  2   
791  7   
792  1   
793  1   
794  2   
795  2   
796  3   
797  5   
798  10  
799  9   
800  6   
801  5   
802  1   
803  7   
804  8   
805  1   
806  3   
807  8   
808  8   
809  8   
810  4   
811  8   
812  5   
813  2   
814  5   
815  5   
816  2   
817  10  
818  5   
819  2   
820  3   
821  9   
822  9   
823  8   
824  6   
825  9   
826  4   
827  6   
828  6   
829  6   
830  6   
831  1   
832  8   
833  5   
834  7   
835  6   
836  5   
837  9   
838  3   
839  4   
840  7   
841  3   
842  4   
843  1   
844  10  
845  7   
846  1   
847  5   
848  8   
849  2   
850  10  
851  9   
852  5   
853  3   
854  6   
855  7   
856  8   
857  6   
858  5   
859  7   
860  10  
861  3   
862  5   
863  7   
864  6   
865  10  
866  9   
867  1   
868  2   
869  10  
870  7   
871  6   
872  6   
873  1   
874  2   
875  5   
876  9   
877  9   
878  3   
879  4   
880  5   
881  1   
882  7   
883  10  
884  7   
885  2   
886  5   
887  3   
888  1   
889  7   
890  6   
891  5   
892  7   
893  4   
894  6   
895  4   
896  9   
897  8   
898  5   
899  3   
900  1   
901  10  
902  7   
903  6   
904  7   
905  4   
906  10  
907  1   
908  10  
909  2   
910  7   
911  8   
912  6   
913  3   
914  4   
915  4   
916  6   
917  4   
918  5   
919  6   
920  6   
921  2   
922  6   
923  4   
924  8   
925  2   
926  4   
927  8   
928  10  
929  6   
930  2   
931  1   
932  2   
933  8   
934  8   
935  7   
936  3   
937  9   
938  1   
939  8   
940  1   
941  2   
942  5   
943  9   
944  9   
945  6   
946  2   
947  3   
948  5   
949  7   
950  2   
951  10  
952  5   
953  1   
954  9   
955  2   
956  9   
957  1   
958  3   
959  6   
960  6   
961  7   
962  6   
963  8   
964  3   
965  10  
966  6   
967  9   
968  10  
969  10  
970  6   
971  2   
972  8   
973  10  
974  9   
975  3   
976  3   
977  8   
978  4   
979  9   
980  10  
981  1   
982  9   
983  10  
984  8   
985  7   
986  2   
987  1   
988  9   
989  1   
990  2   
991  4   
992  6   
993  6   
994  5   
995  10  
996  9   
997  9   
998  7   
999  7   
1000 6   
1001 8   
DEPOT_SECTION
1
-1
EOF
