NAME : XML1000_1176_01
COMMENT : Generated as the XML100 dataset from the CVRPLIB
TYPE : CVRP
DIMENSION : 1001
EDGE_WEIGHT_TYPE : EUC_2D
CAPACITY : 240
NODE_COORD_SECTION
1    494  591 
2    131  717 
3    798  852 
4    618  179 
5    234  396 
6    723  430 
7    190  246 
8    741  340 
9    168  786 
10   546  665 
11   619  53  
12   374  445 
13   950  904 
14   767  289 
15   627  712 
16   278  532 
17   856  190 
18   294  722 
19   82   153 
20   249  760 
21   251  697 
22   133  56  
23   436  797 
24   13   157 
25   549  374 
26   240  109 
27   853  877 
28   5    126 
29   133  73  
30   936  782 
31   445  871 
32   71   992 
33   61   861 
34   927  457 
35   71   385 
36   609  795 
37   60   649 
38   685  559 
39   763  369 
40   172  478 
41   518  685 
42   457  351 
43   489  306 
44   28   858 
45   757  7   
46   993  822 
47   970  939 
48   368  68  
49   838  508 
50   708  772 
51   577  782 
52   17   158 
53   509  640 
54   779  314 
55   624  917 
56   791  161 
57   632  534 
58   446  793 
59   401  206 
60   364  265 
61   997  425 
62   150  313 
63   149  730 
64   784  741 
65   740  296 
66   415  196 
67   54   780 
68   978  642 
69   309  996 
70   163  402 
71   122  273 
72   598  609 
73   677  444 
74   42   675 
75   819  767 
76   325  740 
77   934  615 
78   496  426 
79   299  606 
80   406  982 
81   371  381 
82   576  787 
83   33   59  
84   46   423 
85   870  597 
86   323  53  
87   879  252 
88   69   14  
89   405  612 
90   53   746 
91   139  430 
92   342  829 
93   942  675 
94   453  801 
95   513  160 
96   494  616 
97   481  66  
98   849  837 
99   182  945 
100  490  25  
101  37   888 
102  666  962 
103  34   448 
104  840  178 
105  880  570 
106  717  363 
107  472  777 
108  851  274 
109  98   700 
110  322  9   
111  45   430 
112  622  582 
113  580  653 
114  989  939 
115  907  58  
116  200  29  
117  296  50  
118  191  756 
119  27   383 
120  168  676 
121  165  350 
122  917  244 
123  584  673 
124  672  275 
125  79   309 
126  736  717 
127  968  383 
128  470  174 
129  776  905 
130  982  260 
131  885  714 
132  617  529 
133  919  410 
134  301  521 
135  234  99  
136  657  911 
137  101  991 
138  982  375 
139  980  355 
140  302  158 
141  433  842 
142  558  697 
143  489  854 
144  739  414 
145  682  562 
146  349  928 
147  870  756 
148  834  512 
149  329  75  
150  689  693 
151  428  894 
152  369  492 
153  769  711 
154  793  724 
155  679  395 
156  310  188 
157  578  369 
158  677  740 
159  133  772 
160  131  300 
161  196  358 
162  579  938 
163  599  439 
164  22   430 
165  957  406 
166  475  871 
167  669  983 
168  240  719 
169  38   177 
170  527  623 
171  43   781 
172  892  530 
173  605  551 
174  717  215 
175  172  987 
176  335  597 
177  5    557 
178  837  846 
179  935  563 
180  723  482 
181  986  8   
182  514  940 
183  295  203 
184  321  288 
185  829  826 
186  686  488 
187  463  378 
188  368  588 
189  840  814 
190  178  173 
191  320  475 
192  362  548 
193  210  130 
194  967  588 
195  327  248 
196  259  180 
197  416  871 
198  952  484 
199  257  913 
200  844  351 
201  532  361 
202  209  278 
203  225  583 
204  190  193 
205  874  971 
206  398  254 
207  690  472 
208  49   416 
209  299  668 
210  450  628 
211  617  425 
212  494  920 
213  107  154 
214  677  948 
215  131  51  
216  650  841 
217  175  19  
218  290  846 
219  975  975 
220  743  265 
221  356  29  
222  7    937 
223  569  388 
224  497  743 
225  190  35  
226  422  747 
227  700  535 
228  672  920 
229  397  15  
230  999  549 
231  794  715 
232  646  721 
233  657  975 
234  266  584 
235  232  483 
236  16   605 
237  181  767 
238  713  57  
239  438  318 
240  647  873 
241  931  674 
242  992  96  
243  612  777 
244  240  228 
245  839  301 
246  597  168 
247  499  952 
248  958  92  
249  913  290 
250  42   954 
251  573  195 
252  809  984 
253  955  771 
254  532  846 
255  621  673 
256  168  430 
257  362  843 
258  97   569 
259  709  394 
260  578  818 
261  832  121 
262  588  302 
263  880  1000
264  729  44  
265  593  180 
266  216  548 
267  762  75  
268  48   367 
269  57   623 
270  774  300 
271  324  756 
272  853  818 
273  322  881 
274  56   702 
275  241  137 
276  697  388 
277  115  93  
278  384  409 
279  144  578 
280  611  373 
281  719  385 
282  828  770 
283  263  446 
284  13   134 
285  309  970 
286  927  408 
287  393  580 
288  291  115 
289  187  639 
290  111  741 
291  934  506 
292  214  960 
293  637  882 
294  690  300 
295  848  36  
296  654  318 
297  477  318 
298  790  433 
299  101  935 
300  941  805 
301  449  548 
302  79   353 
303  491  791 
304  514  566 
305  818  902 
306  665  532 
307  496  142 
308  397  501 
309  182  885 
310  963  795 
311  467  178 
312  409  830 
313  336  611 
314  903  678 
315  808  885 
316  118  912 
317  51   78  
318  605  523 
319  412  623 
320  108  836 
321  691  268 
322  93   471 
323  195  562 
324  207  925 
325  763  767 
326  955  98  
327  603  265 
328  474  179 
329  333  617 
330  32   508 
331  118  771 
332  915  720 
333  432  739 
334  625  992 
335  306  891 
336  715  3   
337  891  48  
338  434  624 
339  592  470 
340  617  363 
341  795  784 
342  458  56  
343  819  150 
344  308  837 
345  718  169 
346  794  941 
347  31   128 
348  102  590 
349  983  51  
350  402  653 
351  910  895 
352  977  7   
353  885  662 
354  243  349 
355  3    618 
356  785  107 
357  384  45  
358  940  262 
359  66   235 
360  702  310 
361  652  312 
362  855  334 
363  424  712 
364  408  642 
365  434  777 
366  553  197 
367  716  234 
368  943  549 
369  951  568 
370  161  352 
371  909  588 
372  661  271 
373  654  16  
374  250  545 
375  332  615 
376  436  212 
377  382  617 
378  440  346 
379  403  122 
380  72   757 
381  910  91  
382  96   760 
383  472  67  
384  979  972 
385  809  836 
386  466  309 
387  992  540 
388  3    589 
389  826  119 
390  138  359 
391  729  371 
392  925  640 
393  656  156 
394  305  575 
395  165  815 
396  993  422 
397  862  229 
398  577  252 
399  964  258 
400  941  596 
401  71   662 
402  165  898 
403  991  387 
404  680  975 
405  742  229 
406  569  554 
407  950  674 
408  552  696 
409  292  166 
410  931  310 
411  853  928 
412  544  82  
413  639  940 
414  591  902 
415  347  868 
416  182  744 
417  157  462 
418  624  462 
419  164  543 
420  949  369 
421  668  857 
422  99   443 
423  395  710 
424  641  385 
425  109  875 
426  458  867 
427  731  922 
428  477  711 
429  511  519 
430  292  680 
431  418  895 
432  503  843 
433  587  898 
434  153  115 
435  529  437 
436  365  71  
437  785  985 
438  182  127 
439  525  469 
440  195  69  
441  91   832 
442  0    476 
443  601  701 
444  811  75  
445  598  173 
446  5    747 
447  31   740 
448  187  507 
449  307  253 
450  273  163 
451  718  815 
452  194  236 
453  963  947 
454  138  475 
455  364  349 
456  170  480 
457  368  467 
458  73   946 
459  689  914 
460  146  384 
461  781  439 
462  226  403 
463  389  624 
464  872  854 
465  181  631 
466  18   622 
467  604  398 
468  756  677 
469  554  598 
470  699  553 
471  297  12  
472  566  414 
473  730  373 
474  543  420 
475  948  866 
476  607  16  
477  874  620 
478  144  669 
479  985  474 
480  180  595 
481  48   564 
482  668  667 
483  321  43  
484  174  375 
485  393  647 
486  454  777 
487  262  73  
488  66   51  
489  672  405 
490  193  697 
491  905  416 
492  596  223 
493  827  466 
494  123  473 
495  995  714 
496  696  570 
497  195  360 
498  59   711 
499  170  501 
500  602  589 
501  511  64  
502  37   578 
503  955  829 
504  194  583 
505  452  170 
506  712  429 
507  490  580 
508  429  408 
509  753  842 
510  931  535 
511  761  568 
512  731  239 
513  731  557 
514  744  94  
515  870  377 
516  23   512 
517  646  696 
518  491  443 
519  905  209 
520  896  521 
521  440  673 
522  933  924 
523  495  389 
524  946  875 
525  873  79  
526  173  54  
527  458  680 
528  622  464 
529  681  161 
530  903  193 
531  284  80  
532  195  535 
533  873  488 
534  228  50  
535  867  3   
536  454  469 
537  466  90  
538  741  563 
539  260  941 
540  855  782 
541  145  771 
542  654  686 
543  739  452 
544  579  548 
545  601  491 
546  822  781 
547  730  992 
548  31   883 
549  382  342 
550  633  826 
551  972  869 
552  172  415 
553  572  385 
554  81   268 
555  663  481 
556  523  824 
557  406  449 
558  581  892 
559  616  590 
560  443  993 
561  261  42  
562  583  815 
563  245  992 
564  758  406 
565  869  912 
566  321  922 
567  726  98  
568  548  337 
569  1000 586 
570  878  678 
571  315  144 
572  786  880 
573  206  443 
574  849  643 
575  54   135 
576  681  740 
577  243  330 
578  948  335 
579  648  581 
580  858  428 
581  880  191 
582  906  266 
583  609  410 
584  373  315 
585  80   361 
586  233  687 
587  55   444 
588  446  328 
589  882  4   
590  805  83  
591  397  199 
592  12   465 
593  890  400 
594  469  882 
595  44   501 
596  847  534 
597  118  642 
598  196  583 
599  439  94  
600  172  315 
601  332  864 
602  503  837 
603  445  423 
604  56   488 
605  109  431 
606  787  900 
607  66   276 
608  478  413 
609  170  281 
610  501  702 
611  500  393 
612  654  349 
613  637  273 
614  134  434 
615  329  174 
616  741  785 
617  377  837 
618  516  251 
619  212  253 
620  645  409 
621  920  707 
622  883  761 
623  357  90  
624  431  967 
625  501  464 
626  991  982 
627  502  907 
628  922  368 
629  461  146 
630  671  512 
631  243  587 
632  629  558 
633  839  387 
634  897  54  
635  532  918 
636  162  50  
637  281  146 
638  294  363 
639  583  652 
640  702  680 
641  562  548 
642  161  594 
643  80   737 
644  303  395 
645  932  812 
646  21   831 
647  830  164 
648  294  655 
649  486  622 
650  289  620 
651  357  551 
652  252  60  
653  198  643 
654  1000 606 
655  303  358 
656  853  553 
657  713  401 
658  183  346 
659  925  920 
660  246  459 
661  494  675 
662  592  51  
663  129  445 
664  149  946 
665  199  963 
666  448  629 
667  45   813 
668  14   772 
669  738  798 
670  85   706 
671  718  280 
672  10   953 
673  489  502 
674  714  469 
675  853  900 
676  800  331 
677  556  714 
678  658  926 
679  293  547 
680  916  432 
681  431  923 
682  361  941 
683  931  537 
684  973  431 
685  500  84  
686  503  413 
687  641  179 
688  137  17  
689  461  170 
690  919  807 
691  470  500 
692  494  369 
693  118  153 
694  735  296 
695  486  299 
696  32   17  
697  139  417 
698  750  175 
699  736  159 
700  391  892 
701  837  791 
702  528  685 
703  657  79  
704  356  61  
705  986  693 
706  253  284 
707  552  737 
708  584  854 
709  152  912 
710  279  232 
711  88   250 
712  486  192 
713  474  520 
714  503  166 
715  876  9   
716  763  247 
717  306  557 
718  557  376 
719  856  313 
720  892  2   
721  240  181 
722  186  81  
723  145  695 
724  853  940 
725  77   255 
726  390  431 
727  247  487 
728  1    382 
729  857  131 
730  355  335 
731  840  206 
732  468  54  
733  102  651 
734  811  959 
735  357  743 
736  129  782 
737  374  880 
738  844  101 
739  944  827 
740  689  342 
741  460  414 
742  863  227 
743  480  158 
744  807  982 
745  117  527 
746  653  887 
747  204  71  
748  961  324 
749  339  918 
750  596  595 
751  101  353 
752  956  186 
753  108  348 
754  175  80  
755  23   422 
756  429  907 
757  722  901 
758  157  757 
759  358  94  
760  288  848 
761  696  280 
762  549  123 
763  461  446 
764  571  543 
765  880  142 
766  797  761 
767  738  36  
768  350  664 
769  865  514 
770  232  569 
771  970  357 
772  501  335 
773  790  919 
774  717  845 
775  356  719 
776  36   17  
777  791  282 
778  737  711 
779  244  37  
780  105  69  
781  7    214 
782  174  131 
783  104  869 
784  638  645 
785  466  343 
786  147  530 
787  327  565 
788  552  440 
789  332  640 
790  572  451 
791  35   533 
792  673  708 
793  930  458 
794  232  808 
795  341  306 
796  835  475 
797  439  57  
798  801  642 
799  738  346 
800  975  726 
801  662  121 
802  283  494 
803  252  395 
804  897  602 
805  296  982 
806  957  563 
807  977  171 
808  36   50  
809  265  650 
810  554  696 
811  816  91  
812  226  675 
813  213  272 
814  985  303 
815  870  79  
816  737  577 
817  488  834 
818  697  369 
819  373  917 
820  650  522 
821  929  269 
822  223  883 
823  885  87  
824  480  248 
825  125  170 
826  982  76  
827  986  479 
828  780  485 
829  169  318 
830  978  572 
831  447  482 
832  39   113 
833  843  56  
834  858  391 
835  767  158 
836  596  4   
837  672  158 
838  116  306 
839  777  199 
840  633  23  
841  686  444 
842  703  200 
843  109  493 
844  230  391 
845  284  669 
846  624  382 
847  154  61  
848  826  195 
849  183  680 
850  831  667 
851  280  227 
852  935  714 
853  130  34  
854  786  158 
855  989  527 
856  931  812 
857  487  806 
858  727  118 
859  203  821 
860  156  525 
861  591  307 
862  128  483 
863  77   501 
864  819  821 
865  867  751 
866  548  746 
867  73   546 
868  47   611 
869  870  43  
870  719  32  
871  857  729 
872  958  54  
873  318  971 
874  886  455 
875  142  271 
876  823  890 
877  15   211 
878  336  899 
879  653  175 
880  534  634 
881  681  72  
882  216  506 
883  534  49  
884  301  518 
885  452  719 
886  936  998 
887  789  785 
888  348  774 
889  949  973 
890  788  461 
891  918  23  
892  585  449 
893  537  932 
894  986  794 
895  440  903 
896  313  50  
897  356  260 
898  315  908 
899  17   555 
900  791  98  
901  375  820 
902  975  875 
903  632  173 
904  633  33  
905  69   571 
906  114  62  
907  775  329 
908  438  414 
909  884  31  
910  572  105 
911  522  652 
912  937  413 
913  796  180 
914  881  707 
915  697  974 
916  120  620 
917  553  229 
918  731  290 
919  478  614 
920  144  369 
921  596  162 
922  533  604 
923  203  668 
924  668  598 
925  5    333 
926  48   399 
927  834  209 
928  60   978 
929  539  437 
930  61   661 
931  363  867 
932  562  858 
933  369  226 
934  353  168 
935  317  760 
936  767  564 
937  433  336 
938  439  998 
939  26   76  
940  990  992 
941  513  944 
942  740  719 
943  564  779 
944  677  371 
945  144  28  
946  158  60  
947  27   554 
948  789  360 
949  890  991 
950  267  114 
951  739  433 
952  167  610 
953  862  428 
954  252  927 
955  890  507 
956  388  787 
957  247  753 
958  732  368 
959  155  111 
960  782  179 
961  980  628 
962  568  688 
963  811  867 
964  587  197 
965  829  810 
966  473  832 
967  728  504 
968  702  433 
969  265  50  
970  789  977 
971  399  942 
972  985  86  
973  154  879 
974  335  667 
975  605  199 
976  513  919 
977  641  218 
978  245  321 
979  67   609 
980  931  833 
981  301  47  
982  895  844 
983  136  467 
984  424  456 
985  612  728 
986  527  612 
987  414  452 
988  999  54  
989  804  619 
990  458  414 
991  789  911 
992  341  949 
993  110  688 
994  664  965 
995  14   219 
996  865  613 
997  822  201 
998  447  983 
999  655  649 
1000 445  229 
1001 511  586 
DEMAND_SECTION
1    0   
2    5   
3    5   
4    4   
5    10  
6    1   
7    65  
8    7   
9    3   
10   7   
11   3   
12   3   
13   2   
14   5   
15   6   
16   8   
17   8   
18   88  
19   8   
20   2   
21   9   
22   1   
23   5   
24   7   
25   8   
26   4   
27   73  
28   1   
29   7   
30   9   
31   3   
32   10  
33   1   
34   4   
35   4   
36   6   
37   7   
38   9   
39   1   
40   4   
41   2   
42   10  
43   8   
44   8   
45   9   
46   9   
47   6   
48   7   
49   8   
50   1   
51   1   
52   87  
53   4   
54   5   
55   2   
56   5   
57   6   
58   58  
59   9   
60   1   
61   10  
62   6   
63   3   
64   9   
65   1   
66   1   
67   10  
68   10  
69   4   
70   6   
71   72  
72   4   
73   5   
74   7   
75   6   
76   3   
77   8   
78   10  
79   1   
80   4   
81   1   
82   1   
83   1   
84   4   
85   2   
86   9   
87   2   
88   6   
89   4   
90   10  
91   1   
92   3   
93   5   
94   6   
95   7   
96   7   
97   2   
98   3   
99   3   
100  1   
101  7   
102  3   
103  8   
104  3   
105  5   
106  9   
107  8   
108  6   
109  5   
110  7   
111  51  
112  4   
113  6   
114  1   
115  8   
116  6   
117  7   
118  2   
119  9   
120  3   
121  10  
122  6   
123  3   
124  8   
125  5   
126  2   
127  1   
128  8   
129  2   
130  4   
131  88  
132  5   
133  1   
134  3   
135  3   
136  7   
137  6   
138  9   
139  3   
140  7   
141  1   
142  1   
143  2   
144  6   
145  8   
146  4   
147  6   
148  1   
149  6   
150  6   
151  9   
152  2   
153  6   
154  8   
155  9   
156  5   
157  1   
158  3   
159  6   
160  6   
161  6   
162  5   
163  7   
164  3   
165  2   
166  6   
167  5   
168  4   
169  8   
170  1   
171  9   
172  78  
173  3   
174  7   
175  6   
176  62  
177  1   
178  9   
179  8   
180  6   
181  1   
182  5   
183  3   
184  5   
185  10  
186  10  
187  7   
188  4   
189  51  
190  4   
191  10  
192  6   
193  3   
194  2   
195  1   
196  7   
197  7   
198  9   
199  4   
200  5   
201  1   
202  3   
203  2   
204  8   
205  8   
206  6   
207  2   
208  5   
209  9   
210  9   
211  7   
212  4   
213  3   
214  4   
215  3   
216  2   
217  6   
218  4   
219  7   
220  8   
221  2   
222  4   
223  7   
224  1   
225  3   
226  2   
227  4   
228  4   
229  6   
230  5   
231  7   
232  4   
233  9   
234  9   
235  7   
236  9   
237  4   
238  4   
239  2   
240  5   
241  6   
242  7   
243  5   
244  4   
245  60  
246  9   
247  9   
248  2   
249  53  
250  10  
251  5   
252  5   
253  1   
254  3   
255  5   
256  2   
257  9   
258  1   
259  8   
260  8   
261  1   
262  4   
263  8   
264  1   
265  6   
266  58  
267  6   
268  79  
269  9   
270  1   
271  2   
272  88  
273  9   
274  5   
275  7   
276  4   
277  4   
278  9   
279  10  
280  3   
281  55  
282  74  
283  1   
284  5   
285  8   
286  6   
287  5   
288  9   
289  9   
290  9   
291  10  
292  2   
293  4   
294  1   
295  5   
296  9   
297  9   
298  8   
299  1   
300  7   
301  2   
302  1   
303  5   
304  8   
305  4   
306  80  
307  10  
308  2   
309  4   
310  10  
311  8   
312  7   
313  1   
314  1   
315  7   
316  8   
317  8   
318  3   
319  6   
320  10  
321  9   
322  1   
323  8   
324  8   
325  3   
326  4   
327  6   
328  7   
329  3   
330  5   
331  5   
332  7   
333  3   
334  6   
335  3   
336  1   
337  67  
338  7   
339  7   
340  81  
341  1   
342  3   
343  4   
344  6   
345  10  
346  10  
347  88  
348  6   
349  9   
350  1   
351  1   
352  4   
353  5   
354  10  
355  3   
356  7   
357  5   
358  5   
359  8   
360  8   
361  4   
362  4   
363  7   
364  4   
365  9   
366  2   
367  10  
368  3   
369  3   
370  6   
371  8   
372  2   
373  10  
374  10  
375  2   
376  3   
377  8   
378  1   
379  6   
380  6   
381  1   
382  10  
383  3   
384  3   
385  8   
386  9   
387  4   
388  3   
389  6   
390  6   
391  3   
392  3   
393  3   
394  58  
395  86  
396  3   
397  9   
398  6   
399  7   
400  6   
401  6   
402  83  
403  69  
404  10  
405  2   
406  7   
407  4   
408  6   
409  9   
410  7   
411  8   
412  10  
413  8   
414  3   
415  6   
416  1   
417  10  
418  6   
419  1   
420  6   
421  10  
422  9   
423  3   
424  10  
425  6   
426  8   
427  7   
428  8   
429  8   
430  9   
431  7   
432  9   
433  7   
434  5   
435  7   
436  5   
437  8   
438  3   
439  6   
440  4   
441  54  
442  10  
443  77  
444  6   
445  1   
446  10  
447  8   
448  7   
449  10  
450  4   
451  1   
452  4   
453  76  
454  8   
455  7   
456  8   
457  3   
458  8   
459  9   
460  4   
461  10  
462  5   
463  7   
464  10  
465  6   
466  6   
467  10  
468  8   
469  9   
470  4   
471  5   
472  5   
473  9   
474  4   
475  2   
476  9   
477  6   
478  8   
479  2   
480  7   
481  6   
482  2   
483  4   
484  10  
485  5   
486  1   
487  3   
488  7   
489  8   
490  6   
491  3   
492  6   
493  53  
494  8   
495  10  
496  2   
497  8   
498  1   
499  6   
500  1   
501  6   
502  6   
503  2   
504  6   
505  3   
506  2   
507  2   
508  1   
509  10  
510  9   
511  7   
512  57  
513  4   
514  10  
515  52  
516  5   
517  9   
518  3   
519  2   
520  3   
521  7   
522  3   
523  2   
524  6   
525  6   
526  4   
527  5   
528  89  
529  1   
530  6   
531  4   
532  3   
533  5   
534  6   
535  6   
536  8   
537  7   
538  9   
539  3   
540  10  
541  4   
542  2   
543  5   
544  10  
545  9   
546  2   
547  1   
548  5   
549  9   
550  4   
551  84  
552  9   
553  7   
554  10  
555  5   
556  1   
557  7   
558  4   
559  3   
560  5   
561  4   
562  7   
563  7   
564  10  
565  6   
566  4   
567  7   
568  7   
569  5   
570  10  
571  8   
572  3   
573  6   
574  7   
575  3   
576  87  
577  5   
578  1   
579  2   
580  4   
581  5   
582  10  
583  2   
584  1   
585  3   
586  77  
587  3   
588  4   
589  9   
590  1   
591  3   
592  2   
593  9   
594  57  
595  1   
596  8   
597  75  
598  5   
599  6   
600  8   
601  7   
602  9   
603  7   
604  1   
605  6   
606  5   
607  10  
608  9   
609  7   
610  10  
611  8   
612  9   
613  8   
614  2   
615  7   
616  1   
617  5   
618  5   
619  10  
620  2   
621  6   
622  2   
623  6   
624  7   
625  6   
626  2   
627  4   
628  5   
629  7   
630  8   
631  1   
632  9   
633  7   
634  2   
635  5   
636  4   
637  5   
638  7   
639  3   
640  8   
641  10  
642  1   
643  4   
644  72  
645  3   
646  3   
647  5   
648  5   
649  3   
650  5   
651  10  
652  2   
653  6   
654  1   
655  4   
656  8   
657  7   
658  4   
659  10  
660  5   
661  9   
662  8   
663  3   
664  8   
665  1   
666  89  
667  77  
668  10  
669  5   
670  5   
671  5   
672  2   
673  2   
674  7   
675  3   
676  3   
677  2   
678  7   
679  5   
680  10  
681  9   
682  7   
683  4   
684  5   
685  79  
686  5   
687  3   
688  2   
689  7   
690  8   
691  5   
692  2   
693  10  
694  62  
695  6   
696  1   
697  8   
698  9   
699  2   
700  5   
701  4   
702  3   
703  9   
704  3   
705  10  
706  4   
707  6   
708  8   
709  8   
710  3   
711  4   
712  1   
713  1   
714  2   
715  2   
716  9   
717  7   
718  7   
719  9   
720  7   
721  9   
722  1   
723  6   
724  4   
725  5   
726  8   
727  1   
728  9   
729  6   
730  8   
731  9   
732  5   
733  5   
734  6   
735  5   
736  8   
737  9   
738  8   
739  1   
740  10  
741  1   
742  10  
743  6   
744  10  
745  9   
746  6   
747  9   
748  9   
749  4   
750  7   
751  9   
752  6   
753  10  
754  7   
755  2   
756  9   
757  4   
758  4   
759  4   
760  7   
761  5   
762  5   
763  4   
764  6   
765  2   
766  4   
767  5   
768  6   
769  3   
770  1   
771  10  
772  2   
773  63  
774  5   
775  7   
776  6   
777  9   
778  6   
779  7   
780  4   
781  6   
782  1   
783  10  
784  5   
785  4   
786  9   
787  3   
788  7   
789  6   
790  3   
791  3   
792  6   
793  10  
794  6   
795  1   
796  6   
797  4   
798  10  
799  2   
800  7   
801  4   
802  7   
803  5   
804  7   
805  5   
806  8   
807  1   
808  10  
809  8   
810  8   
811  6   
812  9   
813  1   
814  10  
815  5   
816  9   
817  8   
818  9   
819  83  
820  3   
821  1   
822  1   
823  6   
824  1   
825  98  
826  5   
827  8   
828  3   
829  5   
830  2   
831  9   
832  91  
833  5   
834  2   
835  8   
836  4   
837  8   
838  5   
839  8   
840  4   
841  7   
842  4   
843  10  
844  1   
845  5   
846  5   
847  8   
848  2   
849  2   
850  9   
851  10  
852  4   
853  60  
854  1   
855  9   
856  4   
857  7   
858  10  
859  4   
860  3   
861  3   
862  9   
863  7   
864  1   
865  4   
866  2   
867  1   
868  52  
869  8   
870  4   
871  3   
872  5   
873  73  
874  3   
875  8   
876  1   
877  2   
878  4   
879  4   
880  4   
881  9   
882  4   
883  6   
884  3   
885  4   
886  2   
887  8   
888  10  
889  6   
890  1   
891  6   
892  2   
893  5   
894  5   
895  7   
896  7   
897  4   
898  9   
899  2   
900  10  
901  9   
902  10  
903  8   
904  6   
905  9   
906  6   
907  8   
908  2   
909  10  
910  5   
911  2   
912  10  
913  3   
914  10  
915  9   
916  3   
917  9   
918  6   
919  9   
920  7   
921  7   
922  8   
923  68  
924  1   
925  3   
926  9   
927  7   
928  4   
929  9   
930  89  
931  1   
932  3   
933  5   
934  58  
935  71  
936  2   
937  6   
938  5   
939  1   
940  99  
941  10  
942  3   
943  10  
944  10  
945  10  
946  3   
947  10  
948  5   
949  2   
950  5   
951  7   
952  8   
953  3   
954  8   
955  8   
956  3   
957  1   
958  4   
959  10  
960  4   
961  1   
962  1   
963  6   
964  6   
965  6   
966  10  
967  8   
968  1   
969  7   
970  7   
971  1   
972  4   
973  7   
974  55  
975  3   
976  2   
977  4   
978  3   
979  89  
980  3   
981  3   
982  7   
983  2   
984  10  
985  6   
986  10  
987  3   
988  4   
989  3   
990  10  
991  5   
992  7   
993  4   
994  4   
995  1   
996  8   
997  3   
998  4   
999  8   
1000 4   
1001 7   
DEPOT_SECTION
1
-1
EOF
