NAME : XML1000_2176_01
COMMENT : Generated as the XML100 dataset from the CVRPLIB
TYPE : CVRP
DIMENSION : 1001
EDGE_WEIGHT_TYPE : EUC_2D
CAPACITY : 251
NODE_COORD_SECTION
1    500  500 
2    131  717 
3    798  852 
4    618  179 
5    234  396 
6    723  430 
7    190  246 
8    741  340 
9    168  786 
10   546  665 
11   619  53  
12   374  445 
13   950  904 
14   767  289 
15   627  712 
16   278  532 
17   856  190 
18   294  722 
19   82   153 
20   249  760 
21   251  697 
22   133  56  
23   436  797 
24   13   157 
25   549  374 
26   240  109 
27   853  877 
28   5    126 
29   133  73  
30   936  782 
31   445  871 
32   71   992 
33   61   861 
34   927  457 
35   71   385 
36   609  795 
37   60   649 
38   685  559 
39   763  369 
40   172  478 
41   518  685 
42   457  351 
43   489  306 
44   28   858 
45   757  7   
46   993  822 
47   970  939 
48   368  68  
49   838  508 
50   708  772 
51   577  782 
52   17   158 
53   509  640 
54   779  314 
55   624  917 
56   791  161 
57   632  534 
58   446  793 
59   401  206 
60   364  265 
61   997  425 
62   150  313 
63   149  730 
64   784  741 
65   740  296 
66   415  196 
67   54   780 
68   978  642 
69   309  996 
70   163  402 
71   122  273 
72   598  609 
73   677  444 
74   42   675 
75   819  767 
76   325  740 
77   934  615 
78   496  426 
79   299  606 
80   406  982 
81   371  381 
82   576  787 
83   33   59  
84   46   423 
85   870  597 
86   323  53  
87   879  252 
88   69   14  
89   405  612 
90   53   746 
91   139  430 
92   342  829 
93   942  675 
94   453  801 
95   513  160 
96   494  616 
97   481  66  
98   849  837 
99   182  945 
100  490  25  
101  37   888 
102  666  962 
103  34   448 
104  840  178 
105  880  570 
106  717  363 
107  472  777 
108  851  274 
109  98   700 
110  322  9   
111  45   430 
112  622  582 
113  580  653 
114  989  939 
115  907  58  
116  200  29  
117  296  50  
118  191  756 
119  27   383 
120  168  676 
121  165  350 
122  917  244 
123  584  673 
124  672  275 
125  79   309 
126  736  717 
127  968  383 
128  470  174 
129  776  905 
130  982  260 
131  885  714 
132  617  529 
133  919  410 
134  301  521 
135  234  99  
136  657  911 
137  101  991 
138  982  375 
139  980  355 
140  302  158 
141  433  842 
142  558  697 
143  489  854 
144  739  414 
145  682  562 
146  349  928 
147  870  756 
148  834  512 
149  329  75  
150  689  693 
151  428  894 
152  369  492 
153  769  711 
154  793  724 
155  679  395 
156  310  188 
157  578  369 
158  677  740 
159  133  772 
160  131  300 
161  196  358 
162  579  938 
163  599  439 
164  22   430 
165  957  406 
166  475  871 
167  669  983 
168  240  719 
169  38   177 
170  527  623 
171  43   781 
172  892  530 
173  605  551 
174  717  215 
175  172  987 
176  335  597 
177  5    557 
178  837  846 
179  935  563 
180  723  482 
181  986  8   
182  514  940 
183  295  203 
184  321  288 
185  829  826 
186  686  488 
187  463  378 
188  368  588 
189  840  814 
190  178  173 
191  320  475 
192  362  548 
193  210  130 
194  967  588 
195  327  248 
196  259  180 
197  416  871 
198  952  484 
199  257  913 
200  844  351 
201  532  361 
202  209  278 
203  225  583 
204  190  193 
205  874  971 
206  398  254 
207  690  472 
208  49   416 
209  299  668 
210  450  628 
211  617  425 
212  494  920 
213  107  154 
214  677  948 
215  131  51  
216  650  841 
217  175  19  
218  290  846 
219  975  975 
220  743  265 
221  356  29  
222  7    937 
223  569  388 
224  497  743 
225  190  35  
226  422  747 
227  700  535 
228  672  920 
229  397  15  
230  999  549 
231  794  715 
232  646  721 
233  657  975 
234  266  584 
235  232  483 
236  16   605 
237  181  767 
238  713  57  
239  438  318 
240  647  873 
241  931  674 
242  992  96  
243  612  777 
244  240  228 
245  839  301 
246  597  168 
247  499  952 
248  958  92  
249  913  290 
250  42   954 
251  573  195 
252  809  984 
253  955  771 
254  532  846 
255  621  673 
256  168  430 
257  362  843 
258  97   569 
259  709  394 
260  578  818 
261  832  121 
262  588  302 
263  880  1000
264  729  44  
265  593  180 
266  216  548 
267  762  75  
268  48   367 
269  57   623 
270  774  300 
271  324  756 
272  853  818 
273  322  881 
274  56   702 
275  241  137 
276  697  388 
277  115  93  
278  384  409 
279  144  578 
280  611  373 
281  719  385 
282  828  770 
283  263  446 
284  13   134 
285  309  970 
286  927  408 
287  393  580 
288  291  115 
289  187  639 
290  111  741 
291  934  506 
292  214  960 
293  637  882 
294  690  300 
295  848  36  
296  654  318 
297  477  318 
298  790  433 
299  101  935 
300  941  805 
301  449  548 
302  79   353 
303  491  791 
304  514  566 
305  818  902 
306  665  532 
307  496  142 
308  397  501 
309  182  885 
310  963  795 
311  467  178 
312  409  830 
313  336  611 
314  903  678 
315  808  885 
316  118  912 
317  51   78  
318  605  523 
319  412  623 
320  108  836 
321  691  268 
322  93   471 
323  195  562 
324  207  925 
325  763  767 
326  955  98  
327  603  265 
328  474  179 
329  333  617 
330  32   508 
331  118  771 
332  915  720 
333  432  739 
334  625  992 
335  306  891 
336  715  3   
337  891  48  
338  434  624 
339  592  470 
340  617  363 
341  795  784 
342  458  56  
343  819  150 
344  308  837 
345  718  169 
346  794  941 
347  31   128 
348  102  590 
349  983  51  
350  402  653 
351  910  895 
352  977  7   
353  885  662 
354  243  349 
355  3    618 
356  785  107 
357  384  45  
358  940  262 
359  66   235 
360  702  310 
361  652  312 
362  855  334 
363  424  712 
364  408  642 
365  434  777 
366  553  197 
367  716  234 
368  943  549 
369  951  568 
370  161  352 
371  909  588 
372  661  271 
373  654  16  
374  250  545 
375  332  615 
376  436  212 
377  382  617 
378  440  346 
379  403  122 
380  72   757 
381  910  91  
382  96   760 
383  472  67  
384  494  591 
385  979  972 
386  809  836 
387  466  309 
388  992  540 
389  3    589 
390  826  119 
391  138  359 
392  729  371 
393  925  640 
394  656  156 
395  305  575 
396  165  815 
397  993  422 
398  862  229 
399  577  252 
400  964  258 
401  941  596 
402  71   662 
403  165  898 
404  991  387 
405  680  975 
406  742  229 
407  569  554 
408  950  674 
409  552  696 
410  292  166 
411  931  310 
412  853  928 
413  544  82  
414  639  940 
415  591  902 
416  347  868 
417  182  744 
418  157  462 
419  624  462 
420  164  543 
421  949  369 
422  668  857 
423  99   443 
424  395  710 
425  641  385 
426  109  875 
427  458  867 
428  731  922 
429  477  711 
430  511  519 
431  292  680 
432  418  895 
433  503  843 
434  587  898 
435  153  115 
436  529  437 
437  365  71  
438  785  985 
439  182  127 
440  525  469 
441  195  69  
442  91   832 
443  0    476 
444  601  701 
445  811  75  
446  598  173 
447  5    747 
448  31   740 
449  187  507 
450  307  253 
451  273  163 
452  718  815 
453  194  236 
454  963  947 
455  138  475 
456  364  349 
457  170  480 
458  368  467 
459  73   946 
460  689  914 
461  146  384 
462  781  439 
463  226  403 
464  389  624 
465  872  854 
466  181  631 
467  18   622 
468  604  398 
469  756  677 
470  554  598 
471  699  553 
472  297  12  
473  566  414 
474  730  373 
475  543  420 
476  948  866 
477  607  16  
478  874  620 
479  144  669 
480  985  474 
481  180  595 
482  48   564 
483  668  667 
484  321  43  
485  174  375 
486  393  647 
487  454  777 
488  262  73  
489  66   51  
490  672  405 
491  193  697 
492  905  416 
493  596  223 
494  827  466 
495  123  473 
496  995  714 
497  696  570 
498  195  360 
499  59   711 
500  170  501 
501  602  589 
502  511  64  
503  37   578 
504  955  829 
505  194  583 
506  452  170 
507  712  429 
508  490  580 
509  429  408 
510  753  842 
511  931  535 
512  761  568 
513  731  239 
514  731  557 
515  744  94  
516  870  377 
517  23   512 
518  646  696 
519  491  443 
520  905  209 
521  896  521 
522  440  673 
523  933  924 
524  495  389 
525  946  875 
526  873  79  
527  173  54  
528  458  680 
529  622  464 
530  681  161 
531  903  193 
532  284  80  
533  195  535 
534  873  488 
535  228  50  
536  867  3   
537  454  469 
538  466  90  
539  741  563 
540  260  941 
541  855  782 
542  145  771 
543  654  686 
544  739  452 
545  579  548 
546  601  491 
547  822  781 
548  730  992 
549  31   883 
550  382  342 
551  633  826 
552  972  869 
553  172  415 
554  572  385 
555  81   268 
556  663  481 
557  523  824 
558  406  449 
559  581  892 
560  616  590 
561  443  993 
562  261  42  
563  583  815 
564  245  992 
565  758  406 
566  869  912 
567  321  922 
568  726  98  
569  548  337 
570  1000 586 
571  878  678 
572  315  144 
573  786  880 
574  206  443 
575  849  643 
576  54   135 
577  681  740 
578  243  330 
579  948  335 
580  648  581 
581  858  428 
582  880  191 
583  906  266 
584  609  410 
585  373  315 
586  80   361 
587  233  687 
588  55   444 
589  446  328 
590  882  4   
591  805  83  
592  397  199 
593  12   465 
594  890  400 
595  469  882 
596  44   501 
597  847  534 
598  118  642 
599  196  583 
600  439  94  
601  172  315 
602  332  864 
603  503  837 
604  445  423 
605  56   488 
606  109  431 
607  787  900 
608  66   276 
609  478  413 
610  170  281 
611  501  702 
612  500  393 
613  654  349 
614  637  273 
615  134  434 
616  329  174 
617  741  785 
618  377  837 
619  516  251 
620  212  253 
621  645  409 
622  920  707 
623  883  761 
624  357  90  
625  431  967 
626  501  464 
627  991  982 
628  502  907 
629  922  368 
630  461  146 
631  671  512 
632  243  587 
633  629  558 
634  839  387 
635  897  54  
636  532  918 
637  162  50  
638  281  146 
639  294  363 
640  583  652 
641  702  680 
642  562  548 
643  161  594 
644  80   737 
645  303  395 
646  932  812 
647  21   831 
648  830  164 
649  294  655 
650  486  622 
651  289  620 
652  357  551 
653  252  60  
654  198  643 
655  1000 606 
656  303  358 
657  853  553 
658  713  401 
659  183  346 
660  925  920 
661  246  459 
662  494  675 
663  592  51  
664  129  445 
665  149  946 
666  199  963 
667  448  629 
668  45   813 
669  14   772 
670  738  798 
671  85   706 
672  718  280 
673  10   953 
674  489  502 
675  714  469 
676  853  900 
677  800  331 
678  556  714 
679  658  926 
680  293  547 
681  916  432 
682  431  923 
683  361  941 
684  931  537 
685  973  431 
686  500  84  
687  503  413 
688  641  179 
689  137  17  
690  461  170 
691  919  807 
692  470  500 
693  494  369 
694  118  153 
695  735  296 
696  486  299 
697  32   17  
698  139  417 
699  750  175 
700  736  159 
701  391  892 
702  837  791 
703  528  685 
704  657  79  
705  356  61  
706  986  693 
707  253  284 
708  552  737 
709  584  854 
710  152  912 
711  279  232 
712  88   250 
713  486  192 
714  474  520 
715  503  166 
716  876  9   
717  763  247 
718  306  557 
719  557  376 
720  856  313 
721  892  2   
722  240  181 
723  186  81  
724  145  695 
725  853  940 
726  77   255 
727  390  431 
728  247  487 
729  1    382 
730  857  131 
731  355  335 
732  840  206 
733  468  54  
734  102  651 
735  811  959 
736  357  743 
737  129  782 
738  374  880 
739  844  101 
740  944  827 
741  689  342 
742  460  414 
743  863  227 
744  480  158 
745  807  982 
746  117  527 
747  653  887 
748  204  71  
749  961  324 
750  339  918 
751  596  595 
752  101  353 
753  956  186 
754  108  348 
755  175  80  
756  23   422 
757  429  907 
758  722  901 
759  157  757 
760  358  94  
761  288  848 
762  696  280 
763  549  123 
764  461  446 
765  571  543 
766  880  142 
767  797  761 
768  738  36  
769  350  664 
770  865  514 
771  232  569 
772  970  357 
773  501  335 
774  790  919 
775  717  845 
776  356  719 
777  36   17  
778  791  282 
779  737  711 
780  244  37  
781  105  69  
782  7    214 
783  174  131 
784  104  869 
785  638  645 
786  466  343 
787  147  530 
788  327  565 
789  332  640 
790  572  451 
791  35   533 
792  673  708 
793  930  458 
794  232  808 
795  341  306 
796  835  475 
797  439  57  
798  801  642 
799  738  346 
800  975  726 
801  662  121 
802  283  494 
803  252  395 
804  897  602 
805  296  982 
806  957  563 
807  977  171 
808  36   50  
809  265  650 
810  554  696 
811  816  91  
812  226  675 
813  213  272 
814  985  303 
815  870  79  
816  737  577 
817  488  834 
818  697  369 
819  373  917 
820  650  522 
821  929  269 
822  223  883 
823  885  87  
824  480  248 
825  125  170 
826  982  76  
827  986  479 
828  780  485 
829  169  318 
830  978  572 
831  447  482 
832  39   113 
833  843  56  
834  858  391 
835  767  158 
836  596  4   
837  672  158 
838  116  306 
839  777  199 
840  633  23  
841  686  444 
842  703  200 
843  109  493 
844  230  391 
845  284  669 
846  624  382 
847  154  61  
848  826  195 
849  183  680 
850  831  667 
851  280  227 
852  935  714 
853  130  34  
854  786  158 
855  989  527 
856  931  812 
857  487  806 
858  727  118 
859  203  821 
860  156  525 
861  591  307 
862  128  483 
863  77   501 
864  819  821 
865  867  751 
866  548  746 
867  73   546 
868  47   611 
869  870  43  
870  719  32  
871  857  729 
872  958  54  
873  318  971 
874  886  455 
875  142  271 
876  823  890 
877  15   211 
878  336  899 
879  653  175 
880  534  634 
881  681  72  
882  216  506 
883  534  49  
884  301  518 
885  452  719 
886  936  998 
887  789  785 
888  348  774 
889  949  973 
890  788  461 
891  918  23  
892  585  449 
893  537  932 
894  986  794 
895  440  903 
896  313  50  
897  356  260 
898  315  908 
899  17   555 
900  791  98  
901  375  820 
902  975  875 
903  632  173 
904  633  33  
905  69   571 
906  114  62  
907  775  329 
908  438  414 
909  884  31  
910  572  105 
911  522  652 
912  937  413 
913  796  180 
914  881  707 
915  697  974 
916  120  620 
917  553  229 
918  731  290 
919  478  614 
920  144  369 
921  596  162 
922  533  604 
923  203  668 
924  668  598 
925  5    333 
926  48   399 
927  834  209 
928  60   978 
929  539  437 
930  61   661 
931  363  867 
932  562  858 
933  369  226 
934  353  168 
935  317  760 
936  767  564 
937  433  336 
938  439  998 
939  26   76  
940  990  992 
941  513  944 
942  740  719 
943  564  779 
944  677  371 
945  144  28  
946  158  60  
947  27   554 
948  789  360 
949  890  991 
950  267  114 
951  739  433 
952  167  610 
953  862  428 
954  252  927 
955  890  507 
956  388  787 
957  247  753 
958  732  368 
959  155  111 
960  782  179 
961  980  628 
962  568  688 
963  811  867 
964  587  197 
965  829  810 
966  473  832 
967  728  504 
968  702  433 
969  265  50  
970  789  977 
971  399  942 
972  985  86  
973  154  879 
974  335  667 
975  605  199 
976  513  919 
977  641  218 
978  245  321 
979  67   609 
980  931  833 
981  301  47  
982  895  844 
983  136  467 
984  424  456 
985  612  728 
986  527  612 
987  414  452 
988  999  54  
989  804  619 
990  458  414 
991  789  911 
992  341  949 
993  110  688 
994  664  965 
995  14   219 
996  865  613 
997  822  201 
998  447  983 
999  655  649 
1000 445  229 
1001 511  586 
DEMAND_SECTION
1    0   
2    1   
3    1   
4    4   
5    6   
6    3   
7    2   
8    7   
9    8   
10   5   
11   8   
12   2   
13   10  
14   10  
15   9   
16   1   
17   9   
18   52  
19   10  
20   8   
21   1   
22   10  
23   6   
24   4   
25   6   
26   4   
27   86  
28   9   
29   10  
30   6   
31   1   
32   4   
33   6   
34   7   
35   6   
36   6   
37   2   
38   6   
39   7   
40   1   
41   10  
42   10  
43   9   
44   2   
45   4   
46   1   
47   4   
48   2   
49   4   
50   2   
51   7   
52   76  
53   7   
54   1   
55   2   
56   3   
57   5   
58   82  
59   1   
60   6   
61   8   
62   8   
63   2   
64   7   
65   6   
66   2   
67   2   
68   4   
69   6   
70   3   
71   62  
72   6   
73   9   
74   6   
75   5   
76   6   
77   10  
78   3   
79   6   
80   9   
81   2   
82   3   
83   6   
84   5   
85   9   
86   4   
87   2   
88   5   
89   1   
90   5   
91   10  
92   3   
93   4   
94   3   
95   10  
96   6   
97   5   
98   6   
99   2   
100  5   
101  9   
102  8   
103  4   
104  10  
105  4   
106  6   
107  5   
108  5   
109  7   
110  10  
111  95  
112  5   
113  9   
114  9   
115  3   
116  8   
117  5   
118  2   
119  1   
120  10  
121  5   
122  5   
123  9   
124  8   
125  7   
126  7   
127  4   
128  8   
129  8   
130  9   
131  52  
132  2   
133  10  
134  10  
135  1   
136  4   
137  1   
138  1   
139  10  
140  10  
141  7   
142  6   
143  9   
144  10  
145  4   
146  4   
147  8   
148  1   
149  6   
150  1   
151  6   
152  5   
153  7   
154  1   
155  2   
156  4   
157  1   
158  2   
159  4   
160  9   
161  7   
162  10  
163  2   
164  4   
165  5   
166  3   
167  7   
168  2   
169  2   
170  9   
171  99  
172  6   
173  5   
174  9   
175  100 
176  5   
177  10  
178  5   
179  6   
180  8   
181  8   
182  4   
183  8   
184  6   
185  2   
186  2   
187  8   
188  88  
189  6   
190  5   
191  1   
192  5   
193  9   
194  1   
195  10  
196  5   
197  5   
198  1   
199  5   
200  6   
201  8   
202  7   
203  1   
204  4   
205  3   
206  7   
207  1   
208  4   
209  3   
210  7   
211  6   
212  8   
213  7   
214  4   
215  4   
216  3   
217  10  
218  9   
219  2   
220  4   
221  5   
222  8   
223  8   
224  4   
225  5   
226  9   
227  10  
228  6   
229  7   
230  5   
231  9   
232  7   
233  6   
234  9   
235  5   
236  7   
237  8   
238  10  
239  8   
240  6   
241  1   
242  3   
243  8   
244  89  
245  1   
246  6   
247  10  
248  92  
249  10  
250  1   
251  1   
252  10  
253  6   
254  2   
255  8   
256  70  
257  2   
258  3   
259  5   
260  4   
261  5   
262  9   
263  6   
264  9   
265  53  
266  9   
267  57  
268  3   
269  1   
270  4   
271  8   
272  1   
273  2   
274  2   
275  10  
276  7   
277  3   
278  2   
279  3   
280  93  
281  70  
282  7   
283  5   
284  7   
285  3   
286  2   
287  9   
288  10  
289  2   
290  3   
291  1   
292  5   
293  3   
294  6   
295  10  
296  10  
297  6   
298  2   
299  6   
300  2   
301  7   
302  7   
303  1   
304  9   
305  80  
306  7   
307  1   
308  1   
309  8   
310  5   
311  8   
312  5   
313  3   
314  10  
315  3   
316  10  
317  1   
318  5   
319  3   
320  6   
321  3   
322  10  
323  6   
324  3   
325  10  
326  5   
327  5   
328  1   
329  8   
330  10  
331  4   
332  9   
333  2   
334  3   
335  94  
336  7   
337  8   
338  58  
339  4   
340  10  
341  7   
342  8   
343  6   
344  1   
345  81  
346  6   
347  8   
348  6   
349  1   
350  1   
351  4   
352  2   
353  1   
354  9   
355  7   
356  7   
357  3   
358  8   
359  8   
360  1   
361  5   
362  6   
363  8   
364  8   
365  5   
366  1   
367  5   
368  4   
369  5   
370  10  
371  6   
372  4   
373  7   
374  9   
375  4   
376  10  
377  9   
378  10  
379  8   
380  7   
381  9   
382  5   
383  10  
384  1   
385  3   
386  1   
387  8   
388  9   
389  7   
390  8   
391  5   
392  91  
393  85  
394  9   
395  2   
396  1   
397  10  
398  8   
399  7   
400  97  
401  55  
402  9   
403  8   
404  1   
405  8   
406  10  
407  10  
408  5   
409  5   
410  7   
411  2   
412  2   
413  10  
414  10  
415  2   
416  10  
417  4   
418  4   
419  1   
420  8   
421  7   
422  2   
423  4   
424  4   
425  5   
426  4   
427  1   
428  2   
429  3   
430  3   
431  6   
432  2   
433  6   
434  4   
435  6   
436  9   
437  7   
438  8   
439  90  
440  4   
441  98  
442  2   
443  2   
444  1   
445  10  
446  5   
447  3   
448  5   
449  2   
450  9   
451  97  
452  4   
453  1   
454  8   
455  2   
456  9   
457  4   
458  3   
459  1   
460  9   
461  6   
462  6   
463  5   
464  9   
465  4   
466  7   
467  1   
468  2   
469  8   
470  6   
471  4   
472  5   
473  2   
474  10  
475  6   
476  8   
477  10  
478  9   
479  9   
480  4   
481  2   
482  8   
483  10  
484  7   
485  10  
486  1   
487  5   
488  7   
489  6   
490  3   
491  80  
492  8   
493  10  
494  5   
495  10  
496  4   
497  9   
498  7   
499  10  
500  6   
501  4   
502  5   
503  4   
504  8   
505  9   
506  8   
507  10  
508  9   
509  4   
510  51  
511  8   
512  2   
513  7   
514  99  
515  2   
516  2   
517  7   
518  9   
519  7   
520  8   
521  9   
522  8   
523  5   
524  6   
525  9   
526  6   
527  91  
528  9   
529  7   
530  9   
531  7   
532  8   
533  1   
534  3   
535  10  
536  10  
537  6   
538  2   
539  2   
540  4   
541  8   
542  8   
543  6   
544  1   
545  6   
546  7   
547  2   
548  2   
549  10  
550  79  
551  4   
552  9   
553  4   
554  10  
555  5   
556  5   
557  8   
558  6   
559  10  
560  6   
561  8   
562  5   
563  4   
564  10  
565  7   
566  3   
567  3   
568  3   
569  10  
570  5   
571  5   
572  2   
573  5   
574  6   
575  79  
576  9   
577  10  
578  8   
579  1   
580  3   
581  7   
582  7   
583  5   
584  9   
585  69  
586  5   
587  3   
588  4   
589  9   
590  8   
591  6   
592  8   
593  89  
594  9   
595  2   
596  66  
597  3   
598  5   
599  10  
600  7   
601  2   
602  8   
603  9   
604  9   
605  5   
606  1   
607  5   
608  1   
609  1   
610  5   
611  5   
612  10  
613  10  
614  9   
615  4   
616  6   
617  5   
618  4   
619  8   
620  6   
621  1   
622  4   
623  10  
624  7   
625  2   
626  1   
627  8   
628  6   
629  7   
630  7   
631  5   
632  5   
633  3   
634  5   
635  9   
636  8   
637  4   
638  5   
639  9   
640  7   
641  4   
642  3   
643  60  
644  9   
645  2   
646  2   
647  8   
648  2   
649  9   
650  5   
651  1   
652  2   
653  9   
654  2   
655  2   
656  6   
657  9   
658  3   
659  1   
660  10  
661  7   
662  4   
663  2   
664  2   
665  58  
666  61  
667  1   
668  4   
669  8   
670  6   
671  6   
672  1   
673  2   
674  5   
675  5   
676  8   
677  4   
678  3   
679  2   
680  5   
681  9   
682  6   
683  4   
684  98  
685  9   
686  5   
687  1   
688  4   
689  9   
690  9   
691  7   
692  8   
693  63  
694  5   
695  2   
696  9   
697  7   
698  5   
699  8   
700  7   
701  6   
702  7   
703  2   
704  8   
705  10  
706  1   
707  10  
708  6   
709  8   
710  3   
711  6   
712  1   
713  8   
714  2   
715  5   
716  1   
717  9   
718  1   
719  3   
720  2   
721  2   
722  5   
723  2   
724  2   
725  9   
726  5   
727  9   
728  2   
729  7   
730  10  
731  2   
732  2   
733  5   
734  7   
735  10  
736  5   
737  2   
738  1   
739  5   
740  6   
741  10  
742  10  
743  3   
744  6   
745  10  
746  2   
747  6   
748  1   
749  10  
750  8   
751  7   
752  10  
753  8   
754  10  
755  1   
756  9   
757  9   
758  10  
759  10  
760  9   
761  3   
762  9   
763  7   
764  6   
765  6   
766  10  
767  2   
768  2   
769  2   
770  2   
771  67  
772  1   
773  4   
774  8   
775  2   
776  1   
777  3   
778  8   
779  5   
780  8   
781  1   
782  10  
783  7   
784  8   
785  9   
786  10  
787  10  
788  2   
789  6   
790  1   
791  10  
792  8   
793  2   
794  10  
795  1   
796  2   
797  8   
798  1   
799  4   
800  9   
801  8   
802  5   
803  4   
804  1   
805  9   
806  8   
807  1   
808  4   
809  6   
810  4   
811  5   
812  3   
813  10  
814  5   
815  7   
816  4   
817  94  
818  8   
819  6   
820  2   
821  8   
822  7   
823  91  
824  7   
825  1   
826  5   
827  2   
828  5   
829  9   
830  77  
831  9   
832  7   
833  4   
834  7   
835  3   
836  8   
837  2   
838  2   
839  10  
840  8   
841  8   
842  1   
843  3   
844  3   
845  10  
846  7   
847  3   
848  10  
849  9   
850  7   
851  92  
852  3   
853  5   
854  8   
855  3   
856  7   
857  7   
858  10  
859  1   
860  4   
861  8   
862  1   
863  5   
864  8   
865  5   
866  53  
867  8   
868  8   
869  8   
870  7   
871  98  
872  1   
873  9   
874  3   
875  8   
876  1   
877  9   
878  5   
879  3   
880  2   
881  1   
882  7   
883  4   
884  7   
885  8   
886  1   
887  10  
888  9   
889  2   
890  6   
891  10  
892  9   
893  4   
894  10  
895  9   
896  7   
897  1   
898  7   
899  1   
900  3   
901  6   
902  9   
903  9   
904  10  
905  6   
906  6   
907  7   
908  1   
909  2   
910  2   
911  6   
912  2   
913  6   
914  7   
915  8   
916  9   
917  4   
918  3   
919  4   
920  3   
921  60  
922  8   
923  6   
924  3   
925  9   
926  2   
927  10  
928  53  
929  6   
930  7   
931  10  
932  61  
933  68  
934  10  
935  3   
936  1   
937  7   
938  63  
939  3   
940  3   
941  4   
942  3   
943  3   
944  8   
945  7   
946  8   
947  4   
948  8   
949  9   
950  9   
951  6   
952  5   
953  10  
954  9   
955  8   
956  7   
957  10  
958  4   
959  6   
960  2   
961  3   
962  7   
963  3   
964  6   
965  5   
966  6   
967  5   
968  9   
969  7   
970  3   
971  5   
972  62  
973  9   
974  7   
975  2   
976  2   
977  83  
978  6   
979  7   
980  10  
981  5   
982  6   
983  4   
984  10  
985  9   
986  9   
987  2   
988  10  
989  8   
990  7   
991  9   
992  10  
993  8   
994  10  
995  7   
996  8   
997  1   
998  1   
999  3   
1000 60  
1001 10  
DEPOT_SECTION
1
-1
EOF
