NAME : XML1000_2124_01
COMMENT : Generated as the XML100 dataset from the CVRPLIB
TYPE : CVRP
DIMENSION : 1001
EDGE_WEIGHT_TYPE : EUC_2D
CAPACITY : 68
NODE_COORD_SECTION
1    5000 5000
2    5099 9456
3    9958 9316
4    631  1822
5    7521 7459
6    9939 1180
7    6660 4649
8    7093 6671
9    9975 6085
10   2178 7486
11   3629 5178
12   6224 8317
13   9924 3053
14   7849 7229
15   4281 1838
16   9468 5696
17   4500 2351
18   5277 1210
19   2803 308 
20   9884 8467
21   622  1003
22   8463 7675
23   4102 4388
24   5573 1855
25   507  5784
26   7455 5235
27   817  9918
28   1443 1737
29   2868 5796
30   6504 5317
31   2057 7737
32   3738 6867
33   9363 2588
34   3125 8565
35   9787 4827
36   2792 1250
37   8445 5889
38   7249 885 
39   1051 4305
40   8301 7689
41   7466 4957
42   4837 4328
43   2562 3674
44   2294 4375
45   453  901 
46   7092 2499
47   3943 7354
48   9723 5358
49   7906 9864
50   2724 8018
51   7516 9308
52   535  2365
53   5979 5043
54   1403 9138
55   3964 2312
56   5440 8876
57   5694 5374
58   6556 512 
59   8190 1028
60   8808 8187
61   6608 376 
62   2899 9387
63   5606 6514
64   5609 6753
65   9101 3416
66   6496 9999
67   6719 210 
68   3244 4411
69   5998 2631
70   4472 7619
71   5319 8223
72   59   7275
73   2437 2171
74   2877 9965
75   9595 7039
76   7376 1939
77   4667 1855
78   4604 6171
79   3154 3956
80   1518 4040
81   6002 9377
82   6151 6548
83   2452 6298
84   3204 9642
85   1486 6557
86   4785 9702
87   9454 5907
88   8409 5459
89   6795 5308
90   9991 7399
91   7514 1385
92   4750 8742
93   2819 9793
94   9554 592 
95   9669 1722
96   165  3040
97   3030 3942
98   8775 299 
99   8549 7785
100  9833 9869
101  5076 4204
102  5094 3658
103  3602 9339
104  1977 7571
105  8316 4380
106  9111 873 
107  7163 7716
108  8198 4653
109  7300 4021
110  956  2694
111  7138 3280
112  9064 4707
113  7874 816 
114  9742 7312
115  4714 5482
116  9798 380 
117  5273 7192
118  3625 8821
119  5820 4393
120  6147 5630
121  2584 9517
122  1228 5342
123  2517 3888
124  8929 2282
125  7097 1923
126  5917 730 
127  7339 5203
128  5545 2919
129  7066 1266
130  8488 9153
131  6430 3298
132  3637 1826
133  995  9364
134  7611 9561
135  3961 7015
136  1273 5658
137  2777 864 
138  5480 8648
139  8952 4909
140  4539 7906
141  776  5872
142  4555 1287
143  6379 2727
144  8841 7040
145  2538 9931
146  8114 5453
147  4523 7682
148  2365 8481
149  6123 9882
150  127  2102
151  8028 7234
152  3843 2909
153  691  2807
154  6860 5271
155  897  7809
156  2535 706 
157  7203 5858
158  5088 5274
159  821  598 
160  1848 1082
161  6511 7196
162  5839 4907
163  7824 9275
164  3348 8060
165  7560 1085
166  7578 8049
167  1765 7415
168  2697 3206
169  8517 5790
170  5850 1144
171  7821 6145
172  4738 3302
173  2619 6446
174  6766 979 
175  6789 1574
176  6011 2226
177  6667 7811
178  9829 915 
179  1375 8844
180  5745 4984
181  1246 4095
182  5501 3043
183  2241 7434
184  5066 2688
185  6022 7601
186  6935 5380
187  9379 7663
188  9418 4837
189  677  3071
190  3922 7203
191  3344 5707
192  1972 7609
193  9958 4006
194  5547 8062
195  813  1382
196  779  5850
197  5750 1352
198  7151 8210
199  8370 9801
200  4335 5479
201  49   9901
202  2074 6548
203  281  8703
204  4141 6170
205  6421 1544
206  5893 7961
207  9640 787 
208  7325 5623
209  2990 1306
210  700  6484
211  166  1270
212  6127 4625
213  6227 9992
214  3003 8122
215  3983 1558
216  4782 5300
217  9961 4897
218  4782 3717
219  8776 9014
220  7231 1616
221  4060 4547
222  1064 9577
223  802  3638
224  5767 362 
225  3692 6269
226  4854 7132
227  5016 267 
228  7988 18  
229  7625 1177
230  7993 5354
231  1522 8355
232  8967 1359
233  4172 5901
234  3286 1819
235  9992 6678
236  2535 8493
237  56   3493
238  7887 7423
239  3260 2826
240  4451 8521
241  3040 4958
242  8512 6824
243  5546 7657
244  9441 6111
245  563  8530
246  1332 588 
247  1766 3058
248  4855 2501
249  1446 5959
250  7760 8639
251  6901 9686
252  1962 3344
253  3444 2593
254  8576 9797
255  6013 6639
256  2278 4346
257  7650 5147
258  9174 3125
259  9969 4452
260  9596 9049
261  3967 7792
262  5973 2307
263  5748 8928
264  1859 572 
265  3181 8573
266  2305 455 
267  7112 8134
268  9616 7160
269  4363 9964
270  8599 5054
271  5420 4526
272  4796 5707
273  7524 2792
274  1453 3428
275  2702 2855
276  5940 871 
277  192  7440
278  7646 4816
279  1957 4374
280  5488 1241
281  1458 757 
282  3853 6889
283  6488 7466
284  454  3719
285  811  9502
286  2508 8410
287  4873 2645
288  6721 7387
289  7939 6827
290  7714 1519
291  8315 4319
292  5041 1563
293  9693 794 
294  6322 3124
295  8740 7307
296  9481 12  
297  7691 7302
298  6271 7392
299  8724 4761
300  5595 5717
301  8523 9023
302  4546 2625
303  5293 539 
304  6917 5139
305  6944 9990
306  586  9240
307  8687 1500
308  3184 1589
309  2863 3111
310  6628 7235
311  2155 9719
312  5290 5050
313  5193 8805
314  9781 5708
315  82   8926
316  4515 5917
317  1519 2490
318  6502 2021
319  7550 8908
320  4896 751 
321  1564 8829
322  2837 3969
323  6236 1097
324  5721 8825
325  5973 1155
326  283  2320
327  4707 5823
328  7742 2987
329  8404 3100
330  6998 392 
331  6291 1462
332  565  6534
333  2649 2472
334  6205 1146
335  7379 7403
336  9030 7342
337  2647 1203
338  1850 1582
339  251  3105
340  7510 6360
341  6129 8457
342  6889 5839
343  807  5362
344  6147 725 
345  6114 7777
346  6938 7333
347  9548 3569
348  7700 1833
349  4078 149 
350  8051 877 
351  4214 7147
352  2787 2589
353  2175 1271
354  2528 936 
355  2914 2042
356  3227 8320
357  9620 7862
358  7098 6784
359  8868 9583
360  7360 6631
361  6304 7495
362  3369 4874
363  71   8229
364  200  2589
365  4969 3966
366  2645 7915
367  9722 262 
368  5825 5598
369  820  1252
370  6219 2445
371  4192 1180
372  9785 9021
373  292  3370
374  9007 4205
375  4739 5007
376  4025 6289
377  5246 9045
378  545  8570
379  160  5998
380  9351 859 
381  4622 8792
382  7010 6634
383  7313 6659
384  9525 6891
385  6158 4398
386  1712 7129
387  6730 4931
388  1781 9965
389  6991 4826
390  1750 6910
391  46   7185
392  1208 5053
393  283  7054
394  2730 4497
395  2760 9878
396  2128 904 
397  4039 4740
398  3033 6413
399  2105 7904
400  3144 9693
401  3145 5732
402  988  3456
403  3894 9404
404  3008 9441
405  992  950 
406  679  878 
407  250  9300
408  546  6537
409  5197 7929
410  1147 1164
411  465  2753
412  3393 1167
413  7913 1392
414  5222 7223
415  6423 4865
416  8925 6404
417  4900 3828
418  8786 2846
419  9328 8364
420  4449 8162
421  5896 1102
422  74   6699
423  2137 3250
424  9007 7456
425  2691 510 
426  9204 4587
427  9293 2150
428  217  2516
429  4857 5743
430  5252 4099
431  7548 7072
432  5490 3499
433  3334 8293
434  4245 7507
435  1587 8360
436  7738 8184
437  2171 9402
438  3773 731 
439  8921 6213
440  4424 907 
441  3580 6236
442  8799 1107
443  1033 3976
444  8230 9845
445  9445 3406
446  6125 5480
447  1078 1500
448  8774 239 
449  5546 8995
450  2667 2758
451  118  8436
452  9690 3189
453  2159 3350
454  6764 3905
455  9849 2808
456  3997 671 
457  9112 1146
458  4248 815 
459  9919 8717
460  9541 2874
461  9452 6539
462  8136 4934
463  9357 6453
464  7340 6632
465  6012 6296
466  9099 2768
467  4160 2331
468  7694 4490
469  2340 6153
470  9259 5995
471  7075 6988
472  4161 6359
473  9446 3347
474  1764 8079
475  6015 4940
476  6924 5092
477  3272 1149
478  8269 8039
479  1106 9151
480  8793 8374
481  7024 5901
482  3946 2761
483  7498 873 
484  4646 4297
485  9286 2098
486  2995 6909
487  7253 3848
488  496  4470
489  6464 4107
490  7405 5031
491  4907 7604
492  5401 4411
493  9651 4244
494  9905 8015
495  9406 1030
496  8003 1359
497  427  1226
498  6905 1899
499  2720 5152
500  6802 578 
501  2542 7385
502  1142 3088
503  6354 8026
504  4740 813 
505  9263 4683
506  8003 562 
507  8753 2787
508  6660 9783
509  8775 5407
510  1713 9432
511  2391 972 
512  2133 1170
513  961  8885
514  7025 7880
515  8492 1248
516  9007 8771
517  7471 7008
518  9249 5905
519  6973 6347
520  6213 1678
521  9803 1812
522  1541 1205
523  5892 9411
524  2282 7514
525  4813 3123
526  7503 7461
527  1572 5054
528  5947 6102
529  3955 8607
530  9220 9116
531  3774 6223
532  7036 924 
533  1280 5778
534  2813 1281
535  927  9974
536  4503 5187
537  8849 3673
538  5581 4691
539  5136 3091
540  1892 6849
541  1759 7900
542  349  1063
543  1312 115 
544  2729 3715
545  4807 8216
546  9671 5479
547  2716 9154
548  4285 8620
549  828  5728
550  2651 226 
551  3262 82  
552  267  499 
553  6719 6955
554  8550 2923
555  5969 1899
556  3227 1516
557  7240 9898
558  3504 2402
559  8010 3864
560  3790 5985
561  3296 7088
562  3375 9704
563  162  5273
564  2280 4860
565  6312 1104
566  3368 2085
567  1112 8768
568  6401 289 
569  2306 1712
570  8946 576 
571  2917 8543
572  6887 2272
573  665  9917
574  7217 2378
575  6584 1297
576  2930 2798
577  9400 666 
578  4894 9206
579  1200 7158
580  6475 219 
581  6535 6026
582  5874 7615
583  3999 8117
584  5460 8433
585  7485 6949
586  4356 9789
587  9350 132 
588  6165 9472
589  1111 6001
590  2678 9773
591  6645 7671
592  5764 5681
593  9988 3249
594  8902 8853
595  723  5614
596  1893 7828
597  6599 9982
598  3668 4487
599  1414 4013
600  5723 1445
601  5451 5845
602  1490 1749
603  885  7116
604  3919 1873
605  7691 3975
606  9814 9561
607  9086 2497
608  8806 3496
609  6192 4351
610  5233 3975
611  1235 8016
612  3442 1752
613  126  3433
614  2224 6888
615  3559 2662
616  3851 1750
617  3141 9331
618  5646 813 
619  8293 600 
620  3115 9339
621  849  2711
622  7143 7700
623  878  9578
624  9851 2452
625  5841 1833
626  2403 214 
627  643  4045
628  5087 9860
629  1423 404 
630  5456 40  
631  2895 1632
632  2946 2772
633  9821 960 
634  280  9134
635  6329 8929
636  9801 8018
637  971  2648
638  1028 6815
639  4148 2884
640  9554 2698
641  6783 6045
642  8875 9412
643  1269 4949
644  6934 3757
645  9972 9985
646  6526 8503
647  1268 7595
648  5613 4411
649  9824 8519
650  3840 3654
651  7590 8322
652  2523 7396
653  7234 2725
654  8298 8182
655  7286 7713
656  2467 8154
657  324  9963
658  8195 5828
659  6252 6901
660  7148 5263
661  3071 8550
662  6610 7077
663  3128 5712
664  9253 530 
665  1374 1634
666  1309 4288
667  604  520 
668  1267 376 
669  156  5594
670  2699 8687
671  6882 5038
672  1901 2463
673  9798 7024
674  2108 819 
675  8017 7439
676  5048 8030
677  9903 6235
678  474  4846
679  9196 3713
680  3263 5810
681  5471 4900
682  7928 3323
683  5624 5839
684  9750 6564
685  9577 9757
686  9121 2792
687  5378 611 
688  2565 6105
689  4488 7517
690  5096 5362
691  5186 5199
692  9640 529 
693  2219 7609
694  8765 6032
695  9334 1278
696  9281 2200
697  7177 3585
698  7906 9471
699  547  7169
700  8740 1326
701  5776 7554
702  7279 2282
703  8994 7383
704  6875 6532
705  5100 2910
706  4378 2609
707  5021 9336
708  783  9038
709  6493 399 
710  3574 8447
711  4064 3319
712  6447 8859
713  686  2308
714  4295 4347
715  2074 7126
716  2538 975 
717  4456 3998
718  6497 1939
719  1629 2146
720  9886 7167
721  7533 8008
722  7314 9   
723  4314 1873
724  560  7289
725  6811 9244
726  7612 2776
727  6763 3847
728  2200 3859
729  5756 2751
730  654  1919
731  408  1906
732  7125 6779
733  6939 5625
734  3194 4962
735  5646 8108
736  7655 9546
737  3404 4061
738  5309 4814
739  4519 6646
740  6330 3750
741  7931 6236
742  509  2053
743  8079 6874
744  9154 8401
745  2933 5549
746  4487 1730
747  140  1980
748  1075 3570
749  1790 5229
750  2478 990 
751  200  8171
752  6986 5388
753  8195 520 
754  7259 1808
755  8690 6726
756  1074 3155
757  8567 3053
758  8477 7279
759  9540 9533
760  7038 1518
761  944  2596
762  6166 8858
763  4049 4459
764  2925 4880
765  7420 6056
766  9426 7847
767  331  6272
768  239  7110
769  5622 2002
770  431  9116
771  7253 8869
772  1645 947 
773  4241 282 
774  8844 3421
775  2567 8918
776  4384 6793
777  5904 6450
778  9144 8703
779  6553 6492
780  7335 899 
781  8772 1063
782  7771 1633
783  4921 4061
784  5801 6651
785  2632 790 
786  1493 7548
787  994  1653
788  6614 1583
789  6604 5305
790  6205 8704
791  7122 3664
792  7439 7947
793  5164 8036
794  2885 7866
795  9695 5368
796  2836 2886
797  370  7942
798  966  1786
799  5278 9330
800  6938 1458
801  2472 441 
802  8426 5887
803  8228 7049
804  2664 7820
805  3129 8997
806  9744 7848
807  8385 814 
808  5271 4727
809  7548 6902
810  6692 6256
811  7597 2876
812  6438 674 
813  9412 1269
814  3935 5150
815  4021 583 
816  609  7350
817  7963 6939
818  2792 2583
819  6544 8892
820  9397 6623
821  3937 9929
822  4789 3813
823  6339 1255
824  4135 2536
825  5049 9687
826  5189 9348
827  4851 6332
828  6784 1812
829  1210 6908
830  9293 6130
831  977  2384
832  2559 6261
833  8024 9673
834  780  9474
835  152  7859
836  8834 1628
837  9698 2002
838  7911 411 
839  9061 6631
840  5636 2308
841  1960 8191
842  5642 47  
843  1697 6501
844  8958 6891
845  7705 2990
846  255  9112
847  2832 2805
848  379  7272
849  2090 544 
850  3943 1724
851  9875 1857
852  9369 7197
853  7095 9683
854  5010 6863
855  662  3674
856  8542 1439
857  6948 5016
858  9550 66  
859  8232 3727
860  7781 3081
861  5906 7884
862  2164 1205
863  4387 6836
864  4923 781 
865  1097 9194
866  2584 1923
867  2769 9270
868  9749 6282
869  4254 8478
870  5133 7603
871  7786 4790
872  5315 7800
873  8936 2873
874  4819 767 
875  9349 8485
876  7836 8043
877  7560 6572
878  4828 8336
879  2103 721 
880  4045 4036
881  5061 1831
882  9310 5367
883  3943 5656
884  7731 2331
885  9877 9829
886  7613 8429
887  2314 5914
888  2631 8700
889  8799 1972
890  1730 4677
891  1518 9442
892  8029 5370
893  7319 7815
894  2300 2182
895  3468 8104
896  9981 8389
897  6611 4946
898  9929 5659
899  4971 3010
900  1934 9362
901  859  5004
902  4372 9088
903  3118 2630
904  6991 3403
905  9160 6162
906  7237 8512
907  7631 3721
908  9241 5352
909  3172 4628
910  2532 4191
911  2858 2780
912  9693 8816
913  5917 7047
914  2229 6683
915  1171 229 
916  5559 9408
917  6398 2736
918  8635 7006
919  1671 3222
920  715  5433
921  4617 7174
922  903  6749
923  9549 2592
924  1268 9744
925  752  6956
926  6934 2004
927  4258 9350
928  8441 7755
929  9154 1683
930  7869 4274
931  216  2492
932  444  8873
933  4768 2066
934  9245 4035
935  8933 2747
936  3705 6280
937  9882 5817
938  1714 8513
939  1306 5845
940  4776 6232
941  1143 4266
942  1068 4429
943  9227 4264
944  7131 3628
945  7683 5387
946  6399 8122
947  6860 9029
948  4165 7086
949  8550 793 
950  7561 4560
951  7023 7143
952  5502 2340
953  1484 1686
954  6400 738 
955  243  3376
956  8514 8575
957  3725 5796
958  57   9433
959  80   5334
960  3889 5590
961  7150 4270
962  905  5701
963  703  8259
964  7791 9230
965  8876 9   
966  3100 1286
967  9401 3164
968  3113 3789
969  9909 8724
970  3961 555 
971  2371 9068
972  3616 6452
973  7792 9705
974  1967 6371
975  1072 9757
976  8420 2734
977  8787 5998
978  279  8885
979  7598 8559
980  7006 8351
981  3860 2195
982  6115 4125
983  89   2018
984  1538 5912
985  8766 9328
986  3193 8055
987  7383 2340
988  9970 6391
989  1623 5662
990  3097 8209
991  4181 1717
992  8204 8920
993  4966 5940
994  1548 946 
995  3748 6348
996  9556 7644
997  2217 5745
998  1594 817 
999  7484 2861
1000 8881 2606
1001 2654 5613
DEMAND_SECTION
1    0   
2    2   
3    8   
4    3   
5    4   
6    5   
7    1   
8    3   
9    7   
10   10  
11   3   
12   3   
13   9   
14   8   
15   1   
16   6   
17   7   
18   8   
19   9   
20   9   
21   3   
22   8   
23   8   
24   2   
25   3   
26   7   
27   5   
28   6   
29   9   
30   2   
31   6   
32   10  
33   6   
34   2   
35   3   
36   1   
37   6   
38   5   
39   1   
40   5   
41   10  
42   9   
43   9   
44   8   
45   9   
46   9   
47   1   
48   8   
49   10  
50   6   
51   7   
52   4   
53   10  
54   4   
55   10  
56   6   
57   7   
58   10  
59   5   
60   7   
61   4   
62   6   
63   8   
64   9   
65   2   
66   8   
67   5   
68   4   
69   6   
70   7   
71   9   
72   7   
73   8   
74   8   
75   2   
76   7   
77   9   
78   1   
79   10  
80   3   
81   6   
82   9   
83   10  
84   9   
85   8   
86   7   
87   6   
88   7   
89   9   
90   1   
91   10  
92   9   
93   10  
94   1   
95   7   
96   2   
97   6   
98   10  
99   1   
100  9   
101  1   
102  9   
103  1   
104  8   
105  3   
106  6   
107  1   
108  9   
109  10  
110  1   
111  7   
112  9   
113  9   
114  6   
115  8   
116  9   
117  5   
118  6   
119  6   
120  5   
121  6   
122  4   
123  3   
124  2   
125  6   
126  8   
127  1   
128  6   
129  5   
130  9   
131  3   
132  5   
133  2   
134  5   
135  4   
136  8   
137  9   
138  6   
139  8   
140  2   
141  5   
142  7   
143  3   
144  8   
145  10  
146  8   
147  4   
148  7   
149  6   
150  2   
151  3   
152  5   
153  8   
154  9   
155  4   
156  10  
157  10  
158  4   
159  1   
160  4   
161  10  
162  8   
163  8   
164  10  
165  4   
166  8   
167  8   
168  3   
169  6   
170  10  
171  2   
172  9   
173  8   
174  2   
175  5   
176  3   
177  8   
178  4   
179  7   
180  8   
181  4   
182  7   
183  3   
184  7   
185  2   
186  8   
187  5   
188  7   
189  2   
190  1   
191  6   
192  7   
193  6   
194  5   
195  1   
196  1   
197  1   
198  9   
199  2   
200  1   
201  8   
202  6   
203  6   
204  3   
205  10  
206  4   
207  9   
208  8   
209  8   
210  7   
211  9   
212  4   
213  4   
214  6   
215  3   
216  7   
217  4   
218  7   
219  7   
220  7   
221  4   
222  7   
223  4   
224  1   
225  9   
226  7   
227  5   
228  10  
229  6   
230  3   
231  4   
232  7   
233  6   
234  7   
235  7   
236  4   
237  6   
238  9   
239  7   
240  10  
241  3   
242  4   
243  9   
244  2   
245  10  
246  3   
247  5   
248  4   
249  3   
250  8   
251  9   
252  8   
253  8   
254  1   
255  3   
256  7   
257  8   
258  1   
259  5   
260  2   
261  1   
262  5   
263  7   
264  8   
265  10  
266  9   
267  9   
268  10  
269  5   
270  10  
271  4   
272  8   
273  7   
274  6   
275  5   
276  7   
277  3   
278  10  
279  5   
280  4   
281  7   
282  2   
283  1   
284  8   
285  3   
286  6   
287  6   
288  9   
289  7   
290  5   
291  2   
292  1   
293  4   
294  2   
295  7   
296  1   
297  9   
298  7   
299  10  
300  3   
301  7   
302  10  
303  5   
304  5   
305  9   
306  7   
307  8   
308  6   
309  1   
310  9   
311  4   
312  5   
313  1   
314  2   
315  9   
316  1   
317  8   
318  7   
319  10  
320  3   
321  5   
322  1   
323  1   
324  1   
325  5   
326  7   
327  8   
328  9   
329  3   
330  1   
331  10  
332  6   
333  9   
334  2   
335  5   
336  9   
337  3   
338  10  
339  10  
340  7   
341  7   
342  1   
343  2   
344  9   
345  6   
346  4   
347  9   
348  2   
349  2   
350  5   
351  2   
352  6   
353  8   
354  4   
355  1   
356  7   
357  10  
358  7   
359  10  
360  1   
361  2   
362  4   
363  9   
364  10  
365  8   
366  4   
367  4   
368  2   
369  8   
370  5   
371  9   
372  9   
373  8   
374  2   
375  8   
376  8   
377  5   
378  5   
379  6   
380  8   
381  3   
382  3   
383  2   
384  7   
385  1   
386  5   
387  9   
388  8   
389  4   
390  4   
391  8   
392  6   
393  3   
394  7   
395  7   
396  9   
397  1   
398  2   
399  10  
400  3   
401  5   
402  3   
403  6   
404  10  
405  2   
406  7   
407  10  
408  1   
409  9   
410  4   
411  5   
412  4   
413  1   
414  10  
415  8   
416  9   
417  3   
418  8   
419  10  
420  4   
421  10  
422  7   
423  2   
424  1   
425  5   
426  3   
427  3   
428  5   
429  5   
430  6   
431  9   
432  2   
433  9   
434  1   
435  4   
436  5   
437  5   
438  2   
439  3   
440  10  
441  8   
442  9   
443  9   
444  4   
445  9   
446  5   
447  8   
448  7   
449  5   
450  2   
451  4   
452  3   
453  1   
454  6   
455  1   
456  5   
457  1   
458  4   
459  2   
460  7   
461  5   
462  8   
463  2   
464  2   
465  8   
466  8   
467  3   
468  10  
469  4   
470  2   
471  7   
472  1   
473  1   
474  9   
475  6   
476  4   
477  2   
478  3   
479  9   
480  9   
481  5   
482  1   
483  2   
484  9   
485  3   
486  4   
487  9   
488  2   
489  9   
490  4   
491  5   
492  10  
493  4   
494  3   
495  6   
496  9   
497  4   
498  5   
499  7   
500  4   
501  9   
502  8   
503  1   
504  7   
505  3   
506  8   
507  10  
508  2   
509  1   
510  10  
511  8   
512  10  
513  8   
514  5   
515  10  
516  9   
517  6   
518  9   
519  7   
520  2   
521  8   
522  3   
523  8   
524  1   
525  2   
526  4   
527  10  
528  4   
529  7   
530  1   
531  2   
532  10  
533  6   
534  2   
535  1   
536  6   
537  6   
538  5   
539  3   
540  9   
541  7   
542  2   
543  2   
544  7   
545  4   
546  10  
547  10  
548  7   
549  7   
550  10  
551  6   
552  5   
553  6   
554  2   
555  1   
556  5   
557  6   
558  5   
559  9   
560  7   
561  9   
562  10  
563  4   
564  7   
565  1   
566  1   
567  2   
568  10  
569  9   
570  3   
571  1   
572  3   
573  5   
574  6   
575  5   
576  1   
577  3   
578  1   
579  3   
580  3   
581  9   
582  5   
583  2   
584  5   
585  1   
586  5   
587  8   
588  7   
589  4   
590  7   
591  3   
592  1   
593  7   
594  6   
595  2   
596  7   
597  7   
598  9   
599  4   
600  9   
601  6   
602  6   
603  5   
604  8   
605  2   
606  5   
607  10  
608  4   
609  9   
610  7   
611  9   
612  4   
613  5   
614  5   
615  2   
616  4   
617  9   
618  9   
619  9   
620  1   
621  4   
622  1   
623  5   
624  7   
625  6   
626  10  
627  8   
628  7   
629  5   
630  3   
631  8   
632  3   
633  2   
634  4   
635  6   
636  6   
637  5   
638  10  
639  1   
640  8   
641  7   
642  1   
643  9   
644  6   
645  5   
646  5   
647  7   
648  6   
649  10  
650  3   
651  1   
652  8   
653  6   
654  6   
655  5   
656  1   
657  3   
658  1   
659  7   
660  7   
661  5   
662  2   
663  8   
664  2   
665  2   
666  10  
667  3   
668  2   
669  1   
670  4   
671  4   
672  3   
673  1   
674  5   
675  6   
676  3   
677  2   
678  4   
679  5   
680  8   
681  5   
682  1   
683  7   
684  10  
685  1   
686  9   
687  8   
688  5   
689  8   
690  9   
691  10  
692  10  
693  5   
694  7   
695  7   
696  1   
697  4   
698  9   
699  6   
700  9   
701  3   
702  4   
703  7   
704  1   
705  1   
706  8   
707  5   
708  10  
709  5   
710  7   
711  7   
712  6   
713  2   
714  4   
715  5   
716  1   
717  1   
718  6   
719  8   
720  3   
721  8   
722  6   
723  2   
724  10  
725  5   
726  7   
727  8   
728  4   
729  3   
730  7   
731  2   
732  7   
733  10  
734  1   
735  9   
736  5   
737  8   
738  6   
739  2   
740  4   
741  8   
742  4   
743  7   
744  9   
745  5   
746  8   
747  8   
748  5   
749  2   
750  5   
751  5   
752  4   
753  9   
754  4   
755  6   
756  5   
757  5   
758  2   
759  5   
760  10  
761  9   
762  3   
763  10  
764  10  
765  10  
766  2   
767  5   
768  10  
769  5   
770  8   
771  3   
772  10  
773  6   
774  2   
775  2   
776  2   
777  3   
778  10  
779  6   
780  6   
781  4   
782  4   
783  2   
784  9   
785  6   
786  8   
787  9   
788  5   
789  6   
790  4   
791  4   
792  1   
793  8   
794  1   
795  10  
796  5   
797  1   
798  7   
799  1   
800  1   
801  6   
802  2   
803  10  
804  5   
805  3   
806  5   
807  6   
808  4   
809  4   
810  4   
811  6   
812  7   
813  10  
814  3   
815  6   
816  4   
817  4   
818  1   
819  1   
820  7   
821  4   
822  6   
823  2   
824  2   
825  6   
826  4   
827  10  
828  8   
829  10  
830  9   
831  8   
832  2   
833  3   
834  9   
835  8   
836  6   
837  8   
838  1   
839  6   
840  3   
841  8   
842  7   
843  6   
844  2   
845  1   
846  6   
847  2   
848  6   
849  3   
850  9   
851  7   
852  2   
853  4   
854  10  
855  4   
856  3   
857  1   
858  3   
859  6   
860  10  
861  2   
862  4   
863  7   
864  10  
865  6   
866  2   
867  1   
868  3   
869  1   
870  9   
871  4   
872  3   
873  6   
874  5   
875  7   
876  2   
877  5   
878  6   
879  10  
880  8   
881  3   
882  4   
883  5   
884  9   
885  6   
886  10  
887  10  
888  3   
889  5   
890  1   
891  7   
892  10  
893  6   
894  4   
895  10  
896  1   
897  2   
898  1   
899  10  
900  3   
901  4   
902  6   
903  4   
904  1   
905  1   
906  7   
907  3   
908  4   
909  10  
910  4   
911  1   
912  4   
913  7   
914  10  
915  9   
916  6   
917  7   
918  8   
919  8   
920  10  
921  9   
922  5   
923  1   
924  5   
925  8   
926  3   
927  3   
928  4   
929  4   
930  7   
931  4   
932  6   
933  6   
934  7   
935  4   
936  10  
937  1   
938  7   
939  8   
940  10  
941  6   
942  8   
943  2   
944  10  
945  7   
946  2   
947  5   
948  8   
949  3   
950  6   
951  6   
952  10  
953  1   
954  3   
955  10  
956  10  
957  9   
958  6   
959  4   
960  10  
961  9   
962  7   
963  4   
964  7   
965  9   
966  7   
967  2   
968  5   
969  5   
970  7   
971  6   
972  10  
973  1   
974  5   
975  9   
976  8   
977  7   
978  3   
979  7   
980  7   
981  5   
982  8   
983  3   
984  2   
985  6   
986  2   
987  9   
988  10  
989  2   
990  7   
991  2   
992  3   
993  10  
994  2   
995  9   
996  8   
997  6   
998  10  
999  2   
1000 6   
1001 8   
DEPOT_SECTION
1
-1
EOF
