NAME : XML1000_2163_01
COMMENT : Generated as the XML100 dataset from the CVRPLIB
TYPE : CVRP
DIMENSION : 1001
EDGE_WEIGHT_TYPE : EUC_2D
CAPACITY : 414
NODE_COORD_SECTION
1    5000 5000
2    5099 9456
3    9958 9316
4    631  1822
5    7521 7459
6    9939 1180
7    6660 4649
8    7093 6671
9    9975 6085
10   2178 7486
11   3629 5178
12   6224 8317
13   9924 3053
14   7849 7229
15   4281 1838
16   9468 5696
17   4500 2351
18   5277 1210
19   2803 308 
20   9884 8467
21   622  1003
22   8463 7675
23   4102 4388
24   5573 1855
25   507  5784
26   7455 5235
27   817  9918
28   1443 1737
29   2868 5796
30   6504 5317
31   2057 7737
32   3738 6867
33   9363 2588
34   3125 8565
35   9787 4827
36   2792 1250
37   8445 5889
38   7249 885 
39   1051 4305
40   8301 7689
41   7466 4957
42   4837 4328
43   2562 3674
44   2294 4375
45   453  901 
46   7092 2499
47   3943 7354
48   9723 5358
49   7906 9864
50   2724 8018
51   7516 9308
52   535  2365
53   5979 5043
54   1403 9138
55   3964 2312
56   5440 8876
57   5694 5374
58   6556 512 
59   8190 1028
60   8808 8187
61   6608 376 
62   2899 9387
63   5606 6514
64   5609 6753
65   9101 3416
66   6496 9999
67   6719 210 
68   3244 4411
69   5998 2631
70   4472 7619
71   5319 8223
72   59   7275
73   2437 2171
74   2877 9965
75   9595 7039
76   7376 1939
77   4667 1855
78   4604 6171
79   3154 3956
80   1518 4040
81   6002 9377
82   6151 6548
83   2452 6298
84   3204 9642
85   1486 6557
86   4785 9702
87   9454 5907
88   8409 5459
89   6795 5308
90   9991 7399
91   7514 1385
92   4750 8742
93   2819 9793
94   9554 592 
95   9669 1722
96   165  3040
97   3030 3942
98   8775 299 
99   8549 7785
100  9833 9869
101  5076 4204
102  5094 3658
103  3602 9339
104  1977 7571
105  8316 4380
106  9111 873 
107  7163 7716
108  8198 4653
109  7300 4021
110  956  2694
111  7138 3280
112  9064 4707
113  7874 816 
114  9742 7312
115  4714 5482
116  9798 380 
117  5273 7192
118  3625 8821
119  5820 4393
120  6147 5630
121  2584 9517
122  1228 5342
123  2517 3888
124  8929 2282
125  7097 1923
126  5917 730 
127  7339 5203
128  5545 2919
129  7066 1266
130  8488 9153
131  6430 3298
132  3637 1826
133  995  9364
134  7611 9561
135  3961 7015
136  1273 5658
137  2777 864 
138  5480 8648
139  8952 4909
140  4539 7906
141  776  5872
142  4555 1287
143  6379 2727
144  8841 7040
145  2538 9931
146  8114 5453
147  4523 7682
148  2365 8481
149  6123 9882
150  127  2102
151  8028 7234
152  3843 2909
153  691  2807
154  6860 5271
155  897  7809
156  2535 706 
157  7203 5858
158  5088 5274
159  821  598 
160  1848 1082
161  6511 7196
162  5839 4907
163  7824 9275
164  3348 8060
165  7560 1085
166  7578 8049
167  1765 7415
168  2697 3206
169  8517 5790
170  5850 1144
171  7821 6145
172  4738 3302
173  2619 6446
174  6766 979 
175  6789 1574
176  6011 2226
177  6667 7811
178  9829 915 
179  1375 8844
180  5745 4984
181  1246 4095
182  5501 3043
183  2241 7434
184  5066 2688
185  6022 7601
186  6935 5380
187  9379 7663
188  9418 4837
189  677  3071
190  3922 7203
191  3344 5707
192  1972 7609
193  9958 4006
194  5547 8062
195  813  1382
196  779  5850
197  5750 1352
198  7151 8210
199  8370 9801
200  4335 5479
201  49   9901
202  2074 6548
203  281  8703
204  4141 6170
205  6421 1544
206  5893 7961
207  9640 787 
208  7325 5623
209  2990 1306
210  700  6484
211  166  1270
212  6127 4625
213  6227 9992
214  3003 8122
215  3983 1558
216  4782 5300
217  9961 4897
218  4782 3717
219  8776 9014
220  7231 1616
221  4060 4547
222  1064 9577
223  802  3638
224  5767 362 
225  3692 6269
226  4854 7132
227  5016 267 
228  7988 18  
229  7625 1177
230  7993 5354
231  1522 8355
232  8967 1359
233  4172 5901
234  3286 1819
235  9992 6678
236  2535 8493
237  56   3493
238  7887 7423
239  3260 2826
240  4451 8521
241  3040 4958
242  8512 6824
243  5546 7657
244  9441 6111
245  563  8530
246  1332 588 
247  1766 3058
248  4855 2501
249  1446 5959
250  7760 8639
251  6901 9686
252  1962 3344
253  3444 2593
254  8576 9797
255  6013 6639
256  2278 4346
257  7650 5147
258  9174 3125
259  9969 4452
260  9596 9049
261  3967 7792
262  5973 2307
263  5748 8928
264  1859 572 
265  3181 8573
266  2305 455 
267  7112 8134
268  9616 7160
269  4363 9964
270  8599 5054
271  5420 4526
272  4796 5707
273  7524 2792
274  1453 3428
275  2702 2855
276  5940 871 
277  192  7440
278  7646 4816
279  1957 4374
280  5488 1241
281  1458 757 
282  3853 6889
283  6488 7466
284  454  3719
285  811  9502
286  2508 8410
287  4873 2645
288  6721 7387
289  7939 6827
290  7714 1519
291  8315 4319
292  5041 1563
293  9693 794 
294  6322 3124
295  8740 7307
296  9481 12  
297  7691 7302
298  6271 7392
299  8724 4761
300  5595 5717
301  8523 9023
302  4546 2625
303  5293 539 
304  6917 5139
305  6944 9990
306  586  9240
307  8687 1500
308  3184 1589
309  2863 3111
310  6628 7235
311  2155 9719
312  5290 5050
313  5193 8805
314  9781 5708
315  82   8926
316  4515 5917
317  1519 2490
318  6502 2021
319  7550 8908
320  4896 751 
321  1564 8829
322  2837 3969
323  6236 1097
324  5721 8825
325  5973 1155
326  283  2320
327  4707 5823
328  7742 2987
329  8404 3100
330  6998 392 
331  6291 1462
332  565  6534
333  2649 2472
334  6205 1146
335  7379 7403
336  9030 7342
337  2647 1203
338  1850 1582
339  251  3105
340  7510 6360
341  6129 8457
342  6889 5839
343  807  5362
344  6147 725 
345  6114 7777
346  6938 7333
347  9548 3569
348  7700 1833
349  4078 149 
350  8051 877 
351  4214 7147
352  2787 2589
353  2175 1271
354  2528 936 
355  2914 2042
356  3227 8320
357  9620 7862
358  7098 6784
359  8868 9583
360  7360 6631
361  6304 7495
362  3369 4874
363  71   8229
364  200  2589
365  4969 3966
366  2645 7915
367  9722 262 
368  5825 5598
369  820  1252
370  6219 2445
371  4192 1180
372  9785 9021
373  292  3370
374  9007 4205
375  4739 5007
376  4025 6289
377  5246 9045
378  545  8570
379  160  5998
380  9351 859 
381  4622 8792
382  7010 6634
383  7313 6659
384  9525 6891
385  6158 4398
386  1712 7129
387  6730 4931
388  1781 9965
389  6991 4826
390  1750 6910
391  46   7185
392  1208 5053
393  283  7054
394  2730 4497
395  2760 9878
396  2128 904 
397  4039 4740
398  3033 6413
399  2105 7904
400  3144 9693
401  3145 5732
402  988  3456
403  3894 9404
404  3008 9441
405  992  950 
406  679  878 
407  250  9300
408  546  6537
409  5197 7929
410  1147 1164
411  465  2753
412  3393 1167
413  7913 1392
414  5222 7223
415  6423 4865
416  8925 6404
417  4900 3828
418  8786 2846
419  9328 8364
420  4449 8162
421  5896 1102
422  74   6699
423  2137 3250
424  9007 7456
425  2691 510 
426  9204 4587
427  9293 2150
428  217  2516
429  4857 5743
430  5252 4099
431  7548 7072
432  5490 3499
433  3334 8293
434  4245 7507
435  1587 8360
436  7738 8184
437  2171 9402
438  3773 731 
439  8921 6213
440  4424 907 
441  3580 6236
442  8799 1107
443  1033 3976
444  8230 9845
445  9445 3406
446  6125 5480
447  1078 1500
448  8774 239 
449  5546 8995
450  2667 2758
451  118  8436
452  9690 3189
453  2159 3350
454  6764 3905
455  9849 2808
456  3997 671 
457  9112 1146
458  4248 815 
459  9919 8717
460  9541 2874
461  9452 6539
462  8136 4934
463  9357 6453
464  7340 6632
465  6012 6296
466  9099 2768
467  4160 2331
468  7694 4490
469  2340 6153
470  9259 5995
471  7075 6988
472  4161 6359
473  9446 3347
474  1764 8079
475  6015 4940
476  6924 5092
477  3272 1149
478  8269 8039
479  1106 9151
480  8793 8374
481  7024 5901
482  3946 2761
483  7498 873 
484  4646 4297
485  9286 2098
486  2995 6909
487  7253 3848
488  496  4470
489  6464 4107
490  7405 5031
491  4907 7604
492  5401 4411
493  9651 4244
494  9905 8015
495  9406 1030
496  8003 1359
497  427  1226
498  6905 1899
499  2720 5152
500  6802 578 
501  2542 7385
502  1142 3088
503  6354 8026
504  4740 813 
505  9263 4683
506  8003 562 
507  8753 2787
508  6660 9783
509  8775 5407
510  1713 9432
511  2391 972 
512  2133 1170
513  961  8885
514  7025 7880
515  8492 1248
516  9007 8771
517  7471 7008
518  9249 5905
519  6973 6347
520  6213 1678
521  9803 1812
522  1541 1205
523  5892 9411
524  2282 7514
525  4813 3123
526  7503 7461
527  1572 5054
528  5947 6102
529  3955 8607
530  9220 9116
531  3774 6223
532  7036 924 
533  1280 5778
534  2813 1281
535  927  9974
536  4503 5187
537  8849 3673
538  5581 4691
539  5136 3091
540  1892 6849
541  1759 7900
542  349  1063
543  1312 115 
544  2729 3715
545  4807 8216
546  9671 5479
547  2716 9154
548  4285 8620
549  828  5728
550  2651 226 
551  3262 82  
552  267  499 
553  6719 6955
554  8550 2923
555  5969 1899
556  3227 1516
557  7240 9898
558  3504 2402
559  8010 3864
560  3790 5985
561  3296 7088
562  3375 9704
563  162  5273
564  2280 4860
565  6312 1104
566  3368 2085
567  1112 8768
568  6401 289 
569  2306 1712
570  8946 576 
571  2917 8543
572  6887 2272
573  665  9917
574  7217 2378
575  6584 1297
576  2930 2798
577  9400 666 
578  4894 9206
579  1200 7158
580  6475 219 
581  6535 6026
582  5874 7615
583  3999 8117
584  5460 8433
585  7485 6949
586  4356 9789
587  9350 132 
588  6165 9472
589  1111 6001
590  2678 9773
591  6645 7671
592  5764 5681
593  9988 3249
594  8902 8853
595  723  5614
596  1893 7828
597  6599 9982
598  3668 4487
599  1414 4013
600  5723 1445
601  5451 5845
602  1490 1749
603  885  7116
604  3919 1873
605  7691 3975
606  9814 9561
607  9086 2497
608  8806 3496
609  6192 4351
610  5233 3975
611  1235 8016
612  3442 1752
613  126  3433
614  2224 6888
615  3559 2662
616  3851 1750
617  3141 9331
618  5646 813 
619  8293 600 
620  3115 9339
621  849  2711
622  7143 7700
623  878  9578
624  9851 2452
625  5841 1833
626  2403 214 
627  643  4045
628  5087 9860
629  1423 404 
630  5456 40  
631  2895 1632
632  2946 2772
633  9821 960 
634  280  9134
635  6329 8929
636  9801 8018
637  971  2648
638  1028 6815
639  4148 2884
640  9554 2698
641  6783 6045
642  8875 9412
643  1269 4949
644  6934 3757
645  9972 9985
646  6526 8503
647  1268 7595
648  5613 4411
649  9824 8519
650  3840 3654
651  7590 8322
652  2523 7396
653  7234 2725
654  8298 8182
655  7286 7713
656  2467 8154
657  324  9963
658  8195 5828
659  6252 6901
660  7148 5263
661  3071 8550
662  6610 7077
663  3128 5712
664  9253 530 
665  1374 1634
666  1309 4288
667  604  520 
668  1267 376 
669  156  5594
670  2699 8687
671  6882 5038
672  1901 2463
673  9798 7024
674  2108 819 
675  8017 7439
676  5048 8030
677  9903 6235
678  474  4846
679  9196 3713
680  3263 5810
681  5471 4900
682  7928 3323
683  5624 5839
684  9750 6564
685  9577 9757
686  9121 2792
687  5378 611 
688  2565 6105
689  4488 7517
690  5096 5362
691  5186 5199
692  9640 529 
693  2219 7609
694  8765 6032
695  9334 1278
696  9281 2200
697  7177 3585
698  7906 9471
699  547  7169
700  8740 1326
701  5776 7554
702  7279 2282
703  8994 7383
704  6875 6532
705  5100 2910
706  4378 2609
707  5021 9336
708  783  9038
709  6493 399 
710  3574 8447
711  4064 3319
712  6447 8859
713  686  2308
714  4295 4347
715  2074 7126
716  2538 975 
717  4456 3998
718  6497 1939
719  1629 2146
720  9886 7167
721  7533 8008
722  7314 9   
723  4314 1873
724  560  7289
725  6811 9244
726  7612 2776
727  6763 3847
728  2200 3859
729  5756 2751
730  654  1919
731  408  1906
732  7125 6779
733  6939 5625
734  3194 4962
735  5646 8108
736  7655 9546
737  3404 4061
738  5309 4814
739  4519 6646
740  6330 3750
741  7931 6236
742  509  2053
743  8079 6874
744  9154 8401
745  2933 5549
746  4487 1730
747  140  1980
748  1075 3570
749  1790 5229
750  2478 990 
751  200  8171
752  6986 5388
753  8195 520 
754  7259 1808
755  8690 6726
756  1074 3155
757  8567 3053
758  8477 7279
759  9540 9533
760  7038 1518
761  944  2596
762  6166 8858
763  4049 4459
764  2925 4880
765  7420 6056
766  9426 7847
767  331  6272
768  239  7110
769  5622 2002
770  431  9116
771  7253 8869
772  1645 947 
773  4241 282 
774  8844 3421
775  2567 8918
776  4384 6793
777  5904 6450
778  9144 8703
779  6553 6492
780  7335 899 
781  8772 1063
782  7771 1633
783  4921 4061
784  5801 6651
785  2632 790 
786  1493 7548
787  994  1653
788  6614 1583
789  6604 5305
790  6205 8704
791  7122 3664
792  7439 7947
793  5164 8036
794  2885 7866
795  9695 5368
796  2836 2886
797  370  7942
798  966  1786
799  5278 9330
800  6938 1458
801  2472 441 
802  8426 5887
803  8228 7049
804  2664 7820
805  3129 8997
806  9744 7848
807  8385 814 
808  5271 4727
809  7548 6902
810  6692 6256
811  7597 2876
812  6438 674 
813  9412 1269
814  3935 5150
815  4021 583 
816  609  7350
817  7963 6939
818  2792 2583
819  6544 8892
820  9397 6623
821  3937 9929
822  4789 3813
823  6339 1255
824  4135 2536
825  5049 9687
826  5189 9348
827  4851 6332
828  6784 1812
829  1210 6908
830  9293 6130
831  977  2384
832  2559 6261
833  8024 9673
834  780  9474
835  152  7859
836  8834 1628
837  9698 2002
838  7911 411 
839  9061 6631
840  5636 2308
841  1960 8191
842  5642 47  
843  1697 6501
844  8958 6891
845  7705 2990
846  255  9112
847  2832 2805
848  379  7272
849  2090 544 
850  3943 1724
851  9875 1857
852  9369 7197
853  7095 9683
854  5010 6863
855  662  3674
856  8542 1439
857  6948 5016
858  9550 66  
859  8232 3727
860  7781 3081
861  5906 7884
862  2164 1205
863  4387 6836
864  4923 781 
865  1097 9194
866  2584 1923
867  2769 9270
868  9749 6282
869  4254 8478
870  5133 7603
871  7786 4790
872  5315 7800
873  8936 2873
874  4819 767 
875  9349 8485
876  7836 8043
877  7560 6572
878  4828 8336
879  2103 721 
880  4045 4036
881  5061 1831
882  9310 5367
883  3943 5656
884  7731 2331
885  9877 9829
886  7613 8429
887  2314 5914
888  2631 8700
889  8799 1972
890  1730 4677
891  1518 9442
892  8029 5370
893  7319 7815
894  2300 2182
895  3468 8104
896  9981 8389
897  6611 4946
898  9929 5659
899  4971 3010
900  1934 9362
901  859  5004
902  4372 9088
903  3118 2630
904  6991 3403
905  9160 6162
906  7237 8512
907  7631 3721
908  9241 5352
909  3172 4628
910  2532 4191
911  2858 2780
912  9693 8816
913  5917 7047
914  2229 6683
915  1171 229 
916  5559 9408
917  6398 2736
918  8635 7006
919  1671 3222
920  715  5433
921  4617 7174
922  903  6749
923  9549 2592
924  1268 9744
925  752  6956
926  6934 2004
927  4258 9350
928  8441 7755
929  9154 1683
930  7869 4274
931  216  2492
932  444  8873
933  4768 2066
934  9245 4035
935  8933 2747
936  3705 6280
937  9882 5817
938  1714 8513
939  1306 5845
940  4776 6232
941  1143 4266
942  1068 4429
943  9227 4264
944  7131 3628
945  7683 5387
946  6399 8122
947  6860 9029
948  4165 7086
949  8550 793 
950  7561 4560
951  7023 7143
952  5502 2340
953  1484 1686
954  6400 738 
955  243  3376
956  8514 8575
957  3725 5796
958  57   9433
959  80   5334
960  3889 5590
961  7150 4270
962  905  5701
963  703  8259
964  7791 9230
965  8876 9   
966  3100 1286
967  9401 3164
968  3113 3789
969  9909 8724
970  3961 555 
971  2371 9068
972  3616 6452
973  7792 9705
974  1967 6371
975  1072 9757
976  8420 2734
977  8787 5998
978  279  8885
979  7598 8559
980  7006 8351
981  3860 2195
982  6115 4125
983  89   2018
984  1538 5912
985  8766 9328
986  3193 8055
987  7383 2340
988  9970 6391
989  1623 5662
990  3097 8209
991  4181 1717
992  8204 8920
993  4966 5940
994  1548 946 
995  3748 6348
996  9556 7644
997  2217 5745
998  1594 817 
999  7484 2861
1000 8881 2606
1001 2654 5613
DEMAND_SECTION
1    0   
2    80  
3    77  
4    91  
5    97  
6    46  
7    15  
8    70  
9    82  
10   14  
11   7   
12   88  
13   41  
14   82  
15   87  
16   90  
17   71  
18   19  
19   89  
20   86  
21   85  
22   95  
23   77  
24   48  
25   37  
26   81  
27   43  
28   93  
29   5   
30   81  
31   9   
32   30  
33   35  
34   15  
35   22  
36   65  
37   93  
38   42  
39   98  
40   96  
41   17  
42   83  
43   80  
44   67  
45   60  
46   32  
47   17  
48   94  
49   72  
50   30  
51   56  
52   88  
53   83  
54   10  
55   89  
56   77  
57   93  
58   26  
59   22  
60   71  
61   48  
62   13  
63   59  
64   86  
65   20  
66   66  
67   39  
68   96  
69   22  
70   35  
71   63  
72   17  
73   99  
74   22  
75   85  
76   27  
77   85  
78   28  
79   94  
80   63  
81   89  
82   84  
83   47  
84   2   
85   7   
86   24  
87   55  
88   88  
89   59  
90   97  
91   1   
92   12  
93   30  
94   35  
95   45  
96   69  
97   85  
98   40  
99   92  
100  58  
101  12  
102  23  
103  21  
104  32  
105  43  
106  43  
107  66  
108  16  
109  46  
110  78  
111  4   
112  17  
113  24  
114  95  
115  27  
116  23  
117  53  
118  2   
119  3   
120  73  
121  28  
122  45  
123  79  
124  42  
125  21  
126  44  
127  66  
128  30  
129  4   
130  97  
131  36  
132  59  
133  26  
134  87  
135  25  
136  34  
137  100 
138  63  
139  28  
140  12  
141  19  
142  88  
143  12  
144  71  
145  43  
146  83  
147  5   
148  12  
149  63  
150  62  
151  91  
152  94  
153  97  
154  91  
155  9   
156  91  
157  56  
158  60  
159  79  
160  89  
161  95  
162  11  
163  57  
164  14  
165  48  
166  74  
167  33  
168  92  
169  69  
170  50  
171  88  
172  53  
173  32  
174  37  
175  44  
176  25  
177  51  
178  43  
179  49  
180  22  
181  86  
182  47  
183  42  
184  3   
185  73  
186  90  
187  54  
188  25  
189  88  
190  16  
191  40  
192  12  
193  7   
194  69  
195  67  
196  29  
197  28  
198  56  
199  77  
200  46  
201  18  
202  3   
203  27  
204  48  
205  22  
206  57  
207  11  
208  92  
209  56  
210  49  
211  81  
212  4   
213  82  
214  35  
215  88  
216  28  
217  50  
218  51  
219  91  
220  29  
221  72  
222  41  
223  51  
224  19  
225  9   
226  7   
227  29  
228  16  
229  42  
230  86  
231  18  
232  27  
233  16  
234  81  
235  55  
236  49  
237  81  
238  94  
239  85  
240  13  
241  83  
242  83  
243  76  
244  59  
245  9   
246  95  
247  86  
248  74  
249  31  
250  57  
251  76  
252  99  
253  72  
254  88  
255  64  
256  76  
257  52  
258  48  
259  1   
260  88  
261  20  
262  42  
263  90  
264  98  
265  18  
266  81  
267  61  
268  83  
269  46  
270  53  
271  22  
272  7   
273  18  
274  84  
275  95  
276  18  
277  30  
278  44  
279  56  
280  19  
281  97  
282  6   
283  76  
284  75  
285  25  
286  48  
287  94  
288  70  
289  51  
290  12  
291  13  
292  4   
293  14  
294  13  
295  60  
296  45  
297  83  
298  71  
299  16  
300  90  
301  80  
302  63  
303  20  
304  62  
305  59  
306  28  
307  1   
308  51  
309  73  
310  54  
311  39  
312  94  
313  59  
314  72  
315  35  
316  42  
317  80  
318  25  
319  84  
320  91  
321  25  
322  87  
323  47  
324  58  
325  14  
326  95  
327  41  
328  14  
329  35  
330  28  
331  39  
332  17  
333  54  
334  46  
335  92  
336  82  
337  94  
338  52  
339  68  
340  77  
341  56  
342  65  
343  38  
344  20  
345  75  
346  88  
347  45  
348  14  
349  94  
350  35  
351  7   
352  63  
353  60  
354  63  
355  83  
356  42  
357  68  
358  98  
359  51  
360  64  
361  93  
362  62  
363  22  
364  81  
365  80  
366  24  
367  21  
368  96  
369  82  
370  5   
371  77  
372  85  
373  96  
374  9   
375  9   
376  28  
377  89  
378  25  
379  34  
380  20  
381  17  
382  63  
383  87  
384  77  
385  20  
386  30  
387  2   
388  35  
389  36  
390  29  
391  49  
392  19  
393  21  
394  70  
395  27  
396  53  
397  81  
398  28  
399  24  
400  26  
401  17  
402  67  
403  17  
404  5   
405  56  
406  90  
407  40  
408  19  
409  72  
410  54  
411  69  
412  76  
413  38  
414  96  
415  3   
416  100 
417  57  
418  6   
419  85  
420  21  
421  9   
422  3   
423  59  
424  85  
425  77  
426  37  
427  18  
428  84  
429  48  
430  22  
431  89  
432  40  
433  36  
434  48  
435  45  
436  94  
437  22  
438  62  
439  79  
440  82  
441  37  
442  16  
443  57  
444  58  
445  2   
446  74  
447  75  
448  19  
449  86  
450  89  
451  41  
452  17  
453  60  
454  48  
455  37  
456  93  
457  10  
458  62  
459  54  
460  33  
461  79  
462  46  
463  70  
464  94  
465  83  
466  8   
467  54  
468  9   
469  42  
470  60  
471  62  
472  5   
473  46  
474  3   
475  31  
476  77  
477  73  
478  75  
479  38  
480  90  
481  79  
482  52  
483  41  
484  98  
485  5   
486  12  
487  36  
488  85  
489  47  
490  55  
491  37  
492  2   
493  33  
494  95  
495  25  
496  14  
497  90  
498  12  
499  4   
500  31  
501  21  
502  55  
503  51  
504  85  
505  22  
506  11  
507  34  
508  78  
509  56  
510  3   
511  77  
512  61  
513  47  
514  98  
515  43  
516  60  
517  67  
518  99  
519  63  
520  23  
521  25  
522  70  
523  76  
524  4   
525  74  
526  64  
527  6   
528  82  
529  16  
530  81  
531  48  
532  24  
533  26  
534  75  
535  22  
536  25  
537  46  
538  34  
539  36  
540  30  
541  25  
542  77  
543  72  
544  81  
545  34  
546  71  
547  12  
548  18  
549  49  
550  87  
551  100 
552  95  
553  66  
554  44  
555  25  
556  67  
557  56  
558  75  
559  8   
560  50  
561  2   
562  25  
563  13  
564  85  
565  41  
566  58  
567  41  
568  2   
569  73  
570  50  
571  27  
572  19  
573  46  
574  11  
575  24  
576  82  
577  46  
578  46  
579  15  
580  47  
581  63  
582  98  
583  41  
584  77  
585  95  
586  20  
587  2   
588  99  
589  44  
590  42  
591  67  
592  78  
593  21  
594  57  
595  48  
596  31  
597  89  
598  94  
599  71  
600  15  
601  70  
602  88  
603  29  
604  72  
605  31  
606  60  
607  13  
608  50  
609  22  
610  20  
611  39  
612  61  
613  67  
614  32  
615  67  
616  94  
617  34  
618  49  
619  4   
620  3   
621  85  
622  89  
623  46  
624  24  
625  40  
626  53  
627  63  
628  56  
629  85  
630  11  
631  59  
632  55  
633  15  
634  50  
635  57  
636  78  
637  88  
638  49  
639  66  
640  39  
641  67  
642  55  
643  66  
644  34  
645  83  
646  97  
647  19  
648  47  
649  69  
650  66  
651  99  
652  50  
653  49  
654  89  
655  56  
656  8   
657  39  
658  82  
659  82  
660  95  
661  31  
662  55  
663  1   
664  45  
665  64  
666  78  
667  69  
668  73  
669  38  
670  48  
671  54  
672  55  
673  51  
674  72  
675  78  
676  64  
677  52  
678  71  
679  3   
680  2   
681  12  
682  27  
683  91  
684  89  
685  62  
686  7   
687  28  
688  15  
689  6   
690  69  
691  90  
692  11  
693  17  
694  98  
695  49  
696  44  
697  7   
698  100 
699  39  
700  8   
701  84  
702  12  
703  100 
704  61  
705  21  
706  64  
707  67  
708  41  
709  8   
710  11  
711  68  
712  66  
713  86  
714  79  
715  21  
716  86  
717  76  
718  48  
719  77  
720  62  
721  60  
722  7   
723  54  
724  15  
725  52  
726  46  
727  35  
728  69  
729  1   
730  82  
731  67  
732  52  
733  71  
734  83  
735  72  
736  79  
737  51  
738  2   
739  25  
740  30  
741  64  
742  92  
743  67  
744  55  
745  27  
746  65  
747  92  
748  90  
749  6   
750  51  
751  38  
752  65  
753  49  
754  4   
755  95  
756  77  
757  45  
758  60  
759  99  
760  24  
761  54  
762  95  
763  78  
764  63  
765  94  
766  78  
767  41  
768  16  
769  11  
770  2   
771  57  
772  86  
773  56  
774  15  
775  37  
776  21  
777  64  
778  63  
779  77  
780  47  
781  14  
782  8   
783  75  
784  72  
785  57  
786  50  
787  79  
788  1   
789  63  
790  99  
791  13  
792  75  
793  53  
794  15  
795  100 
796  93  
797  38  
798  58  
799  72  
800  28  
801  87  
802  97  
803  64  
804  7   
805  26  
806  99  
807  23  
808  27  
809  77  
810  55  
811  13  
812  11  
813  14  
814  4   
815  75  
816  27  
817  63  
818  69  
819  55  
820  67  
821  4   
822  68  
823  11  
824  62  
825  68  
826  85  
827  32  
828  44  
829  50  
830  71  
831  98  
832  3   
833  96  
834  37  
835  48  
836  39  
837  12  
838  35  
839  82  
840  16  
841  31  
842  11  
843  31  
844  80  
845  10  
846  1   
847  86  
848  31  
849  90  
850  86  
851  6   
852  60  
853  71  
854  94  
855  71  
856  25  
857  65  
858  18  
859  38  
860  47  
861  98  
862  80  
863  50  
864  100 
865  24  
866  88  
867  5   
868  68  
869  26  
870  53  
871  31  
872  100 
873  27  
874  65  
875  79  
876  99  
877  57  
878  23  
879  80  
880  98  
881  5   
882  52  
883  46  
884  7   
885  95  
886  76  
887  28  
888  40  
889  46  
890  56  
891  47  
892  83  
893  70  
894  94  
895  45  
896  51  
897  44  
898  58  
899  78  
900  39  
901  10  
902  5   
903  67  
904  32  
905  75  
906  77  
907  25  
908  57  
909  53  
910  86  
911  71  
912  73  
913  69  
914  49  
915  100 
916  90  
917  36  
918  96  
919  53  
920  44  
921  45  
922  16  
923  40  
924  3   
925  40  
926  14  
927  19  
928  53  
929  3   
930  41  
931  73  
932  49  
933  67  
934  19  
935  23  
936  20  
937  67  
938  18  
939  48  
940  37  
941  95  
942  96  
943  21  
944  14  
945  85  
946  51  
947  52  
948  11  
949  13  
950  11  
951  76  
952  24  
953  65  
954  25  
955  75  
956  54  
957  33  
958  35  
959  43  
960  29  
961  24  
962  22  
963  17  
964  79  
965  46  
966  80  
967  24  
968  98  
969  89  
970  51  
971  22  
972  39  
973  69  
974  13  
975  26  
976  13  
977  70  
978  1   
979  66  
980  94  
981  63  
982  43  
983  99  
984  49  
985  54  
986  5   
987  3   
988  87  
989  31  
990  8   
991  75  
992  79  
993  29  
994  54  
995  33  
996  66  
997  32  
998  68  
999  6   
1000 31  
1001 43  
DEPOT_SECTION
1
-1
EOF
