NAME : XML1000_2223_01
COMMENT : Generated as the XML100 dataset from the CVRPLIB
TYPE : CVRP
DIMENSION : 1001
EDGE_WEIGHT_TYPE : EUC_2D
CAPACITY : 46
NODE_COORD_SECTION
1    5000 5000
2    739  8290
3    3809 2296
4    7541 6998
5    4379 2387
6    8138 4857
7    7650 8087
8    861  8310
9    7889 5346
10   7865 5992
11   7895 9837
12   282  8217
13   4101 2718
14   7262 7643
15   7571 4776
16   7647 7566
17   529  8587
18   8122 7933
19   1699 8298
20   7713 8805
21   7260 7969
22   7960 5666
23   1217 8809
24   624  9076
25   562  3199
26   7552 7881
27   4506 2956
28   6976 9627
29   7092 8258
30   8134 5276
31   1118 8887
32   790  3376
33   7556 9819
34   7883 5978
35   7626 7854
36   8220 6849
37   7439 5767
38   8050 5387
39   5077 2488
40   8523 5035
41   8312 9564
42   8047 9748
43   5563 2840
44   8210 5858
45   4869 2214
46   1126 8988
47   4707 2654
48   7320 8398
49   3898 1796
50   699  7678
51   7890 9247
52   7393 8128
53   871  8757
54   8467 4137
55   7815 9466
56   6050 1522
57   5071 2329
58   4038 3647
59   8264 9524
60   726  8178
61   8320 9925
62   8064 7690
63   8098 9708
64   7757 9738
65   844  8808
66   3984 2380
67   7    3374
68   4539 2420
69   4755 3763
70   590  8543
71   7844 9480
72   452  8293
73   16   3203
74   4508 2792
75   5024 2598
76   7534 8044
77   4646 2363
78   8577 9085
79   7874 5391
80   8934 9072
81   597  3726
82   265  3181
83   1297 8617
84   8561 9865
85   4821 2171
86   201  3457
87   8014 5497
88   7733 7650
89   7290 8188
90   146  3389
91   7848 7506
92   426  3284
93   268  8989
94   7507 7969
95   996  8385
96   7709 9532
97   7110 9574
98   8836 5160
99   535  8694
100  8295 5127
101  205  3291
102  561  9656
103  382  8863
104  347  3263
105  468  8850
106  4931 1594
107  7914 9224
108  8316 5426
109  601  8528
110  7370 9896
111  4317 2621
112  8597 9152
113  7320 9831
114  6352 6089
115  7487 8819
116  5251 1772
117  7633 4649
118  851  8516
119  7609 7993
120  8049 9697
121  4254 3094
122  4319 3180
123  7598 9356
124  8394 5364
125  4797 3086
126  7605 7462
127  1094 8346
128  4549 2775
129  8115 5384
130  450  3440
131  8128 8182
132  8086 9474
133  308  8473
134  8375 9631
135  926  8238
136  8846 6323
137  734  8426
138  381  3330
139  524  3422
140  50   2866
141  7651 8069
142  190  2732
143  7482 5432
144  780  8539
145  7069 9118
146  794  9481
147  7716 5850
148  8324 5434
149  7578 8049
150  8046 5582
151  8257 9483
152  9610 5046
153  8258 9828
154  8445 5509
155  7991 8985
156  8115 9350
157  396  8172
158  7508 8563
159  161  2919
160  730  8560
161  7089 9732
162  522  8927
163  4428 2287
164  7258 7886
165  7871 6088
166  4532 2851
167  7995 9784
168  7734 9435
169  8371 8219
170  472  9178
171  4460 2149
172  8532 5258
173  7771 8938
174  8227 9710
175  963  8280
176  311  3774
177  6853 7615
178  8441 9424
179  8128 9498
180  4061 1992
181  7460 8328
182  7399 8826
183  7967 7923
184  7977 9726
185  4733 2178
186  4936 2215
187  7781 9595
188  8072 5285
189  7676 4947
190  4638 2669
191  8052 8813
192  3972 2314
193  8181 9241
194  957  3559
195  7827 8348
196  7413 7446
197  8264 5430
198  226  2986
199  7819 8317
200  167  3243
201  7668 9487
202  717  8341
203  7291 9725
204  8007 5603
205  791  2992
206  7522 4959
207  56   3493
208  7625 5686
209  8162 5066
210  4605 2488
211  560  3759
212  7402 9175
213  7421 7556
214  8326 4474
215  546  7822
216  193  8193
217  538  4025
218  381  8091
219  8100 9761
220  684  3240
221  563  8530
222  7222 8386
223  4467 2613
224  6785 7481
225  7655 9050
226  4372 2902
227  7951 5465
228  7560 7618
229  8520 4994
230  1270 3309
231  1415 8120
232  167  7812
233  5158 1603
234  5756 4431
235  8464 4544
236  7266 9059
237  7668 8883
238  750  2729
239  7943 5533
240  4297 2822
241  200  2842
242  4682 2473
243  316  3526
244  7890 5101
245  4360 3245
246  1581 8792
247  4849 3082
248  7966 7732
249  8540 5975
250  3791 4416
251  7398 8227
252  7581 8204
253  569  8672
254  7588 5782
255  7681 9244
256  4848 2157
257  7681 6145
258  7956 4688
259  8224 5269
260  8873 5556
261  6826 7603
262  7083 8060
263  7104 8012
264  6922 8820
265  4014 2901
266  4801 2620
267  7791 7847
268  7495 9739
269  4160 2947
270  7188 8559
271  8565 5362
272  7538 8287
273  97   8511
274  4500 2583
275  8772 5702
276  7793 7164
277  8027 5518
278  4840 2721
279  8116 5282
280  4400 2467
281  7475 8849
282  307  3504
283  7988 4576
284  4255 2929
285  7688 7998
286  7590 9588
287  828  3348
288  7048 8126
289  547  9597
290  8059 8104
291  7035 7647
292  7391 7806
293  439  8422
294  223  3712
295  3232 957 
296  7468 7779
297  7966 9190
298  77   3306
299  3248 2022
300  8440 9790
301  8034 5350
302  8724 4761
303  8155 7703
304  7779 9046
305  8123 5109
306  2999 3434
307  365  7749
308  553  8412
309  4546 2625
310  774  8213
311  795  3283
312  1257 2443
313  104  4125
314  6701 8510
315  7894 9355
316  4091 2409
317  8115 9716
318  7944 9690
319  4776 2042
320  8119 9075
321  87   8063
322  4447 2514
323  7586 9224
324  89   3864
325  7201 8763
326  7680 8728
327  7599 8095
328  150  3216
329  8497 5727
330  7716 5613
331  7872 8070
332  4659 2575
333  7646 9066
334  7483 7673
335  802  8495
336  622  8680
337  7235 7854
338  7120 7975
339  7815 5474
340  797  8593
341  181  3348
342  576  8885
343  8329 8974
344  7449 7601
345  4328 2700
346  3959 2588
347  301  3481
348  7430 8390
349  8207 9013
350  8337 5355
351  3168 2866
352  4909 2117
353  567  3970
354  699  8592
355  448  3216
356  7043 7059
357  7451 4776
358  4293 4316
359  7755 8595
360  578  8391
361  288  3478
362  638  3226
363  8216 5533
364  8437 4695
365  7945 9353
366  537  4268
367  817  8705
368  967  8423
369  7956 5034
370  8410 5256
371  7857 8321
372  8306 4755
373  152  9100
374  7862 7585
375  913  3067
376  4071 3368
377  7840 7997
378  1388 8936
379  8614 5523
380  7470 8022
381  18   4173
382  5181 2471
383  3935 1640
384  7511 5215
385  545  8570
386  7935 9572
387  972  8583
388  1088 8210
389  154  8009
390  4210 3108
391  7570 7143
392  8597 5546
393  524  8254
394  7703 9921
395  701  3598
396  740  9045
397  7986 9227
398  8345 5865
399  445  3153
400  320  2875
401  831  3549
402  713  8110
403  7395 4687
404  6013 1875
405  1389 8547
406  7867 6165
407  7981 5327
408  6694 7774
409  3832 2990
410  7707 9394
411  7714 5073
412  897  3925
413  237  3969
414  4815 2317
415  700  4223
416  7910 8809
417  7873 5464
418  7708 5879
419  4777 2595
420  659  8344
421  8247 8975
422  18   8597
423  1486 9538
424  7435 8275
425  4127 3082
426  7623 5422
427  7631 9014
428  7664 9637
429  8344 9629
430  8458 7879
431  630  8812
432  38   3723
433  8581 5127
434  52   3454
435  156  8163
436  8099 9948
437  4354 2820
438  7692 8021
439  1059 8559
440  8478 5231
441  8033 6348
442  372  2915
443  3884 2202
444  4911 2526
445  8512 5266
446  7547 7974
447  7965 9675
448  8516 9307
449  508  8578
450  8511 5498
451  1046 8457
452  7429 9504
453  7965 9582
454  556  9078
455  8652 5442
456  562  8704
457  7292 9247
458  7841 9398
459  4529 2985
460  7934 5877
461  7970 9490
462  759  8764
463  7186 4046
464  574  3549
465  9695 9530
466  4729 1799
467  4890 2757
468  265  3422
469  8179 7907
470  4592 3503
471  441  3252
472  7350 8011
473  8843 5071
474  688  8597
475  4695 2938
476  8423 5864
477  7893 9489
478  7735 5689
479  794  8943
480  7968 9718
481  7615 4774
482  494  8389
483  180  3416
484  8529 4999
485  7662 8115
486  288  3352
487  718  3032
488  4365 2533
489  395  8663
490  8386 5037
491  210  3270
492  271  3229
493  4236 2571
494  8149 6091
495  388  8629
496  142  3509
497  5120 3095
498  15   2491
499  910  3600
500  8388 8050
501  7963 5465
502  8422 5695
503  826  8028
504  8134 5237
505  7869 8512
506  4136 2623
507  7390 7889
508  8266 5710
509  7578 7979
510  7921 5401
511  7785 4703
512  874  8791
513  7501 5438
514  675  7856
515  7852 9783
516  7723 9263
517  428  8726
518  7196 8243
519  8413 8910
520  3916 1782
521  6050 7933
522  7984 9584
523  8327 5569
524  128  3699
525  6087 1197
526  7776 8216
527  7637 7973
528  8063 9443
529  6088 8368
530  8099 9497
531  8271 9880
532  4854 3543
533  7570 7769
534  7360 8244
535  992  8404
536  7496 7970
537  7759 9943
538  7994 5302
539  7663 8498
540  683  8277
541  214  3329
542  7902 7384
543  7307 9040
544  650  2917
545  4969 2953
546  8088 9487
547  7436 9528
548  3802 2533
549  5962 7470
550  4550 2135
551  4434 2758
552  7745 5568
553  678  7418
554  1225 7878
555  7622 6234
556  612  8363
557  7385 9246
558  4997 2704
559  7333 5905
560  4751 2977
561  7335 5348
562  318  3900
563  7443 8182
564  874  8474
565  7906 9816
566  87   8653
567  725  9550
568  106  3013
569  5385 2260
570  8081 9373
571  6956 7801
572  7818 7865
573  563  8270
574  4327 2707
575  48   4123
576  5270 3209
577  152  2776
578  7695 8432
579  7185 8772
580  7637 8883
581  8231 5236
582  7438 8470
583  508  8997
584  299  3467
585  257  4172
586  256  3316
587  4766 2441
588  4174 2457
589  7855 9375
590  7717 7896
591  5315 2824
592  7646 8977
593  8277 9380
594  4590 2240
595  7952 5135
596  7788 5566
597  4279 2956
598  7624 5584
599  5026 2171
600  8006 9722
601  7821 7221
602  4616 2585
603  763  4279
604  7667 9309
605  8151 8413
606  4383 2321
607  7015 8697
608  466  8061
609  7881 9195
610  8312 8632
611  7975 8381
612  7835 8201
613  8578 7844
614  785  8369
615  645  8535
616  8268 7797
617  7883 8007
618  8051 7858
619  7527 8213
620  5043 2716
621  1265 7816
622  7400 7788
623  663  3409
624  7640 7537
625  126  3433
626  8242 7077
627  265  8227
628  249  2861
629  8347 5511
630  818  8213
631  9251 9169
632  5550 2218
633  5097 2017
634  4409 2756
635  8063 9897
636  1026 9618
637  545  3057
638  592  3062
639  7959 7925
640  4621 2696
641  7583 8948
642  4148 2884
643  196  3476
644  1442 9220
645  8549 5277
646  7847 9513
647  8170 5014
648  7617 9141
649  8133 9444
650  86   2925
651  4205 2659
652  6773 4444
653  427  8706
654  259  4244
655  6155 6711
656  7617 8005
657  286  3550
658  7701 9432
659  7837 8699
660  7611 6230
661  320  8512
662  281  3326
663  6350 2367
664  4866 2793
665  4803 2806
666  1333 8700
667  7621 8077
668  7435 9216
669  7981 9779
670  5347 2640
671  7413 9240
672  4591 2682
673  457  8506
674  7913 6637
675  1306 8376
676  343  3184
677  56   7730
678  7636 9666
679  7137 5232
680  4584 1995
681  11   9058
682  8427 5347
683  894  8413
684  5135 3008
685  8117 5406
686  868  7994
687  436  7723
688  4403 2681
689  7578 8520
690  7037 5048
691  8204 5104
692  330  8448
693  4714 3197
694  567  8635
695  7016 8624
696  7675 7331
697  492  8373
698  194  8720
699  4866 3229
700  7654 7507
701  626  8599
702  8497 7399
703  7906 9471
704  4022 2362
705  8281 5708
706  7343 8417
707  365  2598
708  675  8850
709  6925 5724
710  816  3317
711  7700 7996
712  6647 9871
713  3711 2081
714  678  2995
715  6447 8859
716  32   3099
717  5603 2690
718  6604 8916
719  4716 2830
720  825  8676
721  4892 2763
722  4680 2335
723  4551 2643
724  572  7599
725  8457 5771
726  7670 7925
727  4679 2612
728  109  3682
729  7942 5501
730  8231 5345
731  8081 7773
732  4365 3045
733  7587 8318
734  8489 9244
735  6372 7639
736  81   2924
737  765  8761
738  8042 4416
739  7718 8954
740  7232 7522
741  7500 7375
742  7356 8299
743  4104 3468
744  1089 8464
745  6852 5115
746  437  3742
747  515  8200
748  919  8527
749  316  8891
750  8367 5737
751  7393 7719
752  4190 3376
753  7330 8261
754  7320 5417
755  7932 7889
756  3845 2538
757  8941 9016
758  954  8705
759  8314 6138
760  1403 9007
761  3983 1854
762  150  8913
763  1034 8434
764  4827 3184
765  656  8758
766  8181 9636
767  300  3409
768  7663 8167
769  7046 8919
770  7338 7226
771  8251 5445
772  7588 5433
773  8167 4982
774  8127 3586
775  7782 9871
776  7948 9814
777  425  8135
778  756  8793
779  4634 2167
780  5077 2231
781  466  3547
782  7778 7873
783  8088 9358
784  7937 9800
785  147  3938
786  752  3316
787  8178 5576
788  7837 5476
789  7844 9278
790  7886 5373
791  7679 5386
792  714  8357
793  7685 8112
794  5461 2171
795  8421 7985
796  354  7988
797  5759 1839
798  7170 5514
799  1346 7958
800  7443 8172
801  6987 8718
802  402  3243
803  7361 8159
804  9071 8812
805  993  8290
806  8216 9640
807  7601 8102
808  654  3013
809  8693 5819
810  7400 7916
811  8191 9363
812  434  3352
813  789  8854
814  571  2986
815  310  8938
816  257  2158
817  8814 9463
818  7877 9507
819  732  8376
820  7328 7990
821  7396 8042
822  7278 5032
823  4795 3918
824  7925 5403
825  27   3727
826  4911 2325
827  8070 9727
828  1635 8129
829  719  3594
830  7262 8363
831  502  3443
832  4509 2711
833  7706 7646
834  7924 6351
835  3394 3184
836  4538 3197
837  358  8215
838  8017 7917
839  7526 6097
840  8091 4636
841  414  3352
842  4589 2230
843  4752 2059
844  26   3534
845  7194 8535
846  7365 8370
847  686  9080
848  4500 3104
849  6    3252
850  180  2919
851  996  8812
852  7979 8961
853  7555 6547
854  878  8725
855  7659 8693
856  131  8176
857  4541 2852
858  7163 7990
859  187  8509
860  833  3551
861  8101 7569
862  7543 8439
863  7945 5835
864  8013 7815
865  849  8026
866  5157 2076
867  7952 9843
868  8611 6116
869  91   3139
870  779  7795
871  8763 4957
872  488  9420
873  7317 9782
874  550  8572
875  7203 8266
876  369  8554
877  8741 5869
878  645  8792
879  7553 8207
880  6980 9069
881  8286 5809
882  8232 9224
883  7488 9552
884  5151 3085
885  4283 2846
886  4930 3148
887  7591 8118
888  503  8397
889  8029 5370
890  502  3722
891  9108 6523
892  7220 8516
893  7341 7830
894  161  3554
895  4932 2599
896  6333 6599
897  7629 9932
898  724  8149
899  907  7842
900  5076 3339
901  4530 3281
902  483  3366
903  171  8021
904  7922 5185
905  6046 7462
906  786  8362
907  1338 7992
908  955  9018
909  8164 7996
910  8337 9235
911  7824 7940
912  4769 3002
913  7919 5470
914  7724 8787
915  4465 2111
916  4788 2758
917  531  8461
918  5069 2325
919  7460 8286
920  5760 8507
921  8017 8838
922  564  8470
923  8329 9140
924  3384 1489
925  572  8887
926  7457 9083
927  7970 5227
928  3991 2839
929  536  8634
930  95   3406
931  8138 8373
932  7457 9363
933  8774 5069
934  4269 1246
935  4553 1944
936  7694 5335
937  4610 2052
938  672  8474
939  85   3650
940  3437 3216
941  4766 2710
942  8347 4912
943  5346 1846
944  39   3493
945  126  2794
946  132  2403
947  659  8364
948  956  7674
949  7668 5327
950  8063 9150
951  4654 2647
952  7733 5964
953  4074 3165
954  7328 5365
955  243  3376
956  846  8307
957  7925 9697
958  1066 8454
959  7339 4892
960  4445 2421
961  8442 8360
962  420  3319
963  8869 5556
964  4346 3102
965  5103 2823
966  7962 5310
967  7373 8009
968  226  8943
969  703  8259
970  4354 2277
971  7456 8511
972  3981 2101
973  5143 3039
974  348  3383
975  7675 5209
976  4653 2810
977  8072 5312
978  459  3273
979  7880 9716
980  8052 5053
981  4710 2627
982  7908 9668
983  279  8885
984  9461 8330
985  8307 5315
986  6585 7662
987  246  3325
988  7647 8205
989  4395 3151
990  7693 8604
991  4486 2532
992  8765 4753
993  8141 9921
994  7445 7925
995  8278 5846
996  1134 7494
997  4712 2740
998  4255 2459
999  407  2261
1000 7928 8845
1001 328  8485
DEMAND_SECTION
1    0   
2    5   
3    7   
4    10  
5    10  
6    3   
7    9   
8    1   
9    10  
10   7   
11   10  
12   5   
13   5   
14   10  
15   4   
16   6   
17   6   
18   7   
19   5   
20   3   
21   8   
22   6   
23   10  
24   2   
25   1   
26   6   
27   5   
28   1   
29   5   
30   9   
31   4   
32   3   
33   7   
34   5   
35   3   
36   3   
37   8   
38   8   
39   5   
40   9   
41   2   
42   9   
43   4   
44   2   
45   4   
46   5   
47   2   
48   5   
49   10  
50   8   
51   4   
52   2   
53   3   
54   8   
55   3   
56   3   
57   4   
58   8   
59   6   
60   5   
61   9   
62   6   
63   8   
64   7   
65   3   
66   4   
67   3   
68   8   
69   7   
70   4   
71   9   
72   6   
73   3   
74   5   
75   8   
76   3   
77   4   
78   4   
79   9   
80   7   
81   8   
82   2   
83   1   
84   2   
85   6   
86   2   
87   8   
88   10  
89   7   
90   8   
91   3   
92   8   
93   8   
94   2   
95   1   
96   9   
97   6   
98   5   
99   9   
100  5   
101  2   
102  4   
103  8   
104  10  
105  10  
106  9   
107  6   
108  9   
109  5   
110  5   
111  6   
112  9   
113  7   
114  10  
115  4   
116  5   
117  5   
118  2   
119  7   
120  2   
121  8   
122  1   
123  6   
124  8   
125  2   
126  10  
127  3   
128  5   
129  4   
130  10  
131  7   
132  3   
133  4   
134  2   
135  2   
136  2   
137  8   
138  3   
139  4   
140  5   
141  8   
142  4   
143  1   
144  9   
145  6   
146  9   
147  3   
148  8   
149  1   
150  10  
151  6   
152  5   
153  8   
154  4   
155  6   
156  9   
157  8   
158  10  
159  9   
160  2   
161  9   
162  5   
163  3   
164  2   
165  4   
166  7   
167  4   
168  7   
169  5   
170  4   
171  7   
172  2   
173  3   
174  9   
175  7   
176  5   
177  7   
178  1   
179  5   
180  9   
181  1   
182  1   
183  9   
184  10  
185  2   
186  3   
187  10  
188  9   
189  10  
190  10  
191  9   
192  9   
193  3   
194  6   
195  10  
196  5   
197  4   
198  3   
199  5   
200  4   
201  10  
202  8   
203  2   
204  1   
205  4   
206  10  
207  8   
208  5   
209  5   
210  5   
211  9   
212  6   
213  7   
214  5   
215  2   
216  3   
217  9   
218  2   
219  5   
220  2   
221  4   
222  5   
223  4   
224  1   
225  1   
226  10  
227  7   
228  8   
229  6   
230  3   
231  4   
232  5   
233  7   
234  6   
235  6   
236  4   
237  8   
238  7   
239  8   
240  9   
241  1   
242  4   
243  3   
244  9   
245  4   
246  5   
247  1   
248  5   
249  4   
250  2   
251  8   
252  9   
253  9   
254  9   
255  4   
256  5   
257  5   
258  8   
259  2   
260  2   
261  4   
262  7   
263  1   
264  5   
265  3   
266  1   
267  5   
268  8   
269  10  
270  2   
271  5   
272  6   
273  10  
274  3   
275  6   
276  9   
277  7   
278  3   
279  1   
280  10  
281  6   
282  10  
283  10  
284  2   
285  7   
286  10  
287  7   
288  7   
289  3   
290  4   
291  8   
292  6   
293  4   
294  5   
295  3   
296  10  
297  10  
298  10  
299  2   
300  10  
301  10  
302  6   
303  10  
304  9   
305  5   
306  9   
307  6   
308  9   
309  7   
310  10  
311  2   
312  2   
313  9   
314  10  
315  2   
316  8   
317  8   
318  6   
319  7   
320  5   
321  7   
322  3   
323  2   
324  5   
325  7   
326  8   
327  10  
328  8   
329  2   
330  9   
331  9   
332  6   
333  2   
334  8   
335  3   
336  5   
337  2   
338  6   
339  1   
340  9   
341  6   
342  3   
343  4   
344  9   
345  1   
346  7   
347  6   
348  8   
349  7   
350  3   
351  10  
352  5   
353  1   
354  4   
355  2   
356  4   
357  5   
358  4   
359  1   
360  6   
361  9   
362  3   
363  6   
364  7   
365  1   
366  9   
367  7   
368  7   
369  4   
370  4   
371  3   
372  5   
373  4   
374  2   
375  3   
376  8   
377  7   
378  9   
379  1   
380  10  
381  9   
382  7   
383  9   
384  1   
385  8   
386  8   
387  8   
388  1   
389  6   
390  7   
391  7   
392  6   
393  1   
394  5   
395  3   
396  6   
397  9   
398  2   
399  8   
400  9   
401  10  
402  2   
403  7   
404  6   
405  1   
406  9   
407  7   
408  4   
409  4   
410  9   
411  1   
412  6   
413  4   
414  10  
415  9   
416  4   
417  2   
418  9   
419  8   
420  6   
421  4   
422  2   
423  1   
424  7   
425  7   
426  2   
427  7   
428  7   
429  9   
430  10  
431  7   
432  7   
433  9   
434  10  
435  9   
436  9   
437  4   
438  7   
439  7   
440  3   
441  6   
442  10  
443  7   
444  6   
445  10  
446  9   
447  10  
448  5   
449  5   
450  4   
451  9   
452  5   
453  2   
454  5   
455  3   
456  6   
457  3   
458  9   
459  5   
460  1   
461  6   
462  3   
463  10  
464  7   
465  2   
466  2   
467  1   
468  3   
469  1   
470  8   
471  5   
472  9   
473  2   
474  4   
475  5   
476  5   
477  10  
478  5   
479  8   
480  10  
481  2   
482  3   
483  8   
484  2   
485  2   
486  10  
487  7   
488  8   
489  6   
490  9   
491  7   
492  6   
493  5   
494  4   
495  6   
496  3   
497  7   
498  5   
499  10  
500  10  
501  10  
502  9   
503  7   
504  8   
505  1   
506  1   
507  10  
508  1   
509  4   
510  5   
511  5   
512  1   
513  7   
514  6   
515  7   
516  5   
517  10  
518  6   
519  7   
520  7   
521  2   
522  2   
523  7   
524  4   
525  8   
526  2   
527  9   
528  6   
529  6   
530  6   
531  3   
532  7   
533  2   
534  4   
535  7   
536  2   
537  7   
538  1   
539  7   
540  6   
541  6   
542  9   
543  6   
544  2   
545  10  
546  2   
547  1   
548  8   
549  6   
550  1   
551  3   
552  9   
553  9   
554  1   
555  5   
556  1   
557  5   
558  8   
559  3   
560  7   
561  1   
562  6   
563  1   
564  10  
565  8   
566  4   
567  7   
568  1   
569  8   
570  8   
571  7   
572  2   
573  1   
574  9   
575  2   
576  10  
577  1   
578  9   
579  10  
580  4   
581  9   
582  1   
583  4   
584  3   
585  9   
586  3   
587  9   
588  4   
589  7   
590  9   
591  9   
592  7   
593  1   
594  5   
595  1   
596  4   
597  5   
598  3   
599  2   
600  3   
601  9   
602  6   
603  3   
604  6   
605  10  
606  10  
607  10  
608  10  
609  1   
610  7   
611  2   
612  10  
613  7   
614  6   
615  3   
616  6   
617  10  
618  3   
619  7   
620  6   
621  1   
622  8   
623  7   
624  5   
625  7   
626  2   
627  7   
628  7   
629  3   
630  2   
631  3   
632  2   
633  6   
634  4   
635  7   
636  5   
637  5   
638  1   
639  3   
640  1   
641  5   
642  7   
643  9   
644  8   
645  10  
646  9   
647  7   
648  4   
649  6   
650  9   
651  5   
652  4   
653  10  
654  8   
655  1   
656  7   
657  10  
658  2   
659  1   
660  10  
661  6   
662  1   
663  1   
664  1   
665  9   
666  8   
667  4   
668  5   
669  10  
670  10  
671  5   
672  8   
673  9   
674  7   
675  7   
676  6   
677  7   
678  7   
679  9   
680  7   
681  2   
682  2   
683  8   
684  4   
685  5   
686  5   
687  3   
688  1   
689  10  
690  5   
691  5   
692  9   
693  10  
694  1   
695  3   
696  9   
697  2   
698  7   
699  8   
700  1   
701  10  
702  2   
703  8   
704  7   
705  8   
706  4   
707  4   
708  7   
709  4   
710  7   
711  1   
712  7   
713  2   
714  1   
715  3   
716  5   
717  4   
718  2   
719  9   
720  4   
721  4   
722  1   
723  7   
724  7   
725  9   
726  8   
727  3   
728  4   
729  2   
730  5   
731  4   
732  8   
733  4   
734  7   
735  1   
736  7   
737  10  
738  10  
739  8   
740  2   
741  10  
742  3   
743  2   
744  7   
745  1   
746  6   
747  9   
748  4   
749  8   
750  6   
751  10  
752  5   
753  4   
754  6   
755  3   
756  1   
757  1   
758  3   
759  6   
760  7   
761  4   
762  1   
763  1   
764  6   
765  4   
766  5   
767  2   
768  6   
769  1   
770  9   
771  8   
772  8   
773  4   
774  7   
775  6   
776  5   
777  5   
778  2   
779  7   
780  1   
781  8   
782  9   
783  7   
784  9   
785  6   
786  5   
787  3   
788  2   
789  7   
790  10  
791  3   
792  3   
793  2   
794  4   
795  5   
796  4   
797  5   
798  9   
799  3   
800  3   
801  2   
802  1   
803  1   
804  6   
805  2   
806  10  
807  6   
808  4   
809  7   
810  10  
811  5   
812  6   
813  9   
814  6   
815  3   
816  9   
817  5   
818  8   
819  4   
820  7   
821  3   
822  3   
823  1   
824  9   
825  5   
826  1   
827  2   
828  9   
829  8   
830  4   
831  1   
832  5   
833  7   
834  3   
835  10  
836  4   
837  4   
838  2   
839  3   
840  5   
841  6   
842  5   
843  7   
844  8   
845  1   
846  3   
847  1   
848  2   
849  7   
850  6   
851  9   
852  5   
853  6   
854  2   
855  7   
856  1   
857  2   
858  9   
859  3   
860  2   
861  8   
862  9   
863  8   
864  3   
865  9   
866  9   
867  9   
868  4   
869  9   
870  6   
871  7   
872  9   
873  8   
874  9   
875  10  
876  4   
877  5   
878  6   
879  4   
880  7   
881  6   
882  4   
883  9   
884  8   
885  4   
886  6   
887  2   
888  4   
889  4   
890  1   
891  7   
892  6   
893  3   
894  9   
895  7   
896  4   
897  3   
898  3   
899  9   
900  1   
901  2   
902  5   
903  9   
904  9   
905  10  
906  10  
907  3   
908  3   
909  4   
910  9   
911  3   
912  1   
913  9   
914  5   
915  1   
916  6   
917  6   
918  4   
919  4   
920  2   
921  9   
922  10  
923  10  
924  7   
925  1   
926  9   
927  3   
928  8   
929  3   
930  4   
931  3   
932  3   
933  1   
934  8   
935  4   
936  3   
937  2   
938  3   
939  1   
940  5   
941  2   
942  4   
943  4   
944  10  
945  7   
946  6   
947  5   
948  7   
949  3   
950  8   
951  1   
952  4   
953  9   
954  6   
955  4   
956  6   
957  1   
958  5   
959  9   
960  5   
961  9   
962  8   
963  1   
964  8   
965  2   
966  10  
967  10  
968  7   
969  6   
970  7   
971  10  
972  5   
973  1   
974  5   
975  7   
976  2   
977  8   
978  7   
979  1   
980  1   
981  8   
982  4   
983  4   
984  10  
985  5   
986  4   
987  9   
988  1   
989  10  
990  4   
991  7   
992  6   
993  3   
994  3   
995  4   
996  4   
997  3   
998  6   
999  10  
1000 1   
1001 5   
DEPOT_SECTION
1
-1
EOF
