NAME : XML1000_2323_01
COMMENT : Generated as the XML100 dataset from the CVRPLIB
TYPE : CVRP
DIMENSION : 1001
EDGE_WEIGHT_TYPE : EUC_2D
CAPACITY : 45
NODE_COORD_SECTION
1    5000 5000
2    5099 9456
3    9958 9316
4    3323 9402
5    7521 7459
6    9939 1180
7    6660 4649
8    7093 6671
9    3668 9570
10   2178 7486
11   4672 7052
12   9924 3053
13   9468 5696
14   9727 8916
15   4500 2351
16   7895 9837
17   5277 1210
18   2803 308 
19   9884 8467
20   5573 1855
21   273  426 
22   817  9918
23   2868 5796
24   6504 5317
25   3739 9923
26   3392 9975
27   9199 2811
28   3273 9824
29   8839 9557
30   3125 8565
31   9787 4827
32   8418 9970
33   3156 9634
34   4556 6323
35   9353 2423
36   4124 6063
37   9525 8650
38   9245 1966
39   8301 7689
40   7466 4957
41   2562 3674
42   8661 1838
43   453  901 
44   7092 2499
45   94   174 
46   9668 8646
47   7906 9864
48   2724 8018
49   7516 9308
50   8312 9564
51   5979 5043
52   2951 9767
53   9570 9120
54   9587 9154
55   5694 5374
56   6556 512 
57   8190 1028
58   6608 376 
59   5979 7081
60   168  633 
61   611  687 
62   3239 6517
63   9936 8997
64   9101 3416
65   6496 9999
66   8196 9669
67   4373 5755
68   8264 9524
69   4287 6476
70   642  429 
71   5319 8223
72   59   7275
73   8098 9708
74   9827 3600
75   9595 7039
76   7376 1939
77   5414 7153
78   3154 3956
79   1518 4040
80   6151 6548
81   2452 6298
82   3204 9642
83   4607 7069
84   4785 9702
85   9454 5907
86   9991 7399
87   9618 2737
88   4750 8742
89   233  380 
90   4879 6911
91   9839 9501
92   9669 1722
93   9401 2850
94   8577 9085
95   9545 4006
96   8934 9072
97   8549 7785
98   9907 9532
99   8561 9865
100  98   1173
101  5094 3658
102  3602 9339
103  1977 7571
104  9111 873 
105  3834 6728
106  9657 2944
107  7163 7716
108  7300 4021
109  4311 6872
110  956  2694
111  9064 4707
112  4714 5482
113  9798 380 
114  4985 7173
115  9116 2588
116  698  630 
117  8463 9862
118  9559 9493
119  2584 9517
120  3281 9721
121  2517 3888
122  5917 730 
123  5545 2919
124  7370 9896
125  4988 6993
126  8597 9152
127  4623 6489
128  7320 9831
129  9517 9380
130  6430 3298
131  5089 6158
132  8049 9697
133  1273 5658
134  7598 9356
135  2777 864 
136  5480 8648
137  8764 2125
138  2792 9862
139  4539 7906
140  776  5872
141  3063 9784
142  4555 1287
143  6379 2727
144  9204 3052
145  2538 9931
146  8375 9631
147  8726 3099
148  3300 9691
149  6123 9882
150  198  759 
151  2839 8890
152  3843 2909
153  9837 9054
154  691  2807
155  4427 6098
156  2535 706 
157  821  598 
158  523  319 
159  3132 9495
160  9933 1701
161  6511 7196
162  7824 9275
163  7560 1085
164  7578 8049
165  3306 9757
166  2697 3206
167  8258 9828
168  8517 5790
169  5850 1144
170  4738 3302
171  3869 6226
172  6667 7811
173  3544 9338
174  9829 915 
175  1375 8844
176  4242 6458
177  4249 6592
178  9934 9197
179  1246 4095
180  5501 3043
181  2941 9006
182  6022 7601
183  6935 5380
184  9379 7663
185  9418 4837
186  677  3071
187  3922 7203
188  4526 6213
189  9958 4006
190  7995 9784
191  5455 6915
192  8751 9891
193  7151 8210
194  8370 9801
195  9501 2552
196  49   9901
197  762  944 
198  8227 9710
199  2074 6548
200  5902 7120
201  8872 3052
202  9523 2544
203  4154 6516
204  4141 6170
205  422  319 
206  6421 1544
207  9825 9476
208  5893 7961
209  9640 787 
210  7325 5623
211  2990 1306
212  700  6484
213  4480 6693
214  9412 2453
215  6127 4625
216  6227 9992
217  2394 9524
218  8776 9014
219  7231 1616
220  9897 2761
221  4060 4547
222  2733 9594
223  1064 9577
224  9030 1922
225  5767 362 
226  4854 7132
227  5016 267 
228  7988 18  
229  4301 6463
230  7291 9725
231  4527 6769
232  2830 8971
233  4172 5901
234  4451 8521
235  8388 9718
236  9916 8544
237  3040 4958
238  3026 9854
239  9840 2840
240  89   201 
241  5546 7657
242  8958 3341
243  9359 2746
244  8100 9761
245  563  8530
246  1332 588 
247  9533 9127
248  176  683 
249  7655 9050
250  8284 9744
251  3480 9480
252  8380 9642
253  737  603 
254  9525 2338
255  3498 9715
256  4446 7292
257  6013 6639
258  2278 4346
259  7650 5147
260  9174 3125
261  3319 9933
262  4905 5990
263  9831 8866
264  4849 7315
265  3967 7792
266  2694 9951
267  4527 6785
268  9578 8911
269  2305 455 
270  8485 9981
271  3945 6361
272  8599 5054
273  4796 5707
274  7524 2792
275  3154 9721
276  442  378 
277  1453 3428
278  8872 9643
279  2702 2855
280  4335 7039
281  3232 9964
282  9270 3049
283  192  7440
284  4505 6414
285  7646 4816
286  682  1563
287  4576 6852
288  1957 4374
289  247  1051
290  1458 757 
291  9742 9507
292  6488 7466
293  8651 9927
294  4704 6811
295  811  9502
296  2657 9687
297  5305 7460
298  2508 8410
299  7939 6827
300  500  1148
301  3268 9846
302  8315 4319
303  9609 9176
304  5041 1563
305  6322 3124
306  8225 9973
307  8440 9790
308  8724 4761
309  9768 2146
310  5147 5940
311  5595 5717
312  8523 9023
313  8905 1641
314  4546 2625
315  5293 539 
316  8400 2721
317  6944 9990
318  4697 6650
319  3184 1589
320  6628 7235
321  7894 9355
322  3061 9612
323  82   8926
324  4184 6581
325  2029 9845
326  1519 2490
327  8115 9716
328  7944 9690
329  9998 2492
330  3954 6967
331  9807 2809
332  5462 6038
333  4555 6754
334  5721 8825
335  5973 1155
336  283  2320
337  4707 5823
338  7872 8070
339  3226 9790
340  565  6534
341  1393 369 
342  9030 7342
343  2647 1203
344  2274 9392
345  1850 1582
346  4225 6552
347  7510 6360
348  6129 8457
349  6889 5839
350  4408 6515
351  9268 2370
352  8329 8974
353  9083 2977
354  9919 2000
355  497  128 
356  6147 725 
357  6938 7333
358  9548 3569
359  8051 877 
360  4214 7147
361  9312 9412
362  69   438 
363  2528 936 
364  9682 2155
365  9323 2540
366  3078 9861
367  2914 2042
368  9620 7862
369  1960 9047
370  90   1217
371  4056 6513
372  7098 6784
373  8868 9583
374  4010 6832
375  388  657 
376  7360 6631
377  71   8229
378  200  2589
379  2645 7915
380  9722 262 
381  5825 5598
382  212  177 
383  6219 2445
384  4192 1180
385  9785 9021
386  9953 9346
387  9007 4205
388  5246 9045
389  9642 2865
390  7935 9572
391  160  5998
392  9351 859 
393  4622 8792
394  7010 6634
395  9525 6891
396  3373 9631
397  9519 2405
398  1781 9965
399  1750 6910
400  46   7185
401  283  7054
402  2730 4497
403  2760 9878
404  2128 904 
405  4344 6693
406  4039 4740
407  557  423 
408  3144 9693
409  9133 2493
410  3145 5732
411  988  3456
412  9534 3557
413  3894 9404
414  103  682 
415  2938 9758
416  9312 1921
417  622  188 
418  679  878 
419  3092 9591
420  3177 9474
421  8239 9699
422  4025 6419
423  1147 1164
424  465  2753
425  4852 6077
426  7913 1392
427  3343 9873
428  7664 9637
429  2137 3250
430  3317 8663
431  385  177 
432  2691 510 
433  217  2516
434  4857 5743
435  2340 9400
436  9560 2561
437  4245 7507
438  1587 8360
439  7738 8184
440  8589 9869
441  4719 6686
442  9871 9406
443  5222 5215
444  3899 5900
445  8516 9307
446  3282 9434
447  7965 9675
448  9193 2934
449  3169 9638
450  4554 7355
451  6125 5480
452  7429 9504
453  7965 9582
454  8908 9611
455  9862 8977
456  8774 239 
457  2667 2758
458  325  771 
459  9690 3189
460  6764 3905
461  9477 3530
462  532  419 
463  4347 6613
464  9849 2808
465  3177 9527
466  4749 6833
467  9541 2874
468  9452 6539
469  8136 4934
470  7340 6632
471  6012 6296
472  9099 2768
473  7968 9718
474  7694 4490
475  2340 6153
476  9259 5995
477  351  1158
478  3044 9253
479  8502 2320
480  9712 2459
481  6924 5092
482  3272 1149
483  9809 9430
484  8793 8374
485  7024 5901
486  3946 2761
487  7498 873 
488  3967 7082
489  4646 4297
490  9286 2098
491  2995 6909
492  376  251 
493  9532 2518
494  315  525 
495  4020 6538
496  4907 7604
497  9815 2703
498  9651 4244
499  8003 1359
500  427  1226
501  6905 1899
502  2720 5152
503  377  637 
504  2903 9567
505  6802 578 
506  581  651 
507  370  376 
508  2542 7385
509  8571 2808
510  1142 3088
511  6354 8026
512  4740 813 
513  2955 9211
514  2391 972 
515  2133 1170
516  9837 9258
517  4511 6602
518  9573 2498
519  4616 6798
520  8271 9880
521  457  308 
522  4458 7082
523  9007 8771
524  7471 7008
525  9249 5905
526  278  879 
527  9767 9863
528  2282 7514
529  1096 720 
530  1572 5054
531  3955 8607
532  3961 6512
533  9220 9116
534  7036 924 
535  1666 916 
536  3459 6869
537  2813 1281
538  927  9974
539  8238 2380
540  4596 6300
541  5581 4691
542  3967 6873
543  3893 8785
544  5136 3091
545  1892 6849
546  4693 6712
547  1759 7900
548  5414 7079
549  7385 9246
550  8442 9787
551  413  435 
552  1312 115 
553  2729 3715
554  4807 8216
555  4485 6866
556  2716 9154
557  4317 6391
558  828  5728
559  444  602 
560  296  571 
561  3262 82  
562  4546 6757
563  267  499 
564  9338 2478
565  9470 3310
566  8550 2923
567  8081 9373
568  5969 1899
569  7240 9898
570  3504 2402
571  1054 136 
572  8757 9086
573  4072 7102
574  9406 2321
575  3083 9313
576  3375 9704
577  2780 9921
578  5074 6706
579  9562 2791
580  6312 1104
581  3368 2085
582  1112 8768
583  7637 8883
584  2306 1712
585  9332 2359
586  2917 8543
587  6887 2272
588  9877 9525
589  9659 2136
590  2930 2798
591  4894 9206
592  622  571 
593  2977 9990
594  9942 2312
595  7485 6949
596  4356 9789
597  6165 9472
598  1111 6001
599  2678 9773
600  6645 7671
601  8902 8853
602  9787 9069
603  1893 7828
604  6599 9982
605  1414 4013
606  5723 1445
607  5451 5845
608  9502 1342
609  1490 1749
610  9456 2296
611  3327 8980
612  4355 6139
613  3919 1873
614  7691 3975
615  9814 9561
616  5233 3975
617  126  3433
618  2224 6888
619  9556 2785
620  2857 9769
621  3851 1750
622  3141 9331
623  8471 2953
624  289  165 
625  759  387 
626  9653 2652
627  3115 9339
628  849  2711
629  9251 9169
630  7143 7700
631  878  9578
632  9851 2452
633  2934 9325
634  8063 9897
635  5087 9860
636  9764 2771
637  2895 1632
638  280  9134
639  6329 8929
640  9652 2566
641  25   687 
642  9801 8018
643  9521 9517
644  8298 9821
645  4148 2884
646  9554 2698
647  9635 8898
648  6934 3757
649  3172 9800
650  4608 6671
651  8703 2692
652  5613 4411
653  3206 9731
654  3840 3654
655  6155 6711
656  7590 8322
657  2523 7396
658  9046 3655
659  385  594 
660  9817 9198
661  9157 2646
662  7234 2725
663  8298 8182
664  7286 7713
665  2467 8154
666  6252 6901
667  3320 6398
668  7148 5263
669  3128 5712
670  9253 530 
671  1309 4288
672  604  520 
673  9916 9377
674  7981 9779
675  156  5594
676  6882 5038
677  1901 2463
678  9798 7024
679  2108 819 
680  8017 7439
681  4260 5990
682  3263 5810
683  9172 3160
684  5471 4900
685  9750 6564
686  9577 9757
687  9121 2792
688  5378 611 
689  5186 5199
690  2219 7609
691  8765 6032
692  9281 2200
693  7804 2340
694  1129 512 
695  7906 9471
696  547  7169
697  3073 8827
698  8740 1326
699  5776 7554
700  3803 8774
701  8994 7383
702  8269 9818
703  5100 2910
704  4378 2609
705  3838 6820
706  783  9038
707  3574 8447
708  2778 9964
709  4064 3319
710  6447 8859
711  4430 6634
712  9442 8146
713  686  2308
714  4563 7089
715  2538 975 
716  8296 9811
717  6497 1939
718  4653 6589
719  7533 8008
720  3068 9690
721  6811 9244
722  9532 2693
723  408  1906
724  3319 6591
725  7125 6779
726  6939 5625
727  4266 6796
728  9255 9458
729  3194 4962
730  9691 2608
731  9846 9267
732  3404 4061
733  4519 6646
734  6330 3750
735  472  587 
736  509  2053
737  8079 6874
738  9154 8401
739  2933 5549
740  4487 1730
741  3016 9614
742  536  1333
743  2478 990 
744  6986 5388
745  2991 9665
746  8690 6726
747  9958 9303
748  8567 3053
749  281  636 
750  9540 9533
751  3012 9994
752  1292 769 
753  8941 9016
754  7038 1518
755  5123 5888
756  4606 6793
757  9709 9360
758  9426 7847
759  239  7110
760  8181 9636
761  7253 8869
762  4241 282 
763  444  423 
764  9695 2325
765  5904 6450
766  9144 8703
767  7335 899 
768  8772 1063
769  7771 1633
770  2606 9052
771  4833 6841
772  1493 7548
773  9377 8849
774  6205 8704
775  5086 7094
776  1267 1134
777  7122 3664
778  7439 7947
779  5164 8036
780  2885 7866
781  9695 5368
782  2836 2886
783  8088 9358
784  3334 9878
785  9021 2593
786  966  1786
787  3277 9503
788  4195 6843
789  6938 1458
790  2472 441 
791  9682 9143
792  8228 7049
793  305  329 
794  2664 7820
795  3129 8997
796  960  1267
797  9744 7848
798  5271 4727
799  9888 8743
800  6692 6256
801  156  949 
802  7597 2876
803  4793 7099
804  9412 1269
805  3935 5150
806  4021 583 
807  8592 9714
808  514  529 
809  9304 2602
810  9458 1911
811  8859 9847
812  9071 8812
813  3311 9945
814  4648 7596
815  8191 9363
816  9197 1849
817  4325 5996
818  2588 9962
819  4917 6558
820  454  866 
821  35   761 
822  9427 2694
823  431  1059
824  9817 3000
825  9398 9530
826  8070 9727
827  1210 6908
828  9293 6130
829  977  2384
830  2559 6261
831  8024 9673
832  780  9474
833  152  7859
834  9698 2002
835  9996 3008
836  5198 5946
837  7705 2990
838  4622 6650
839  9947 1969
840  379  7272
841  2090 544 
842  9369 7197
843  9594 8603
844  5010 6863
845  3331 9664
846  9971 9274
847  3073 8836
848  8082 9840
849  9140 2825
850  524  139 
851  3003 9349
852  4909 6526
853  9446 2445
854  9550 66  
855  8232 3727
856  7781 3081
857  4440 6707
858  9319 9493
859  5906 7884
860  2784 9711
861  9705 9141
862  4338 7342
863  9386 9017
864  4923 781 
865  5015 5641
866  2584 1923
867  2769 9270
868  4418 7715
869  4254 8478
870  5133 7603
871  9106 1825
872  5315 7800
873  8936 2873
874  7836 8043
875  7560 6572
876  4828 8336
877  5217 6391
878  4045 4036
879  7317 9782
880  9310 5367
881  9167 3167
882  8232 9224
883  2314 5914
884  2631 8700
885  8799 1972
886  1730 4677
887  4558 6510
888  8029 5370
889  7319 7815
890  3468 8104
891  6611 4946
892  9929 5659
893  6333 6599
894  4971 3010
895  4372 9088
896  6991 3403
897  9656 2776
898  9160 6162
899  7237 8512
900  722  380 
901  638  580 
902  9241 5352
903  3172 4628
904  2532 4191
905  2858 2780
906  9693 8816
907  6046 7462
908  5917 7047
909  2229 6683
910  3095 9771
911  9325 4079
912  9613 2447
913  1171 229 
914  3194 9221
915  5559 9408
916  6398 2736
917  4876 6519
918  715  5433
919  8606 2727
920  9549 2592
921  8491 9936
922  4382 6753
923  4258 9350
924  8441 7755
925  9154 1683
926  8329 9140
927  3188 9442
928  444  8873
929  9987 9172
930  9077 2600
931  299  604 
932  5027 7026
933  3176 9448
934  9245 4035
935  195  570 
936  4059 7235
937  9882 5817
938  9965 9718
939  4063 6439
940  1143 4266
941  1068 4429
942  7131 3628
943  6399 8122
944  3489 9583
945  6860 9029
946  8550 793 
947  9545 2731
948  4932 7766
949  9603 2961
950  1484 1686
951  9957 9355
952  243  3376
953  8514 8575
954  57   9433
955  80   5334
956  9953 8869
957  3685 9749
958  905  5701
959  703  8259
960  4153 7432
961  4507 5404
962  3100 1286
963  9401 3164
964  9811 3179
965  4096 6652
966  3113 3789
967  3616 6452
968  9890 2815
969  1967 6371
970  3946 9894
971  1072 9757
972  3224 9829
973  8787 5998
974  7880 9716
975  4518 6681
976  7598 8559
977  7006 8351
978  3860 2195
979  6115 4125
980  89   2018
981  8307 9868
982  9461 8330
983  9181 9208
984  3408 9562
985  3193 8055
986  1623 5662
987  3388 9744
988  4215 6946
989  8204 8920
990  9942 2830
991  4966 5940
992  9873 2837
993  3748 6348
994  407  2261
995  2217 5745
996  9829 9557
997  7484 2861
998  3374 9929
999  289  331 
1000 9067 2963
1001 2654 5613
DEMAND_SECTION
1    0   
2    6   
3    3   
4    4   
5    8   
6    4   
7    3   
8    5   
9    1   
10   7   
11   5   
12   10  
13   3   
14   1   
15   9   
16   6   
17   1   
18   9   
19   10  
20   4   
21   1   
22   6   
23   4   
24   1   
25   5   
26   1   
27   9   
28   6   
29   10  
30   9   
31   5   
32   6   
33   5   
34   6   
35   8   
36   5   
37   6   
38   5   
39   8   
40   5   
41   7   
42   7   
43   1   
44   10  
45   1   
46   10  
47   5   
48   3   
49   10  
50   3   
51   7   
52   7   
53   3   
54   7   
55   4   
56   3   
57   4   
58   1   
59   7   
60   2   
61   7   
62   5   
63   4   
64   6   
65   2   
66   5   
67   5   
68   6   
69   9   
70   10  
71   1   
72   6   
73   2   
74   7   
75   5   
76   10  
77   6   
78   9   
79   6   
80   2   
81   2   
82   9   
83   7   
84   1   
85   6   
86   5   
87   2   
88   6   
89   4   
90   8   
91   7   
92   1   
93   10  
94   1   
95   6   
96   10  
97   8   
98   10  
99   5   
100  3   
101  1   
102  7   
103  3   
104  9   
105  8   
106  2   
107  1   
108  4   
109  7   
110  5   
111  3   
112  1   
113  4   
114  9   
115  3   
116  7   
117  2   
118  8   
119  10  
120  2   
121  4   
122  3   
123  7   
124  9   
125  5   
126  8   
127  4   
128  6   
129  9   
130  8   
131  4   
132  1   
133  9   
134  9   
135  10  
136  1   
137  4   
138  9   
139  4   
140  6   
141  5   
142  6   
143  4   
144  1   
145  6   
146  10  
147  3   
148  3   
149  6   
150  5   
151  4   
152  9   
153  8   
154  1   
155  6   
156  2   
157  2   
158  7   
159  3   
160  7   
161  6   
162  4   
163  2   
164  5   
165  9   
166  10  
167  6   
168  5   
169  6   
170  9   
171  4   
172  10  
173  6   
174  7   
175  6   
176  9   
177  3   
178  5   
179  9   
180  2   
181  10  
182  8   
183  9   
184  9   
185  6   
186  1   
187  1   
188  10  
189  3   
190  2   
191  5   
192  8   
193  10  
194  3   
195  5   
196  5   
197  6   
198  1   
199  4   
200  10  
201  5   
202  4   
203  2   
204  1   
205  7   
206  2   
207  7   
208  4   
209  9   
210  4   
211  7   
212  4   
213  3   
214  7   
215  7   
216  1   
217  7   
218  3   
219  9   
220  1   
221  4   
222  10  
223  4   
224  2   
225  3   
226  4   
227  4   
228  10  
229  6   
230  8   
231  7   
232  5   
233  7   
234  6   
235  6   
236  8   
237  2   
238  1   
239  3   
240  2   
241  1   
242  10  
243  10  
244  10  
245  2   
246  9   
247  1   
248  3   
249  5   
250  9   
251  10  
252  7   
253  4   
254  8   
255  9   
256  9   
257  9   
258  4   
259  10  
260  5   
261  4   
262  7   
263  7   
264  4   
265  1   
266  6   
267  2   
268  3   
269  7   
270  7   
271  7   
272  7   
273  8   
274  9   
275  2   
276  1   
277  5   
278  3   
279  8   
280  6   
281  7   
282  2   
283  2   
284  3   
285  5   
286  1   
287  8   
288  1   
289  10  
290  4   
291  3   
292  5   
293  4   
294  2   
295  8   
296  8   
297  2   
298  1   
299  9   
300  10  
301  3   
302  4   
303  6   
304  6   
305  1   
306  2   
307  10  
308  3   
309  9   
310  10  
311  6   
312  5   
313  10  
314  7   
315  8   
316  7   
317  9   
318  10  
319  10  
320  2   
321  9   
322  6   
323  3   
324  3   
325  3   
326  7   
327  8   
328  7   
329  7   
330  1   
331  10  
332  9   
333  8   
334  9   
335  6   
336  9   
337  8   
338  2   
339  1   
340  2   
341  9   
342  10  
343  1   
344  7   
345  10  
346  9   
347  8   
348  6   
349  2   
350  7   
351  10  
352  8   
353  2   
354  2   
355  7   
356  10  
357  9   
358  1   
359  5   
360  10  
361  1   
362  5   
363  10  
364  6   
365  9   
366  8   
367  6   
368  4   
369  6   
370  2   
371  9   
372  10  
373  10  
374  9   
375  6   
376  4   
377  10  
378  3   
379  5   
380  3   
381  8   
382  5   
383  7   
384  3   
385  8   
386  10  
387  6   
388  5   
389  10  
390  5   
391  2   
392  4   
393  5   
394  4   
395  3   
396  2   
397  2   
398  8   
399  5   
400  5   
401  6   
402  2   
403  7   
404  10  
405  2   
406  6   
407  2   
408  7   
409  7   
410  5   
411  4   
412  3   
413  7   
414  7   
415  8   
416  8   
417  10  
418  7   
419  1   
420  3   
421  5   
422  8   
423  10  
424  8   
425  10  
426  8   
427  6   
428  1   
429  7   
430  4   
431  6   
432  3   
433  7   
434  5   
435  4   
436  1   
437  8   
438  10  
439  7   
440  5   
441  3   
442  8   
443  3   
444  4   
445  9   
446  8   
447  2   
448  9   
449  5   
450  5   
451  6   
452  9   
453  5   
454  9   
455  1   
456  6   
457  2   
458  4   
459  9   
460  2   
461  8   
462  3   
463  2   
464  4   
465  8   
466  10  
467  1   
468  4   
469  6   
470  10  
471  10  
472  1   
473  6   
474  9   
475  1   
476  5   
477  4   
478  5   
479  4   
480  2   
481  3   
482  8   
483  10  
484  6   
485  7   
486  6   
487  5   
488  10  
489  2   
490  10  
491  4   
492  7   
493  8   
494  7   
495  10  
496  10  
497  2   
498  3   
499  10  
500  7   
501  6   
502  1   
503  5   
504  1   
505  10  
506  4   
507  1   
508  6   
509  9   
510  2   
511  3   
512  3   
513  9   
514  1   
515  1   
516  7   
517  1   
518  6   
519  2   
520  3   
521  2   
522  10  
523  2   
524  2   
525  4   
526  9   
527  1   
528  4   
529  5   
530  8   
531  3   
532  3   
533  10  
534  7   
535  8   
536  1   
537  10  
538  9   
539  2   
540  1   
541  3   
542  2   
543  7   
544  2   
545  1   
546  7   
547  4   
548  2   
549  6   
550  1   
551  10  
552  5   
553  9   
554  8   
555  2   
556  8   
557  7   
558  10  
559  2   
560  9   
561  9   
562  6   
563  10  
564  9   
565  1   
566  2   
567  8   
568  1   
569  10  
570  4   
571  3   
572  2   
573  2   
574  8   
575  7   
576  9   
577  6   
578  7   
579  4   
580  1   
581  1   
582  9   
583  9   
584  4   
585  7   
586  5   
587  7   
588  8   
589  1   
590  5   
591  10  
592  9   
593  9   
594  7   
595  9   
596  2   
597  6   
598  4   
599  8   
600  4   
601  5   
602  10  
603  4   
604  3   
605  9   
606  5   
607  6   
608  2   
609  3   
610  5   
611  4   
612  3   
613  2   
614  7   
615  6   
616  10  
617  8   
618  6   
619  4   
620  6   
621  3   
622  7   
623  4   
624  3   
625  8   
626  10  
627  2   
628  2   
629  5   
630  1   
631  10  
632  5   
633  2   
634  2   
635  1   
636  2   
637  2   
638  5   
639  3   
640  9   
641  6   
642  2   
643  2   
644  8   
645  3   
646  8   
647  4   
648  9   
649  5   
650  7   
651  6   
652  1   
653  10  
654  9   
655  6   
656  9   
657  8   
658  9   
659  6   
660  9   
661  6   
662  5   
663  3   
664  5   
665  8   
666  6   
667  6   
668  6   
669  1   
670  5   
671  8   
672  2   
673  6   
674  10  
675  7   
676  4   
677  10  
678  7   
679  8   
680  9   
681  6   
682  3   
683  1   
684  10  
685  3   
686  10  
687  7   
688  7   
689  7   
690  8   
691  9   
692  8   
693  5   
694  5   
695  2   
696  4   
697  2   
698  7   
699  3   
700  1   
701  3   
702  7   
703  8   
704  4   
705  1   
706  4   
707  10  
708  9   
709  7   
710  9   
711  3   
712  2   
713  3   
714  6   
715  10  
716  5   
717  1   
718  5   
719  8   
720  3   
721  4   
722  1   
723  8   
724  10  
725  6   
726  9   
727  5   
728  3   
729  1   
730  8   
731  6   
732  4   
733  1   
734  3   
735  2   
736  5   
737  3   
738  3   
739  7   
740  6   
741  6   
742  3   
743  1   
744  9   
745  3   
746  8   
747  8   
748  2   
749  7   
750  7   
751  2   
752  7   
753  7   
754  5   
755  5   
756  7   
757  8   
758  8   
759  9   
760  2   
761  2   
762  1   
763  7   
764  10  
765  9   
766  1   
767  2   
768  5   
769  5   
770  6   
771  7   
772  8   
773  4   
774  1   
775  6   
776  1   
777  5   
778  6   
779  3   
780  7   
781  6   
782  2   
783  2   
784  4   
785  3   
786  8   
787  10  
788  9   
789  4   
790  3   
791  9   
792  10  
793  8   
794  9   
795  10  
796  2   
797  5   
798  3   
799  9   
800  1   
801  7   
802  9   
803  8   
804  3   
805  7   
806  8   
807  6   
808  8   
809  2   
810  4   
811  10  
812  3   
813  4   
814  10  
815  4   
816  9   
817  6   
818  9   
819  10  
820  4   
821  1   
822  4   
823  9   
824  2   
825  9   
826  8   
827  1   
828  3   
829  3   
830  2   
831  9   
832  8   
833  2   
834  4   
835  9   
836  6   
837  6   
838  4   
839  6   
840  6   
841  8   
842  3   
843  2   
844  6   
845  2   
846  10  
847  3   
848  1   
849  7   
850  7   
851  2   
852  8   
853  3   
854  1   
855  1   
856  1   
857  2   
858  3   
859  10  
860  6   
861  5   
862  9   
863  8   
864  9   
865  2   
866  1   
867  10  
868  4   
869  2   
870  5   
871  5   
872  1   
873  5   
874  8   
875  8   
876  8   
877  9   
878  3   
879  9   
880  8   
881  1   
882  5   
883  7   
884  3   
885  5   
886  7   
887  6   
888  1   
889  9   
890  2   
891  4   
892  3   
893  9   
894  4   
895  3   
896  8   
897  7   
898  1   
899  3   
900  5   
901  5   
902  5   
903  8   
904  4   
905  10  
906  10  
907  10  
908  3   
909  2   
910  10  
911  10  
912  1   
913  4   
914  9   
915  2   
916  3   
917  8   
918  1   
919  9   
920  1   
921  3   
922  4   
923  7   
924  2   
925  8   
926  4   
927  7   
928  2   
929  3   
930  8   
931  8   
932  10  
933  8   
934  10  
935  8   
936  9   
937  5   
938  9   
939  5   
940  10  
941  5   
942  2   
943  5   
944  3   
945  1   
946  9   
947  5   
948  10  
949  2   
950  3   
951  7   
952  2   
953  2   
954  10  
955  8   
956  1   
957  5   
958  3   
959  8   
960  2   
961  4   
962  3   
963  2   
964  1   
965  5   
966  7   
967  5   
968  8   
969  4   
970  3   
971  1   
972  6   
973  10  
974  4   
975  1   
976  8   
977  3   
978  9   
979  10  
980  1   
981  1   
982  6   
983  6   
984  1   
985  1   
986  9   
987  1   
988  7   
989  5   
990  9   
991  4   
992  7   
993  7   
994  1   
995  7   
996  8   
997  6   
998  1   
999  4   
1000 8   
1001 2   
DEPOT_SECTION
1
-1
EOF
