NAME : XML1000_2153_01
COMMENT : Generated as the XML100 dataset from the CVRPLIB
TYPE : CVRP
DIMENSION : 1001
EDGE_WEIGHT_TYPE : EUC_2D
CAPACITY : 614
NODE_COORD_SECTION
1    5000 5000
2    5099 9456
3    9958 9316
4    631  1822
5    7521 7459
6    9939 1180
7    6660 4649
8    7093 6671
9    9975 6085
10   2178 7486
11   3629 5178
12   6224 8317
13   9924 3053
14   7849 7229
15   4281 1838
16   9468 5696
17   4500 2351
18   5277 1210
19   2803 308 
20   9884 8467
21   622  1003
22   8463 7675
23   4102 4388
24   5573 1855
25   507  5784
26   7455 5235
27   817  9918
28   1443 1737
29   2868 5796
30   6504 5317
31   2057 7737
32   3738 6867
33   9363 2588
34   3125 8565
35   9787 4827
36   2792 1250
37   8445 5889
38   7249 885 
39   1051 4305
40   8301 7689
41   7466 4957
42   4837 4328
43   2562 3674
44   2294 4375
45   453  901 
46   7092 2499
47   3943 7354
48   9723 5358
49   7906 9864
50   2724 8018
51   7516 9308
52   535  2365
53   5979 5043
54   1403 9138
55   3964 2312
56   5440 8876
57   5694 5374
58   6556 512 
59   8190 1028
60   8808 8187
61   6608 376 
62   2899 9387
63   5606 6514
64   5609 6753
65   9101 3416
66   6496 9999
67   6719 210 
68   3244 4411
69   5998 2631
70   4472 7619
71   5319 8223
72   59   7275
73   2437 2171
74   2877 9965
75   9595 7039
76   7376 1939
77   4667 1855
78   4604 6171
79   3154 3956
80   1518 4040
81   6002 9377
82   6151 6548
83   2452 6298
84   3204 9642
85   1486 6557
86   4785 9702
87   9454 5907
88   8409 5459
89   6795 5308
90   9991 7399
91   7514 1385
92   4750 8742
93   2819 9793
94   9554 592 
95   9669 1722
96   165  3040
97   3030 3942
98   8775 299 
99   8549 7785
100  9833 9869
101  5076 4204
102  5094 3658
103  3602 9339
104  1977 7571
105  8316 4380
106  9111 873 
107  7163 7716
108  8198 4653
109  7300 4021
110  956  2694
111  7138 3280
112  9064 4707
113  7874 816 
114  9742 7312
115  4714 5482
116  9798 380 
117  5273 7192
118  3625 8821
119  5820 4393
120  6147 5630
121  2584 9517
122  1228 5342
123  2517 3888
124  8929 2282
125  7097 1923
126  5917 730 
127  7339 5203
128  5545 2919
129  7066 1266
130  8488 9153
131  6430 3298
132  3637 1826
133  995  9364
134  7611 9561
135  3961 7015
136  1273 5658
137  2777 864 
138  5480 8648
139  8952 4909
140  4539 7906
141  776  5872
142  4555 1287
143  6379 2727
144  8841 7040
145  2538 9931
146  8114 5453
147  4523 7682
148  2365 8481
149  6123 9882
150  127  2102
151  8028 7234
152  3843 2909
153  691  2807
154  6860 5271
155  897  7809
156  2535 706 
157  7203 5858
158  5088 5274
159  821  598 
160  1848 1082
161  6511 7196
162  5839 4907
163  7824 9275
164  3348 8060
165  7560 1085
166  7578 8049
167  1765 7415
168  2697 3206
169  8517 5790
170  5850 1144
171  7821 6145
172  4738 3302
173  2619 6446
174  6766 979 
175  6789 1574
176  6011 2226
177  6667 7811
178  9829 915 
179  1375 8844
180  5745 4984
181  1246 4095
182  5501 3043
183  2241 7434
184  5066 2688
185  6022 7601
186  6935 5380
187  9379 7663
188  9418 4837
189  677  3071
190  3922 7203
191  3344 5707
192  1972 7609
193  9958 4006
194  5547 8062
195  813  1382
196  779  5850
197  5750 1352
198  7151 8210
199  8370 9801
200  4335 5479
201  49   9901
202  2074 6548
203  281  8703
204  4141 6170
205  6421 1544
206  5893 7961
207  9640 787 
208  7325 5623
209  2990 1306
210  700  6484
211  166  1270
212  6127 4625
213  6227 9992
214  3003 8122
215  3983 1558
216  4782 5300
217  9961 4897
218  4782 3717
219  8776 9014
220  7231 1616
221  4060 4547
222  1064 9577
223  802  3638
224  5767 362 
225  3692 6269
226  4854 7132
227  5016 267 
228  7988 18  
229  7625 1177
230  7993 5354
231  1522 8355
232  8967 1359
233  4172 5901
234  3286 1819
235  9992 6678
236  2535 8493
237  56   3493
238  7887 7423
239  3260 2826
240  4451 8521
241  3040 4958
242  8512 6824
243  5546 7657
244  9441 6111
245  563  8530
246  1332 588 
247  1766 3058
248  4855 2501
249  1446 5959
250  7760 8639
251  6901 9686
252  1962 3344
253  3444 2593
254  8576 9797
255  6013 6639
256  2278 4346
257  7650 5147
258  9174 3125
259  9969 4452
260  9596 9049
261  3967 7792
262  5973 2307
263  5748 8928
264  1859 572 
265  3181 8573
266  2305 455 
267  7112 8134
268  9616 7160
269  4363 9964
270  8599 5054
271  5420 4526
272  4796 5707
273  7524 2792
274  1453 3428
275  2702 2855
276  5940 871 
277  192  7440
278  7646 4816
279  1957 4374
280  5488 1241
281  1458 757 
282  3853 6889
283  6488 7466
284  454  3719
285  811  9502
286  2508 8410
287  4873 2645
288  6721 7387
289  7939 6827
290  7714 1519
291  8315 4319
292  5041 1563
293  9693 794 
294  6322 3124
295  8740 7307
296  9481 12  
297  7691 7302
298  6271 7392
299  8724 4761
300  5595 5717
301  8523 9023
302  4546 2625
303  5293 539 
304  6917 5139
305  6944 9990
306  586  9240
307  8687 1500
308  3184 1589
309  2863 3111
310  6628 7235
311  2155 9719
312  5290 5050
313  5193 8805
314  9781 5708
315  82   8926
316  4515 5917
317  1519 2490
318  6502 2021
319  7550 8908
320  4896 751 
321  1564 8829
322  2837 3969
323  6236 1097
324  5721 8825
325  5973 1155
326  283  2320
327  4707 5823
328  7742 2987
329  8404 3100
330  6998 392 
331  6291 1462
332  565  6534
333  2649 2472
334  6205 1146
335  7379 7403
336  9030 7342
337  2647 1203
338  1850 1582
339  251  3105
340  7510 6360
341  6129 8457
342  6889 5839
343  807  5362
344  6147 725 
345  6114 7777
346  6938 7333
347  9548 3569
348  7700 1833
349  4078 149 
350  8051 877 
351  4214 7147
352  2787 2589
353  2175 1271
354  2528 936 
355  2914 2042
356  3227 8320
357  9620 7862
358  7098 6784
359  8868 9583
360  7360 6631
361  6304 7495
362  3369 4874
363  71   8229
364  200  2589
365  4969 3966
366  2645 7915
367  9722 262 
368  5825 5598
369  820  1252
370  6219 2445
371  4192 1180
372  9785 9021
373  292  3370
374  9007 4205
375  4739 5007
376  4025 6289
377  5246 9045
378  545  8570
379  160  5998
380  9351 859 
381  4622 8792
382  7010 6634
383  7313 6659
384  9525 6891
385  6158 4398
386  1712 7129
387  6730 4931
388  1781 9965
389  6991 4826
390  1750 6910
391  46   7185
392  1208 5053
393  283  7054
394  2730 4497
395  2760 9878
396  2128 904 
397  4039 4740
398  3033 6413
399  2105 7904
400  3144 9693
401  3145 5732
402  988  3456
403  3894 9404
404  3008 9441
405  992  950 
406  679  878 
407  250  9300
408  546  6537
409  5197 7929
410  1147 1164
411  465  2753
412  3393 1167
413  7913 1392
414  5222 7223
415  6423 4865
416  8925 6404
417  4900 3828
418  8786 2846
419  9328 8364
420  4449 8162
421  5896 1102
422  74   6699
423  2137 3250
424  9007 7456
425  2691 510 
426  9204 4587
427  9293 2150
428  217  2516
429  4857 5743
430  5252 4099
431  7548 7072
432  5490 3499
433  3334 8293
434  4245 7507
435  1587 8360
436  7738 8184
437  2171 9402
438  3773 731 
439  8921 6213
440  4424 907 
441  3580 6236
442  8799 1107
443  1033 3976
444  8230 9845
445  9445 3406
446  6125 5480
447  1078 1500
448  8774 239 
449  5546 8995
450  2667 2758
451  118  8436
452  9690 3189
453  2159 3350
454  6764 3905
455  9849 2808
456  3997 671 
457  9112 1146
458  4248 815 
459  9919 8717
460  9541 2874
461  9452 6539
462  8136 4934
463  9357 6453
464  7340 6632
465  6012 6296
466  9099 2768
467  4160 2331
468  7694 4490
469  2340 6153
470  9259 5995
471  7075 6988
472  4161 6359
473  9446 3347
474  1764 8079
475  6015 4940
476  6924 5092
477  3272 1149
478  8269 8039
479  1106 9151
480  8793 8374
481  7024 5901
482  3946 2761
483  7498 873 
484  4646 4297
485  9286 2098
486  2995 6909
487  7253 3848
488  496  4470
489  6464 4107
490  7405 5031
491  4907 7604
492  5401 4411
493  9651 4244
494  9905 8015
495  9406 1030
496  8003 1359
497  427  1226
498  6905 1899
499  2720 5152
500  6802 578 
501  2542 7385
502  1142 3088
503  6354 8026
504  4740 813 
505  9263 4683
506  8003 562 
507  8753 2787
508  6660 9783
509  8775 5407
510  1713 9432
511  2391 972 
512  2133 1170
513  961  8885
514  7025 7880
515  8492 1248
516  9007 8771
517  7471 7008
518  9249 5905
519  6973 6347
520  6213 1678
521  9803 1812
522  1541 1205
523  5892 9411
524  2282 7514
525  4813 3123
526  7503 7461
527  1572 5054
528  5947 6102
529  3955 8607
530  9220 9116
531  3774 6223
532  7036 924 
533  1280 5778
534  2813 1281
535  927  9974
536  4503 5187
537  8849 3673
538  5581 4691
539  5136 3091
540  1892 6849
541  1759 7900
542  349  1063
543  1312 115 
544  2729 3715
545  4807 8216
546  9671 5479
547  2716 9154
548  4285 8620
549  828  5728
550  2651 226 
551  3262 82  
552  267  499 
553  6719 6955
554  8550 2923
555  5969 1899
556  3227 1516
557  7240 9898
558  3504 2402
559  8010 3864
560  3790 5985
561  3296 7088
562  3375 9704
563  162  5273
564  2280 4860
565  6312 1104
566  3368 2085
567  1112 8768
568  6401 289 
569  2306 1712
570  8946 576 
571  2917 8543
572  6887 2272
573  665  9917
574  7217 2378
575  6584 1297
576  2930 2798
577  9400 666 
578  4894 9206
579  1200 7158
580  6475 219 
581  6535 6026
582  5874 7615
583  3999 8117
584  5460 8433
585  7485 6949
586  4356 9789
587  9350 132 
588  6165 9472
589  1111 6001
590  2678 9773
591  6645 7671
592  5764 5681
593  9988 3249
594  8902 8853
595  723  5614
596  1893 7828
597  6599 9982
598  3668 4487
599  1414 4013
600  5723 1445
601  5451 5845
602  1490 1749
603  885  7116
604  3919 1873
605  7691 3975
606  9814 9561
607  9086 2497
608  8806 3496
609  6192 4351
610  5233 3975
611  1235 8016
612  3442 1752
613  126  3433
614  2224 6888
615  3559 2662
616  3851 1750
617  3141 9331
618  5646 813 
619  8293 600 
620  3115 9339
621  849  2711
622  7143 7700
623  878  9578
624  9851 2452
625  5841 1833
626  2403 214 
627  643  4045
628  5087 9860
629  1423 404 
630  5456 40  
631  2895 1632
632  2946 2772
633  9821 960 
634  280  9134
635  6329 8929
636  9801 8018
637  971  2648
638  1028 6815
639  4148 2884
640  9554 2698
641  6783 6045
642  8875 9412
643  1269 4949
644  6934 3757
645  9972 9985
646  6526 8503
647  1268 7595
648  5613 4411
649  9824 8519
650  3840 3654
651  7590 8322
652  2523 7396
653  7234 2725
654  8298 8182
655  7286 7713
656  2467 8154
657  324  9963
658  8195 5828
659  6252 6901
660  7148 5263
661  3071 8550
662  6610 7077
663  3128 5712
664  9253 530 
665  1374 1634
666  1309 4288
667  604  520 
668  1267 376 
669  156  5594
670  2699 8687
671  6882 5038
672  1901 2463
673  9798 7024
674  2108 819 
675  8017 7439
676  5048 8030
677  9903 6235
678  474  4846
679  9196 3713
680  3263 5810
681  5471 4900
682  7928 3323
683  5624 5839
684  9750 6564
685  9577 9757
686  9121 2792
687  5378 611 
688  2565 6105
689  4488 7517
690  5096 5362
691  5186 5199
692  9640 529 
693  2219 7609
694  8765 6032
695  9334 1278
696  9281 2200
697  7177 3585
698  7906 9471
699  547  7169
700  8740 1326
701  5776 7554
702  7279 2282
703  8994 7383
704  6875 6532
705  5100 2910
706  4378 2609
707  5021 9336
708  783  9038
709  6493 399 
710  3574 8447
711  4064 3319
712  6447 8859
713  686  2308
714  4295 4347
715  2074 7126
716  2538 975 
717  4456 3998
718  6497 1939
719  1629 2146
720  9886 7167
721  7533 8008
722  7314 9   
723  4314 1873
724  560  7289
725  6811 9244
726  7612 2776
727  6763 3847
728  2200 3859
729  5756 2751
730  654  1919
731  408  1906
732  7125 6779
733  6939 5625
734  3194 4962
735  5646 8108
736  7655 9546
737  3404 4061
738  5309 4814
739  4519 6646
740  6330 3750
741  7931 6236
742  509  2053
743  8079 6874
744  9154 8401
745  2933 5549
746  4487 1730
747  140  1980
748  1075 3570
749  1790 5229
750  2478 990 
751  200  8171
752  6986 5388
753  8195 520 
754  7259 1808
755  8690 6726
756  1074 3155
757  8567 3053
758  8477 7279
759  9540 9533
760  7038 1518
761  944  2596
762  6166 8858
763  4049 4459
764  2925 4880
765  7420 6056
766  9426 7847
767  331  6272
768  239  7110
769  5622 2002
770  431  9116
771  7253 8869
772  1645 947 
773  4241 282 
774  8844 3421
775  2567 8918
776  4384 6793
777  5904 6450
778  9144 8703
779  6553 6492
780  7335 899 
781  8772 1063
782  7771 1633
783  4921 4061
784  5801 6651
785  2632 790 
786  1493 7548
787  994  1653
788  6614 1583
789  6604 5305
790  6205 8704
791  7122 3664
792  7439 7947
793  5164 8036
794  2885 7866
795  9695 5368
796  2836 2886
797  370  7942
798  966  1786
799  5278 9330
800  6938 1458
801  2472 441 
802  8426 5887
803  8228 7049
804  2664 7820
805  3129 8997
806  9744 7848
807  8385 814 
808  5271 4727
809  7548 6902
810  6692 6256
811  7597 2876
812  6438 674 
813  9412 1269
814  3935 5150
815  4021 583 
816  609  7350
817  7963 6939
818  2792 2583
819  6544 8892
820  9397 6623
821  3937 9929
822  4789 3813
823  6339 1255
824  4135 2536
825  5049 9687
826  5189 9348
827  4851 6332
828  6784 1812
829  1210 6908
830  9293 6130
831  977  2384
832  2559 6261
833  8024 9673
834  780  9474
835  152  7859
836  8834 1628
837  9698 2002
838  7911 411 
839  9061 6631
840  5636 2308
841  1960 8191
842  5642 47  
843  1697 6501
844  8958 6891
845  7705 2990
846  255  9112
847  2832 2805
848  379  7272
849  2090 544 
850  3943 1724
851  9875 1857
852  9369 7197
853  7095 9683
854  5010 6863
855  662  3674
856  8542 1439
857  6948 5016
858  9550 66  
859  8232 3727
860  7781 3081
861  5906 7884
862  2164 1205
863  4387 6836
864  4923 781 
865  1097 9194
866  2584 1923
867  2769 9270
868  9749 6282
869  4254 8478
870  5133 7603
871  7786 4790
872  5315 7800
873  8936 2873
874  4819 767 
875  9349 8485
876  7836 8043
877  7560 6572
878  4828 8336
879  2103 721 
880  4045 4036
881  5061 1831
882  9310 5367
883  3943 5656
884  7731 2331
885  9877 9829
886  7613 8429
887  2314 5914
888  2631 8700
889  8799 1972
890  1730 4677
891  1518 9442
892  8029 5370
893  7319 7815
894  2300 2182
895  3468 8104
896  9981 8389
897  6611 4946
898  9929 5659
899  4971 3010
900  1934 9362
901  859  5004
902  4372 9088
903  3118 2630
904  6991 3403
905  9160 6162
906  7237 8512
907  7631 3721
908  9241 5352
909  3172 4628
910  2532 4191
911  2858 2780
912  9693 8816
913  5917 7047
914  2229 6683
915  1171 229 
916  5559 9408
917  6398 2736
918  8635 7006
919  1671 3222
920  715  5433
921  4617 7174
922  903  6749
923  9549 2592
924  1268 9744
925  752  6956
926  6934 2004
927  4258 9350
928  8441 7755
929  9154 1683
930  7869 4274
931  216  2492
932  444  8873
933  4768 2066
934  9245 4035
935  8933 2747
936  3705 6280
937  9882 5817
938  1714 8513
939  1306 5845
940  4776 6232
941  1143 4266
942  1068 4429
943  9227 4264
944  7131 3628
945  7683 5387
946  6399 8122
947  6860 9029
948  4165 7086
949  8550 793 
950  7561 4560
951  7023 7143
952  5502 2340
953  1484 1686
954  6400 738 
955  243  3376
956  8514 8575
957  3725 5796
958  57   9433
959  80   5334
960  3889 5590
961  7150 4270
962  905  5701
963  703  8259
964  7791 9230
965  8876 9   
966  3100 1286
967  9401 3164
968  3113 3789
969  9909 8724
970  3961 555 
971  2371 9068
972  3616 6452
973  7792 9705
974  1967 6371
975  1072 9757
976  8420 2734
977  8787 5998
978  279  8885
979  7598 8559
980  7006 8351
981  3860 2195
982  6115 4125
983  89   2018
984  1538 5912
985  8766 9328
986  3193 8055
987  7383 2340
988  9970 6391
989  1623 5662
990  3097 8209
991  4181 1717
992  8204 8920
993  4966 5940
994  1548 946 
995  3748 6348
996  9556 7644
997  2217 5745
998  1594 817 
999  7484 2861
1000 8881 2606
1001 2654 5613
DEMAND_SECTION
1    0   
2    59  
3    87  
4    61  
5    68  
6    72  
7    51  
8    64  
9    84  
10   95  
11   62  
12   60  
13   93  
14   86  
15   55  
16   76  
17   84  
18   85  
19   93  
20   92  
21   60  
22   90  
23   88  
24   56  
25   61  
26   81  
27   74  
28   78  
29   94  
30   56  
31   78  
32   98  
33   76  
34   59  
35   64  
36   50  
37   80  
38   74  
39   50  
40   71  
41   96  
42   94  
43   92  
44   90  
45   94  
46   92  
47   54  
48   89  
49   96  
50   77  
51   84  
52   69  
53   98  
54   68  
55   98  
56   77  
57   85  
58   100 
59   73  
60   84  
61   67  
62   79  
63   89  
64   95  
65   55  
66   88  
67   74  
68   70  
69   77  
70   82  
71   95  
72   83  
73   90  
74   86  
75   55  
76   84  
77   93  
78   53  
79   97  
80   64  
81   78  
82   92  
83   100 
84   93  
85   90  
86   81  
87   76  
88   84  
89   93  
90   55  
91   98  
92   90  
93   98  
94   52  
95   83  
96   58  
97   80  
98   99  
99   54  
100  91  
101  51  
102  92  
103  52  
104  87  
105  61  
106  79  
107  50  
108  95  
109  99  
110  54  
111  83  
112  94  
113  93  
114  77  
115  86  
116  94  
117  74  
118  78  
119  77  
120  75  
121  76  
122  66  
123  62  
124  57  
125  77  
126  88  
127  52  
128  76  
129  73  
130  92  
131  65  
132  74  
133  55  
134  75  
135  65  
136  88  
137  91  
138  77  
139  88  
140  58  
141  71  
142  85  
143  61  
144  87  
145  99  
146  89  
147  68  
148  84  
149  78  
150  55  
151  61  
152  70  
153  89  
154  92  
155  65  
156  97  
157  97  
158  69  
159  53  
160  68  
161  99  
162  87  
163  87  
164  99  
165  69  
166  89  
167  86  
168  60  
169  77  
170  98  
171  55  
172  94  
173  87  
174  57  
175  74  
176  62  
177  90  
178  68  
179  80  
180  86  
181  66  
182  82  
183  63  
184  80  
185  56  
186  88  
187  72  
188  85  
189  56  
190  50  
191  79  
192  84  
193  78  
194  72  
195  50  
196  51  
197  52  
198  92  
199  59  
200  54  
201  87  
202  76  
203  77  
204  62  
205  96  
206  70  
207  94  
208  89  
209  86  
210  82  
211  95  
212  66  
213  70  
214  80  
215  65  
216  83  
217  65  
218  84  
219  81  
220  81  
221  65  
222  82  
223  68  
224  53  
225  95  
226  81  
227  72  
228  100 
229  77  
230  64  
231  65  
232  82  
233  75  
234  85  
235  81  
236  70  
237  79  
238  91  
239  80  
240  99  
241  61  
242  68  
243  92  
244  55  
245  100 
246  64  
247  74  
248  69  
249  62  
250  86  
251  94  
252  88  
253  86  
254  51  
255  62  
256  81  
257  87  
258  51  
259  72  
260  59  
261  51  
262  74  
263  81  
264  87  
265  98  
266  92  
267  95  
268  99  
269  70  
270  99  
271  70  
272  87  
273  81  
274  78  
275  70  
276  80  
277  61  
278  99  
279  73  
280  66  
281  85  
282  55  
283  51  
284  88  
285  64  
286  78  
287  78  
288  93  
289  85  
290  70  
291  55  
292  52  
293  68  
294  55  
295  85  
296  50  
297  91  
298  82  
299  100 
300  63  
301  83  
302  97  
303  70  
304  71  
305  92  
306  82  
307  86  
308  76  
309  54  
310  91  
311  66  
312  71  
313  54  
314  57  
315  95  
316  51  
317  85  
318  82  
319  98  
320  62  
321  73  
322  52  
323  53  
324  51  
325  73  
326  83  
327  88  
328  92  
329  62  
330  51  
331  96  
332  80  
333  91  
334  56  
335  75  
336  91  
337  60  
338  97  
339  97  
340  83  
341  80  
342  51  
343  57  
344  95  
345  77  
346  67  
347  95  
348  57  
349  56  
350  73  
351  57  
352  77  
353  86  
354  66  
355  55  
356  80  
357  96  
358  80  
359  96  
360  50  
361  55  
362  68  
363  95  
364  96  
365  89  
366  70  
367  66  
368  55  
369  90  
370  71  
371  94  
372  90  
373  89  
374  56  
375  88  
376  85  
377  75  
378  72  
379  77  
380  89  
381  60  
382  62  
383  56  
384  83  
385  54  
386  72  
387  91  
388  90  
389  66  
390  69  
391  89  
392  79  
393  60  
394  85  
395  82  
396  92  
397  54  
398  58  
399  98  
400  61  
401  71  
402  63  
403  77  
404  97  
405  55  
406  81  
407  99  
408  54  
409  94  
410  67  
411  70  
412  67  
413  53  
414  96  
415  86  
416  95  
417  62  
418  88  
419  96  
420  67  
421  100 
422  84  
423  56  
424  51  
425  75  
426  63  
427  62  
428  73  
429  70  
430  76  
431  91  
432  58  
433  93  
434  50  
435  69  
436  75  
437  72  
438  56  
439  62  
440  97  
441  85  
442  94  
443  91  
444  69  
445  90  
446  71  
447  88  
448  84  
449  70  
450  55  
451  67  
452  64  
453  54  
454  77  
455  54  
456  74  
457  54  
458  70  
459  55  
460  80  
461  74  
462  88  
463  59  
464  57  
465  88  
466  85  
467  63  
468  96  
469  70  
470  59  
471  83  
472  52  
473  52  
474  95  
475  76  
476  65  
477  57  
478  63  
479  91  
480  94  
481  71  
482  54  
483  56  
484  94  
485  61  
486  65  
487  93  
488  59  
489  95  
490  66  
491  72  
492  96  
493  68  
494  61  
495  80  
496  92  
497  67  
498  73  
499  82  
500  67  
501  91  
502  90  
503  50  
504  80  
505  60  
506  88  
507  96  
508  60  
509  52  
510  99  
511  89  
512  99  
513  88  
514  71  
515  98  
516  95  
517  78  
518  95  
519  82  
520  58  
521  89  
522  60  
523  85  
524  52  
525  58  
526  68  
527  97  
528  65  
529  80  
530  50  
531  58  
532  98  
533  79  
534  58  
535  51  
536  80  
537  76  
538  71  
539  64  
540  92  
541  84  
542  59  
543  59  
544  84  
545  67  
546  100 
547  100 
548  84  
549  80  
550  96  
551  78  
552  75  
553  77  
554  58  
555  55  
556  73  
557  77  
558  72  
559  91  
560  81  
561  94  
562  100 
563  66  
564  81  
565  52  
566  54  
567  58  
568  96  
569  95  
570  64  
571  53  
572  63  
573  73  
574  80  
575  73  
576  52  
577  63  
578  54  
579  63  
580  62  
581  92  
582  71  
583  59  
584  70  
585  53  
586  74  
587  87  
588  80  
589  68  
590  80  
591  64  
592  51  
593  82  
594  75  
595  58  
596  84  
597  85  
598  93  
599  66  
600  94  
601  77  
602  75  
603  75  
604  85  
605  58  
606  75  
607  96  
608  65  
609  90  
610  81  
611  94  
612  68  
613  72  
614  71  
615  58  
616  68  
617  95  
618  93  
619  95  
620  53  
621  66  
622  51  
623  74  
624  85  
625  78  
626  100 
627  90  
628  82  
629  72  
630  63  
631  89  
632  63  
633  57  
634  70  
635  79  
636  76  
637  71  
638  96  
639  50  
640  89  
641  85  
642  54  
643  92  
644  78  
645  74  
646  71  
647  83  
648  77  
649  98  
650  61  
651  50  
652  89  
653  79  
654  77  
655  72  
656  50  
657  62  
658  54  
659  80  
660  84  
661  75  
662  56  
663  89  
664  59  
665  57  
666  99  
667  61  
668  58  
669  53  
670  68  
671  68  
672  61  
673  52  
674  71  
675  75  
676  61  
677  55  
678  70  
679  74  
680  87  
681  71  
682  52  
683  85  
684  97  
685  52  
686  93  
687  86  
688  71  
689  86  
690  94  
691  97  
692  96  
693  75  
694  83  
695  82  
696  52  
697  68  
698  94  
699  79  
700  95  
701  63  
702  66  
703  85  
704  53  
705  51  
706  85  
707  70  
708  99  
709  72  
710  81  
711  83  
712  79  
713  58  
714  66  
715  74  
716  52  
717  51  
718  79  
719  89  
720  60  
721  86  
722  75  
723  55  
724  97  
725  75  
726  82  
727  89  
728  69  
729  62  
730  85  
731  58  
732  80  
733  96  
734  54  
735  92  
736  73  
737  85  
738  78  
739  58  
740  67  
741  89  
742  67  
743  83  
744  95  
745  71  
746  87  
747  88  
748  74  
749  58  
750  74  
751  71  
752  68  
753  93  
754  66  
755  79  
756  71  
757  71  
758  56  
759  71  
760  97  
761  95  
762  62  
763  98  
764  99  
765  99  
766  58  
767  71  
768  98  
769  72  
770  86  
771  62  
772  98  
773  78  
774  55  
775  55  
776  57  
777  64  
778  99  
779  77  
780  77  
781  67  
782  70  
783  57  
784  91  
785  79  
786  88  
787  94  
788  71  
789  76  
790  68  
791  69  
792  53  
793  87  
794  50  
795  99  
796  71  
797  50  
798  81  
799  54  
800  50  
801  76  
802  59  
803  97  
804  75  
805  60  
806  72  
807  77  
808  66  
809  67  
810  66  
811  77  
812  85  
813  98  
814  62  
815  78  
816  67  
817  67  
818  53  
819  53  
820  82  
821  67  
822  75  
823  58  
824  55  
825  78  
826  68  
827  97  
828  89  
829  96  
830  94  
831  88  
832  59  
833  62  
834  94  
835  88  
836  77  
837  87  
838  52  
839  77  
840  61  
841  88  
842  81  
843  79  
844  57  
845  53  
846  77  
847  60  
848  76  
849  64  
850  95  
851  83  
852  57  
853  70  
854  99  
855  70  
856  64  
857  54  
858  62  
859  80  
860  97  
861  59  
862  66  
863  83  
864  99  
865  77  
866  55  
867  53  
868  60  
869  54  
870  93  
871  68  
872  60  
873  78  
874  70  
875  84  
876  58  
877  71  
878  75  
879  98  
880  89  
881  60  
882  67  
883  73  
884  94  
885  75  
886  97  
887  97  
888  63  
889  73  
890  52  
891  85  
892  98  
893  79  
894  68  
895  97  
896  53  
897  56  
898  50  
899  99  
900  63  
901  66  
902  79  
903  65  
904  54  
905  54  
906  82  
907  64  
908  66  
909  97  
910  65  
911  54  
912  69  
913  82  
914  100 
915  93  
916  76  
917  84  
918  90  
919  90  
920  99  
921  92  
922  70  
923  52  
924  71  
925  90  
926  62  
927  62  
928  68  
929  66  
930  85  
931  70  
932  76  
933  77  
934  85  
935  65  
936  98  
937  52  
938  83  
939  89  
940  96  
941  79  
942  85  
943  58  
944  96  
945  85  
946  56  
947  72  
948  87  
949  64  
950  80  
951  76  
952  98  
953  51  
954  63  
955  100 
956  98  
957  93  
958  76  
959  67  
960  98  
961  91  
962  82  
963  65  
964  80  
965  93  
966  83  
967  55  
968  74  
969  75  
970  82  
971  77  
972  99  
973  54  
974  73  
975  93  
976  88  
977  85  
978  63  
979  82  
980  83  
981  73  
982  88  
983  63  
984  58  
985  80  
986  58  
987  91  
988  97  
989  58  
990  84  
991  59  
992  61  
993  97  
994  59  
995  94  
996  86  
997  77  
998  100 
999  57  
1000 77  
1001 88  
DEPOT_SECTION
1
-1
EOF
