NAME : XML500_1173_01
COMMENT : Generated as the XML100 dataset from the CVRPLIB
TYPE : CVRP
DIMENSION : 501
EDGE_WEIGHT_TYPE : EUC_2D
CAPACITY : 146
NODE_COORD_SECTION
1    494  591 
2    618  179 
3    723  430 
4    190  246 
5    546  665 
6    619  53  
7    374  445 
8    767  289 
9    278  532 
10   856  190 
11   294  722 
12   82   153 
13   251  697 
14   133  56  
15   13   157 
16   549  374 
17   240  109 
18   5    126 
19   133  73  
20   445  871 
21   71   992 
22   927  457 
23   60   649 
24   763  369 
25   518  685 
26   457  351 
27   489  306 
28   28   858 
29   577  782 
30   791  161 
31   632  534 
32   446  793 
33   401  206 
34   997  425 
35   150  313 
36   149  730 
37   740  296 
38   122  273 
39   598  609 
40   677  444 
41   934  615 
42   496  426 
43   406  982 
44   576  787 
45   879  252 
46   69   14  
47   405  612 
48   139  430 
49   342  829 
50   513  160 
51   494  616 
52   481  66  
53   849  837 
54   490  25  
55   840  178 
56   98   700 
57   45   430 
58   27   383 
59   168  676 
60   968  383 
61   470  174 
62   919  410 
63   234  99  
64   657  911 
65   101  991 
66   982  375 
67   433  842 
68   489  854 
69   739  414 
70   682  562 
71   329  75  
72   428  894 
73   769  711 
74   679  395 
75   578  369 
76   677  740 
77   196  358 
78   579  938 
79   957  406 
80   475  871 
81   669  983 
82   38   177 
83   605  551 
84   172  987 
85   5    557 
86   935  563 
87   723  482 
88   686  488 
89   210  130 
90   327  248 
91   259  180 
92   416  871 
93   844  351 
94   532  361 
95   225  583 
96   874  971 
97   690  472 
98   49   416 
99   450  628 
100  617  425 
101  494  920 
102  175  19  
103  290  846 
104  975  975 
105  743  265 
106  569  388 
107  190  35  
108  672  920 
109  794  715 
110  657  975 
111  266  584 
112  16   605 
113  181  767 
114  438  318 
115  992  96  
116  958  92  
117  42   954 
118  955  771 
119  532  846 
120  621  673 
121  362  843 
122  97   569 
123  709  394 
124  832  121 
125  729  44  
126  593  180 
127  216  548 
128  762  75  
129  48   367 
130  57   623 
131  324  756 
132  853  818 
133  56   702 
134  241  137 
135  611  373 
136  719  385 
137  828  770 
138  309  970 
139  927  408 
140  393  580 
141  187  639 
142  214  960 
143  637  882 
144  690  300 
145  848  36  
146  654  318 
147  790  433 
148  941  805 
149  449  548 
150  79   353 
151  491  791 
152  665  532 
153  496  142 
154  397  501 
155  182  885 
156  963  795 
157  467  178 
158  409  830 
159  808  885 
160  118  912 
161  412  623 
162  108  836 
163  691  268 
164  93   471 
165  603  265 
166  474  179 
167  32   508 
168  118  771 
169  432  739 
170  891  48  
171  434  624 
172  592  470 
173  617  363 
174  308  837 
175  718  169 
176  794  941 
177  31   128 
178  102  590 
179  983  51  
180  977  7   
181  785  107 
182  384  45  
183  702  310 
184  855  334 
185  408  642 
186  434  777 
187  553  197 
188  943  549 
189  909  588 
190  250  545 
191  332  615 
192  436  212 
193  440  346 
194  910  91  
195  979  972 
196  809  836 
197  466  309 
198  992  540 
199  3    589 
200  826  119 
201  925  640 
202  656  156 
203  993  422 
204  862  229 
205  165  898 
206  292  166 
207  931  310 
208  853  928 
209  544  82  
210  591  902 
211  347  868 
212  182  744 
213  157  462 
214  624  462 
215  668  857 
216  99   443 
217  395  710 
218  477  711 
219  511  519 
220  418  895 
221  503  843 
222  153  115 
223  529  437 
224  785  985 
225  182  127 
226  525  469 
227  195  69  
228  811  75  
229  31   740 
230  364  349 
231  170  480 
232  368  467 
233  689  914 
234  781  439 
235  389  624 
236  604  398 
237  756  677 
238  554  598 
239  297  12  
240  730  373 
241  607  16  
242  874  620 
243  985  474 
244  180  595 
245  48   564 
246  174  375 
247  393  647 
248  66   51  
249  672  405 
250  596  223 
251  827  466 
252  123  473 
253  170  501 
254  602  589 
255  511  64  
256  37   578 
257  955  829 
258  194  583 
259  452  170 
260  931  535 
261  761  568 
262  896  521 
263  946  875 
264  173  54  
265  458  680 
266  622  464 
267  681  161 
268  903  193 
269  284  80  
270  195  535 
271  873  488 
272  228  50  
273  466  90  
274  741  563 
275  739  452 
276  601  491 
277  633  826 
278  172  415 
279  572  385 
280  81   268 
281  523  824 
282  406  449 
283  443  993 
284  245  992 
285  758  406 
286  869  912 
287  315  144 
288  786  880 
289  849  643 
290  243  330 
291  858  428 
292  880  191 
293  609  410 
294  805  83  
295  397  199 
296  12   465 
297  469  882 
298  44   501 
299  847  534 
300  118  642 
301  196  583 
302  439  94  
303  172  315 
304  332  864 
305  501  702 
306  654  349 
307  212  253 
308  645  409 
309  883  761 
310  357  90  
311  431  967 
312  922  368 
313  629  558 
314  839  387 
315  281  146 
316  294  363 
317  932  812 
318  830  164 
319  486  622 
320  289  620 
321  357  551 
322  198  643 
323  713  401 
324  183  346 
325  592  51  
326  149  946 
327  199  963 
328  85   706 
329  718  280 
330  10   953 
331  714  469 
332  853  900 
333  556  714 
334  658  926 
335  431  923 
336  931  537 
337  973  431 
338  919  807 
339  470  500 
340  735  296 
341  32   17  
342  736  159 
343  391  892 
344  837  791 
345  528  685 
346  356  61  
347  986  693 
348  552  737 
349  152  912 
350  503  166 
351  763  247 
352  856  313 
353  892  2   
354  186  81  
355  853  940 
356  77   255 
357  390  431 
358  355  335 
359  840  206 
360  468  54  
361  102  651 
362  357  743 
363  129  782 
364  374  880 
365  689  342 
366  480  158 
367  807  982 
368  204  71  
369  961  324 
370  339  918 
371  101  353 
372  157  757 
373  358  94  
374  549  123 
375  461  446 
376  571  543 
377  880  142 
378  738  36  
379  970  357 
380  501  335 
381  790  919 
382  717  845 
383  244  37  
384  105  69  
385  7    214 
386  466  343 
387  332  640 
388  572  451 
389  35   533 
390  673  708 
391  341  306 
392  801  642 
393  975  726 
394  283  494 
395  252  395 
396  897  602 
397  296  982 
398  265  650 
399  816  91  
400  226  675 
401  213  272 
402  985  303 
403  737  577 
404  488  834 
405  929  269 
406  223  883 
407  885  87  
408  986  479 
409  780  485 
410  169  318 
411  978  572 
412  843  56  
413  858  391 
414  767  158 
415  596  4   
416  777  199 
417  703  200 
418  284  669 
419  624  382 
420  826  195 
421  183  680 
422  831  667 
423  935  714 
424  130  34  
425  931  812 
426  487  806 
427  727  118 
428  156  525 
429  867  751 
430  548  746 
431  73   546 
432  47   611 
433  870  43  
434  958  54  
435  886  455 
436  142  271 
437  823  890 
438  15   211 
439  336  899 
440  653  175 
441  534  634 
442  681  72  
443  216  506 
444  534  49  
445  301  518 
446  936  998 
447  789  785 
448  585  449 
449  537  932 
450  986  794 
451  356  260 
452  315  908 
453  791  98  
454  375  820 
455  975  875 
456  633  33  
457  522  652 
458  796  180 
459  881  707 
460  697  974 
461  120  620 
462  731  290 
463  144  369 
464  596  162 
465  668  598 
466  5    333 
467  61   661 
468  353  168 
469  433  336 
470  439  998 
471  26   76  
472  513  944 
473  564  779 
474  677  371 
475  144  28  
476  158  60  
477  739  433 
478  862  428 
479  252  927 
480  890  507 
481  247  753 
482  155  111 
483  473  832 
484  789  977 
485  399  942 
486  154  879 
487  335  667 
488  605  199 
489  513  919 
490  245  321 
491  67   609 
492  895  844 
493  136  467 
494  424  456 
495  527  612 
496  414  452 
497  458  414 
498  664  965 
499  14   219 
500  655  649 
501  445  229 
DEMAND_SECTION
1    0   
2    1   
3    10  
4    9   
5    50  
6    7   
7    56  
8    2   
9    5   
10   5   
11   1   
12   3   
13   88  
14   10  
15   8   
16   6   
17   6   
18   10  
19   86  
20   4   
21   3   
22   5   
23   58  
24   9   
25   6   
26   7   
27   4   
28   2   
29   2   
30   9   
31   3   
32   1   
33   6   
34   53  
35   59  
36   1   
37   1   
38   10  
39   7   
40   6   
41   3   
42   9   
43   4   
44   81  
45   8   
46   5   
47   4   
48   6   
49   8   
50   4   
51   1   
52   1   
53   71  
54   59  
55   10  
56   9   
57   7   
58   7   
59   4   
60   6   
61   4   
62   64  
63   68  
64   4   
65   68  
66   9   
67   6   
68   7   
69   10  
70   98  
71   10  
72   10  
73   1   
74   10  
75   4   
76   86  
77   5   
78   9   
79   55  
80   10  
81   62  
82   9   
83   7   
84   4   
85   1   
86   8   
87   9   
88   1   
89   6   
90   80  
91   2   
92   69  
93   4   
94   89  
95   1   
96   50  
97   72  
98   9   
99   1   
100  5   
101  7   
102  55  
103  8   
104  10  
105  8   
106  10  
107  4   
108  62  
109  4   
110  10  
111  8   
112  6   
113  3   
114  3   
115  62  
116  75  
117  9   
118  7   
119  6   
120  64  
121  9   
122  72  
123  7   
124  1   
125  52  
126  2   
127  7   
128  6   
129  1   
130  8   
131  95  
132  6   
133  5   
134  6   
135  58  
136  61  
137  84  
138  73  
139  87  
140  7   
141  8   
142  8   
143  9   
144  89  
145  84  
146  9   
147  4   
148  4   
149  68  
150  59  
151  85  
152  7   
153  51  
154  2   
155  7   
156  1   
157  60  
158  10  
159  9   
160  95  
161  10  
162  10  
163  8   
164  4   
165  3   
166  1   
167  10  
168  87  
169  1   
170  9   
171  4   
172  7   
173  7   
174  1   
175  5   
176  75  
177  1   
178  6   
179  3   
180  1   
181  78  
182  93  
183  3   
184  58  
185  55  
186  9   
187  9   
188  4   
189  8   
190  1   
191  2   
192  10  
193  1   
194  65  
195  90  
196  2   
197  8   
198  10  
199  10  
200  4   
201  9   
202  10  
203  6   
204  10  
205  4   
206  7   
207  8   
208  3   
209  1   
210  9   
211  10  
212  10  
213  2   
214  6   
215  7   
216  2   
217  2   
218  10  
219  9   
220  10  
221  8   
222  5   
223  66  
224  5   
225  1   
226  7   
227  4   
228  9   
229  7   
230  1   
231  9   
232  6   
233  82  
234  9   
235  3   
236  6   
237  84  
238  9   
239  3   
240  1   
241  4   
242  10  
243  6   
244  74  
245  4   
246  2   
247  10  
248  8   
249  3   
250  3   
251  8   
252  1   
253  6   
254  7   
255  8   
256  5   
257  3   
258  4   
259  2   
260  75  
261  5   
262  5   
263  1   
264  1   
265  2   
266  3   
267  95  
268  7   
269  6   
270  5   
271  2   
272  4   
273  67  
274  10  
275  8   
276  5   
277  3   
278  5   
279  10  
280  52  
281  63  
282  2   
283  7   
284  10  
285  10  
286  4   
287  54  
288  74  
289  4   
290  97  
291  4   
292  10  
293  2   
294  80  
295  5   
296  7   
297  4   
298  8   
299  2   
300  58  
301  8   
302  6   
303  51  
304  3   
305  10  
306  2   
307  97  
308  5   
309  8   
310  5   
311  1   
312  10  
313  3   
314  3   
315  8   
316  9   
317  2   
318  90  
319  9   
320  10  
321  9   
322  4   
323  4   
324  8   
325  4   
326  5   
327  4   
328  7   
329  99  
330  10  
331  9   
332  58  
333  9   
334  2   
335  10  
336  8   
337  4   
338  5   
339  2   
340  4   
341  5   
342  1   
343  63  
344  3   
345  10  
346  6   
347  2   
348  1   
349  5   
350  68  
351  5   
352  82  
353  6   
354  9   
355  7   
356  2   
357  7   
358  2   
359  9   
360  6   
361  9   
362  70  
363  1   
364  1   
365  2   
366  7   
367  7   
368  6   
369  8   
370  89  
371  5   
372  10  
373  1   
374  2   
375  6   
376  90  
377  9   
378  1   
379  99  
380  2   
381  8   
382  2   
383  10  
384  5   
385  2   
386  3   
387  9   
388  1   
389  9   
390  4   
391  5   
392  66  
393  4   
394  4   
395  10  
396  7   
397  7   
398  8   
399  6   
400  9   
401  79  
402  68  
403  2   
404  8   
405  7   
406  5   
407  4   
408  9   
409  2   
410  2   
411  8   
412  8   
413  6   
414  72  
415  83  
416  76  
417  9   
418  7   
419  8   
420  3   
421  10  
422  3   
423  96  
424  9   
425  1   
426  59  
427  1   
428  71  
429  6   
430  9   
431  7   
432  6   
433  10  
434  9   
435  1   
436  10  
437  2   
438  6   
439  5   
440  10  
441  97  
442  3   
443  3   
444  10  
445  78  
446  1   
447  6   
448  2   
449  92  
450  7   
451  1   
452  8   
453  8   
454  8   
455  5   
456  3   
457  2   
458  1   
459  10  
460  2   
461  6   
462  8   
463  5   
464  10  
465  10  
466  5   
467  56  
468  2   
469  6   
470  8   
471  6   
472  2   
473  7   
474  1   
475  9   
476  1   
477  9   
478  7   
479  83  
480  2   
481  3   
482  2   
483  3   
484  9   
485  9   
486  2   
487  3   
488  8   
489  3   
490  1   
491  8   
492  7   
493  6   
494  6   
495  4   
496  9   
497  4   
498  3   
499  5   
500  8   
501  9   
DEPOT_SECTION
1
-1
EOF
