NAME : XML500_2173_01
COMMENT : Generated as the XML100 dataset from the CVRPLIB
TYPE : CVRP
DIMENSION : 501
EDGE_WEIGHT_TYPE : EUC_2D
CAPACITY : 150
NODE_COORD_SECTION
1    500  500 
2    618  179 
3    723  430 
4    190  246 
5    546  665 
6    619  53  
7    374  445 
8    767  289 
9    278  532 
10   856  190 
11   294  722 
12   82   153 
13   251  697 
14   133  56  
15   13   157 
16   549  374 
17   240  109 
18   5    126 
19   133  73  
20   445  871 
21   71   992 
22   927  457 
23   60   649 
24   763  369 
25   518  685 
26   457  351 
27   489  306 
28   28   858 
29   577  782 
30   791  161 
31   632  534 
32   446  793 
33   401  206 
34   997  425 
35   150  313 
36   149  730 
37   740  296 
38   122  273 
39   598  609 
40   677  444 
41   934  615 
42   496  426 
43   406  982 
44   576  787 
45   879  252 
46   69   14  
47   405  612 
48   139  430 
49   342  829 
50   513  160 
51   494  616 
52   481  66  
53   849  837 
54   490  25  
55   840  178 
56   98   700 
57   45   430 
58   27   383 
59   168  676 
60   968  383 
61   470  174 
62   919  410 
63   234  99  
64   657  911 
65   101  991 
66   982  375 
67   433  842 
68   489  854 
69   739  414 
70   682  562 
71   329  75  
72   428  894 
73   769  711 
74   679  395 
75   578  369 
76   677  740 
77   196  358 
78   579  938 
79   957  406 
80   475  871 
81   669  983 
82   38   177 
83   605  551 
84   172  987 
85   5    557 
86   935  563 
87   723  482 
88   686  488 
89   210  130 
90   327  248 
91   259  180 
92   416  871 
93   844  351 
94   532  361 
95   225  583 
96   874  971 
97   690  472 
98   49   416 
99   450  628 
100  617  425 
101  494  920 
102  175  19  
103  290  846 
104  975  975 
105  743  265 
106  569  388 
107  190  35  
108  672  920 
109  794  715 
110  657  975 
111  266  584 
112  16   605 
113  181  767 
114  438  318 
115  992  96  
116  958  92  
117  42   954 
118  955  771 
119  532  846 
120  621  673 
121  362  843 
122  97   569 
123  709  394 
124  832  121 
125  729  44  
126  593  180 
127  216  548 
128  762  75  
129  48   367 
130  57   623 
131  324  756 
132  853  818 
133  56   702 
134  241  137 
135  611  373 
136  719  385 
137  828  770 
138  309  970 
139  927  408 
140  393  580 
141  187  639 
142  214  960 
143  637  882 
144  690  300 
145  848  36  
146  654  318 
147  790  433 
148  941  805 
149  449  548 
150  79   353 
151  491  791 
152  665  532 
153  496  142 
154  397  501 
155  182  885 
156  963  795 
157  467  178 
158  409  830 
159  808  885 
160  118  912 
161  412  623 
162  108  836 
163  691  268 
164  93   471 
165  603  265 
166  474  179 
167  32   508 
168  118  771 
169  432  739 
170  891  48  
171  434  624 
172  592  470 
173  617  363 
174  308  837 
175  718  169 
176  794  941 
177  31   128 
178  102  590 
179  983  51  
180  977  7   
181  785  107 
182  384  45  
183  702  310 
184  855  334 
185  408  642 
186  434  777 
187  553  197 
188  943  549 
189  909  588 
190  250  545 
191  332  615 
192  436  212 
193  440  346 
194  910  91  
195  494  591 
196  979  972 
197  809  836 
198  466  309 
199  992  540 
200  3    589 
201  826  119 
202  925  640 
203  656  156 
204  993  422 
205  862  229 
206  165  898 
207  292  166 
208  931  310 
209  853  928 
210  544  82  
211  591  902 
212  347  868 
213  182  744 
214  157  462 
215  624  462 
216  668  857 
217  99   443 
218  395  710 
219  477  711 
220  511  519 
221  418  895 
222  503  843 
223  153  115 
224  529  437 
225  785  985 
226  182  127 
227  525  469 
228  195  69  
229  811  75  
230  31   740 
231  364  349 
232  170  480 
233  368  467 
234  689  914 
235  781  439 
236  389  624 
237  604  398 
238  756  677 
239  554  598 
240  297  12  
241  730  373 
242  607  16  
243  874  620 
244  985  474 
245  180  595 
246  48   564 
247  174  375 
248  393  647 
249  66   51  
250  672  405 
251  596  223 
252  827  466 
253  123  473 
254  170  501 
255  602  589 
256  511  64  
257  37   578 
258  955  829 
259  194  583 
260  452  170 
261  931  535 
262  761  568 
263  896  521 
264  946  875 
265  173  54  
266  458  680 
267  622  464 
268  681  161 
269  903  193 
270  284  80  
271  195  535 
272  873  488 
273  228  50  
274  466  90  
275  741  563 
276  739  452 
277  601  491 
278  633  826 
279  172  415 
280  572  385 
281  81   268 
282  523  824 
283  406  449 
284  443  993 
285  245  992 
286  758  406 
287  869  912 
288  315  144 
289  786  880 
290  849  643 
291  243  330 
292  858  428 
293  880  191 
294  609  410 
295  805  83  
296  397  199 
297  12   465 
298  469  882 
299  44   501 
300  847  534 
301  118  642 
302  196  583 
303  439  94  
304  172  315 
305  332  864 
306  501  702 
307  654  349 
308  212  253 
309  645  409 
310  883  761 
311  357  90  
312  431  967 
313  922  368 
314  629  558 
315  839  387 
316  281  146 
317  294  363 
318  932  812 
319  830  164 
320  486  622 
321  289  620 
322  357  551 
323  198  643 
324  713  401 
325  183  346 
326  592  51  
327  149  946 
328  199  963 
329  85   706 
330  718  280 
331  10   953 
332  714  469 
333  853  900 
334  556  714 
335  658  926 
336  431  923 
337  931  537 
338  973  431 
339  919  807 
340  470  500 
341  735  296 
342  32   17  
343  736  159 
344  391  892 
345  837  791 
346  528  685 
347  356  61  
348  986  693 
349  552  737 
350  152  912 
351  503  166 
352  763  247 
353  856  313 
354  892  2   
355  186  81  
356  853  940 
357  77   255 
358  390  431 
359  355  335 
360  840  206 
361  468  54  
362  102  651 
363  357  743 
364  129  782 
365  374  880 
366  689  342 
367  480  158 
368  807  982 
369  204  71  
370  961  324 
371  339  918 
372  101  353 
373  157  757 
374  358  94  
375  549  123 
376  461  446 
377  571  543 
378  880  142 
379  738  36  
380  970  357 
381  501  335 
382  790  919 
383  717  845 
384  244  37  
385  105  69  
386  7    214 
387  466  343 
388  332  640 
389  572  451 
390  35   533 
391  673  708 
392  341  306 
393  801  642 
394  975  726 
395  283  494 
396  252  395 
397  897  602 
398  296  982 
399  265  650 
400  816  91  
401  226  675 
402  213  272 
403  985  303 
404  737  577 
405  929  269 
406  223  883 
407  885  87  
408  986  479 
409  780  485 
410  169  318 
411  978  572 
412  843  56  
413  858  391 
414  767  158 
415  596  4   
416  777  199 
417  703  200 
418  284  669 
419  624  382 
420  826  195 
421  183  680 
422  831  667 
423  935  714 
424  130  34  
425  931  812 
426  487  806 
427  727  118 
428  156  525 
429  867  751 
430  548  746 
431  73   546 
432  47   611 
433  870  43  
434  958  54  
435  886  455 
436  142  271 
437  823  890 
438  15   211 
439  336  899 
440  653  175 
441  534  634 
442  681  72  
443  216  506 
444  534  49  
445  301  518 
446  936  998 
447  789  785 
448  585  449 
449  537  932 
450  986  794 
451  356  260 
452  315  908 
453  791  98  
454  375  820 
455  975  875 
456  633  33  
457  522  652 
458  796  180 
459  881  707 
460  697  974 
461  120  620 
462  731  290 
463  144  369 
464  596  162 
465  668  598 
466  5    333 
467  61   661 
468  353  168 
469  433  336 
470  439  998 
471  26   76  
472  513  944 
473  564  779 
474  677  371 
475  144  28  
476  158  60  
477  739  433 
478  862  428 
479  252  927 
480  890  507 
481  247  753 
482  155  111 
483  473  832 
484  789  977 
485  399  942 
486  154  879 
487  335  667 
488  605  199 
489  513  919 
490  245  321 
491  67   609 
492  895  844 
493  136  467 
494  424  456 
495  527  612 
496  414  452 
497  458  414 
498  664  965 
499  14   219 
500  655  649 
501  445  229 
DEMAND_SECTION
1    0   
2    5   
3    2   
4    2   
5    5   
6    5   
7    8   
8    53  
9    7   
10   9   
11   8   
12   8   
13   2   
14   1   
15   5   
16   71  
17   96  
18   7   
19   82  
20   95  
21   7   
22   6   
23   8   
24   1   
25   4   
26   9   
27   7   
28   10  
29   96  
30   1   
31   9   
32   5   
33   1   
34   88  
35   8   
36   6   
37   96  
38   6   
39   4   
40   5   
41   7   
42   1   
43   4   
44   7   
45   3   
46   58  
47   2   
48   7   
49   9   
50   1   
51   5   
52   10  
53   9   
54   88  
55   10  
56   8   
57   73  
58   2   
59   8   
60   91  
61   1   
62   79  
63   10  
64   9   
65   6   
66   10  
67   6   
68   8   
69   9   
70   10  
71   5   
72   59  
73   7   
74   1   
75   95  
76   6   
77   53  
78   8   
79   2   
80   10  
81   6   
82   3   
83   10  
84   4   
85   7   
86   61  
87   5   
88   73  
89   1   
90   71  
91   7   
92   84  
93   85  
94   10  
95   5   
96   6   
97   2   
98   62  
99   3   
100  6   
101  8   
102  4   
103  3   
104  56  
105  5   
106  1   
107  10  
108  56  
109  78  
110  7   
111  8   
112  5   
113  84  
114  4   
115  95  
116  6   
117  4   
118  93  
119  8   
120  1   
121  4   
122  72  
123  6   
124  2   
125  6   
126  61  
127  8   
128  1   
129  6   
130  3   
131  57  
132  75  
133  52  
134  72  
135  50  
136  3   
137  1   
138  6   
139  7   
140  56  
141  57  
142  9   
143  7   
144  90  
145  58  
146  68  
147  8   
148  75  
149  9   
150  1   
151  8   
152  97  
153  1   
154  7   
155  51  
156  9   
157  5   
158  10  
159  4   
160  3   
161  2   
162  80  
163  5   
164  6   
165  5   
166  3   
167  8   
168  6   
169  3   
170  66  
171  4   
172  5   
173  6   
174  4   
175  71  
176  79  
177  9   
178  73  
179  73  
180  4   
181  8   
182  10  
183  2   
184  7   
185  1   
186  1   
187  1   
188  89  
189  81  
190  10  
191  6   
192  3   
193  9   
194  5   
195  4   
196  6   
197  7   
198  8   
199  3   
200  8   
201  8   
202  1   
203  2   
204  10  
205  2   
206  6   
207  8   
208  5   
209  9   
210  3   
211  5   
212  6   
213  8   
214  7   
215  94  
216  6   
217  2   
218  2   
219  1   
220  4   
221  10  
222  5   
223  1   
224  89  
225  5   
226  1   
227  3   
228  78  
229  5   
230  3   
231  4   
232  9   
233  2   
234  10  
235  57  
236  2   
237  7   
238  8   
239  4   
240  1   
241  5   
242  5   
243  10  
244  3   
245  7   
246  2   
247  7   
248  3   
249  5   
250  7   
251  1   
252  8   
253  1   
254  1   
255  8   
256  8   
257  2   
258  6   
259  88  
260  2   
261  6   
262  6   
263  7   
264  9   
265  2   
266  72  
267  4   
268  2   
269  8   
270  7   
271  7   
272  86  
273  6   
274  10  
275  9   
276  9   
277  6   
278  7   
279  91  
280  50  
281  2   
282  5   
283  8   
284  7   
285  8   
286  100 
287  86  
288  10  
289  96  
290  6   
291  10  
292  10  
293  65  
294  3   
295  10  
296  9   
297  10  
298  4   
299  81  
300  1   
301  4   
302  89  
303  6   
304  6   
305  9   
306  86  
307  2   
308  5   
309  7   
310  7   
311  6   
312  3   
313  1   
314  10  
315  2   
316  2   
317  78  
318  6   
319  7   
320  4   
321  6   
322  7   
323  7   
324  3   
325  4   
326  10  
327  3   
328  52  
329  1   
330  4   
331  94  
332  8   
333  9   
334  3   
335  10  
336  8   
337  10  
338  5   
339  4   
340  10  
341  7   
342  92  
343  10  
344  10  
345  1   
346  5   
347  2   
348  10  
349  64  
350  6   
351  89  
352  4   
353  10  
354  1   
355  9   
356  6   
357  6   
358  2   
359  1   
360  10  
361  54  
362  10  
363  5   
364  8   
365  6   
366  6   
367  5   
368  54  
369  3   
370  9   
371  4   
372  8   
373  8   
374  77  
375  10  
376  7   
377  6   
378  3   
379  10  
380  3   
381  7   
382  2   
383  5   
384  9   
385  8   
386  4   
387  5   
388  10  
389  7   
390  58  
391  4   
392  1   
393  8   
394  6   
395  6   
396  10  
397  6   
398  3   
399  74  
400  93  
401  2   
402  10  
403  1   
404  8   
405  7   
406  3   
407  6   
408  5   
409  1   
410  3   
411  5   
412  78  
413  67  
414  87  
415  10  
416  2   
417  1   
418  5   
419  3   
420  5   
421  99  
422  10  
423  4   
424  85  
425  3   
426  66  
427  9   
428  7   
429  6   
430  4   
431  10  
432  7   
433  1   
434  9   
435  2   
436  5   
437  6   
438  10  
439  78  
440  8   
441  9   
442  4   
443  77  
444  6   
445  2   
446  2   
447  77  
448  4   
449  2   
450  9   
451  9   
452  2   
453  9   
454  3   
455  9   
456  10  
457  4   
458  5   
459  10  
460  5   
461  4   
462  5   
463  1   
464  1   
465  92  
466  5   
467  3   
468  7   
469  5   
470  4   
471  9   
472  3   
473  8   
474  1   
475  4   
476  6   
477  55  
478  7   
479  8   
480  4   
481  6   
482  6   
483  7   
484  8   
485  8   
486  2   
487  6   
488  9   
489  2   
490  8   
491  3   
492  5   
493  5   
494  10  
495  4   
496  10  
497  4   
498  9   
499  9   
500  70  
501  5   
DEPOT_SECTION
1
-1
EOF
