NAME : XML10000_2176_01
COMMENT : Generated as the XML100 dataset from the CVRPLIB
TYPE : CVRP
DIMENSION : 10001
EDGE_WEIGHT_TYPE : EUC_2D
CAPACITY : 248
NODE_COORD_SECTION
1    500  500 
2    945  530 
3    836  317 
4    971  542 
5    682  967 
6    190  246 
7    391  581 
8    458  566 
9    846  925 
10   484  870 
11   892  107 
12   449  473 
13   983  284 
14   599  255 
15   695  648 
16   221  885 
17   440  132 
18   498  902 
19   293  297 
20   536  862 
21   42   235 
22   61   861 
23   616  140 
24   635  184 
25   820  30  
26   518  685 
27   773  992 
28   652  759 
29   368  68  
30   187  536 
31   353  496 
32   957  244 
33   498  763 
34   83   731 
35   799  753 
36   784  598 
37   624  917 
38   537  770 
39   19   535 
40   226  209 
41   705  244 
42   335  305 
43   84   247 
44   784  741 
45   861  969 
46   348  700 
47   663  183 
48   114  826 
49   122  273 
50   710  246 
51   75   941 
52   956  18  
53   939  836 
54   201  23  
55   364  453 
56   239  555 
57   75   570 
58   165  692 
59   709  439 
60   638  487 
61   50   884 
62   801  916 
63   841  71  
64   572  977 
65   978  472 
66   447  623 
67   853  1000
68   34   448 
69   14   858 
70   179  665 
71   880  570 
72   419  134 
73   281  169 
74   927  38  
75   626  697 
76   491  744 
77   935  539 
78   561  34  
79   245  521 
80   907  58  
81   836  236 
82   766  101 
83   750  622 
84   168  676 
85   81   133 
86   335  568 
87   693  406 
88   659  538 
89   756  298 
90   885  714 
91   10   26  
92   817  410 
93   301  521 
94   285  388 
95   46   948 
96   980  818 
97   223  584 
98   976  773 
99   159  524 
100  38   983 
101  369  492 
102  741  156 
103  393  76  
104  677  740 
105  345  331 
106  17   584 
107  881  410 
108  38   177 
109  384  520 
110  43   781 
111  561  712 
112  414  756 
113  915  433 
114  94   360 
115  203  67  
116  798  542 
117  910  116 
118  549  668 
119  807  724 
120  78   944 
121  902  744 
122  887  426 
123  977  681 
124  838  746 
125  416  871 
126  986  905 
127  329  394 
128  348  610 
129  844  351 
130  990  945 
131  680  724 
132  400  284 
133  634  135 
134  250  140 
135  108  98  
136  273  179 
137  536  711 
138  583  211 
139  107  154 
140  197  276 
141  748  18  
142  678  301 
143  516  152 
144  295  907 
145  867  356 
146  575  959 
147  743  265 
148  653  993 
149  156  543 
150  624  159 
151  399  921 
152  623  931 
153  850  465 
154  923  295 
155  488  658 
156  306  287 
157  325  1   
158  785  314 
159  550  762 
160  684  584 
161  28   752 
162  233  354 
163  70   351 
164  129  431 
165  737  50  
166  408  354 
167  529  974 
168  713  57  
169  586  777 
170  418  903 
171  571  183 
172  992  96  
173  612  777 
174  314  84  
175  618  230 
176  42   954 
177  81   848 
178  427  876 
179  251  608 
180  859  865 
181  362  843 
182  589  440 
183  384  57  
184  63   849 
185  807  342 
186  898  558 
187  38   529 
188  152  436 
189  661  253 
190  521  394 
191  828  770 
192  722  509 
193  24   238 
194  561  953 
195  907  661 
196  138  858 
197  436  923 
198  128  348 
199  368  625 
200  5    138 
201  869  459 
202  765  298 
203  555  52  
204  350  944 
205  665  532 
206  260  472 
207  282  688 
208  963  795 
209  360  868 
210  173  826 
211  27   364 
212  195  562 
213  565  228 
214  507  868 
215  749  135 
216  713  945 
217  716  80  
218  455  508 
219  994  366 
220  886  800 
221  170  380 
222  191  518 
223  66   829 
224  235  670 
225  882  699 
226  795  784 
227  886  851 
228  959  525 
229  726  776 
230  819  150 
231  412  320 
232  731  930 
233  41   122 
234  188  511 
235  580  937 
236  874  650 
237  339  893 
238  785  107 
239  658  251 
240  183  692 
241  349  172 
242  495  646 
243  408  642 
244  654  375 
245  416  609 
246  456  654 
247  2    230 
248  615  742 
249  27   857 
250  528  290 
251  321  548 
252  359  36  
253  109  701 
254  331  719 
255  443  9   
256  852  411 
257  266  514 
258  177  165 
259  417  662 
260  72   973 
261  58   672 
262  934  641 
263  34   409 
264  804  149 
265  71   662 
266  419  241 
267  297  749 
268  172  495 
269  979  905 
270  853  928 
271  439  771 
272  81   803 
273  98   899 
274  962  684 
275  157  462 
276  641  385 
277  400  625 
278  755  799 
279  606  571 
280  44   64  
281  779  63  
282  909  688 
283  0    422 
284  717  359 
285  2    588 
286  167  778 
287  613  342 
288  483  625 
289  195  69  
290  107  881 
291  350  739 
292  800  524 
293  73   946 
294  665  726 
295  688  337 
296  67   172 
297  621  749 
298  824  369 
299  642  702 
300  185  441 
301  635  945 
302  962  131 
303  317  317 
304  744  87  
305  144  669 
306  790  868 
307  369  150 
308  591  999 
309  848  181 
310  27   328 
311  616  145 
312  321  43  
313  674  977 
314  125  689 
315  454  777 
316  623  438 
317  18   13  
318  726  933 
319  468  925 
320  911  797 
321  619  528 
322  321  885 
323  485  938 
324  490  580 
325  753  842 
326  292  338 
327  536  656 
328  299  794 
329  875  315 
330  857  980 
331  896  964 
332  839  156 
333  585  529 
334  681  6   
335  918  341 
336  149  536 
337  4    509 
338  95   444 
339  36   942 
340  454  469 
341  294  610 
342  62   670 
343  945  282 
344  516  487 
345  97   57  
346  73   48  
347  663  481 
348  386  335 
349  46   477 
350  514  115 
351  58   311 
352  998  67  
353  138  335 
354  181  427 
355  491  527 
356  516  660 
357  702  839 
358  495  207 
359  974  232 
360  719  943 
361  763  955 
362  31   425 
363  550  895 
364  845  837 
365  185  793 
366  591  353 
367  150  617 
368  751  367 
369  825  745 
370  916  144 
371  864  833 
372  920  211 
373  632  221 
374  484  178 
375  216  816 
376  966  798 
377  474  104 
378  555  449 
379  459  500 
380  295  74  
381  243  301 
382  371  736 
383  564  561 
384  466  756 
385  473  304 
386  846  883 
387  26   928 
388  225  891 
389  65   974 
390  800  647 
391  621  721 
392  432  571 
393  143  39  
394  553  945 
395  864  542 
396  989  889 
397  811  121 
398  61   634 
399  243  587 
400  795  668 
401  838  850 
402  748  724 
403  18   335 
404  561  675 
405  735  383 
406  938  31  
407  242  384 
408  459  48  
409  902  626 
410  925  307 
411  433  733 
412  437  585 
413  204  836 
414  248  684 
415  246  459 
416  688  697 
417  652  752 
418  322  411 
419  877  171 
420  199  963 
421  471  830 
422  143  667 
423  973  664 
424  868  434 
425  763  332 
426  672  397 
427  875  406 
428  394  911 
429  566  809 
430  361  941 
431  801  728 
432  931  537 
433  352  696 
434  317  886 
435  948  520 
436  316  434 
437  615  814 
438  528  362 
439  841  245 
440  567  907 
441  222  956 
442  480  75  
443  357  923 
444  871  17  
445  653  222 
446  179  619 
447  331  868 
448  486  192 
449  474  520 
450  823  195 
451  241  771 
452  721  633 
453  353  669 
454  871  247 
455  306  557 
456  936  908 
457  153  358 
458  487  639 
459  381  216 
460  77   255 
461  298  764 
462  129  782 
463  689  342 
464  950  415 
465  664  52  
466  129  552 
467  575  183 
468  560  340 
469  194  206 
470  214  245 
471  643  815 
472  164  778 
473  437  282 
474  458  555 
475  574  885 
476  995  256 
477  685  580 
478  271  231 
479  934  365 
480  682  218 
481  241  58  
482  661  555 
483  56   2   
484  749  162 
485  557  795 
486  504  707 
487  584  903 
488  515  519 
489  914  8   
490  856  263 
491  643  491 
492  572  451 
493  60   303 
494  373  976 
495  191  707 
496  378  966 
497  341  306 
498  160  381 
499  911  762 
500  424  34  
501  294  712 
502  425  783 
503  870  683 
504  905  565 
505  691  100 
506  247  552 
507  325  238 
508  967  307 
509  112  245 
510  774  941 
511  738  25  
512  689  635 
513  875  144 
514  308  835 
515  662  790 
516  588  571 
517  918  396 
518  885  87  
519  480  248 
520  761  89  
521  780  485 
522  193  517 
523  802  685 
524  766  714 
525  305  963 
526  49   373 
527  633  23  
528  230  391 
529  876  397 
530  624  382 
531  555  828 
532  149  931 
533  831  667 
534  760  142 
535  634  683 
536  11   910 
537  968  379 
538  510  230 
539  874  13  
540  237  699 
541  851  279 
542  357  226 
543  819  821 
544  662  461 
545  976  964 
546  370  367 
547  722  216 
548  812  90  
549  77   227 
550  115  16  
551  684  397 
552  677  980 
553  896  133 
554  823  890 
555  73   516 
556  385  384 
557  573  879 
558  264  559 
559  870  307 
560  500  589 
561  581  676 
562  72   332 
563  534  634 
564  394  289 
565  897  414 
566  110  119 
567  61   561 
568  868  935 
569  815  664 
570  462  944 
571  411  686 
572  428  512 
573  527  276 
574  17   555 
575  894  919 
576  865  943 
577  886  519 
578  27   510 
579  686  899 
580  545  125 
581  144  690 
582  899  546 
583  61   787 
584  467  612 
585  857  172 
586  566  580 
587  380  495 
588  169  146 
589  739  176 
590  139  966 
591  435  115 
592  308  739 
593  169  35  
594  204  908 
595  5    333 
596  959  524 
597  982  359 
598  217  303 
599  776  228 
600  830  827 
601  984  71  
602  35   535 
603  865  452 
604  259  95  
605  353  168 
606  299  846 
607  981  294 
608  212  101 
609  433  336 
610  966  58  
611  69   316 
612  800  361 
613  211  167 
614  875  124 
615  378  700 
616  144  28  
617  515  63  
618  127  987 
619  918  424 
620  667  872 
621  226  504 
622  559  430 
623  568  979 
624  415  102 
625  610  338 
626  124  930 
627  31   150 
628  624  410 
629  783  935 
630  810  771 
631  900  897 
632  131  708 
633  154  879 
634  770  437 
635  629  840 
636  349  640 
637  414  452 
638  396  631 
639  825  611 
640  276  429 
641  479  742 
642  194  626 
643  985  869 
644  177  352 
645  366  812 
646  607  918 
647  55   323 
648  828  961 
649  261  448 
650  595  822 
651  713  391 
652  841  602 
653  769  405 
654  402  662 
655  708  142 
656  750  257 
657  732  276 
658  660  105 
659  684  151 
660  258  773 
661  850  683 
662  600  958 
663  0    884 
664  863  691 
665  77   890 
666  133  56  
667  800  747 
668  48   576 
669  108  592 
670  551  86  
671  773  232 
672  539  694 
673  5    126 
674  133  73  
675  351  508 
676  445  871 
677  228  329 
678  51   464 
679  277  926 
680  761  763 
681  84   392 
682  891  8   
683  378  173 
684  804  897 
685  441  625 
686  373  886 
687  429  708 
688  359  647 
689  368  90  
690  350  94  
691  47   90  
692  731  897 
693  257  748 
694  493  590 
695  477  841 
696  978  942 
697  903  877 
698  667  441 
699  83   686 
700  676  441 
701  487  176 
702  970  218 
703  934  881 
704  370  958 
705  331  396 
706  201  1000
707  680  971 
708  145  320 
709  139  430 
710  891  549 
711  784  921 
712  71   599 
713  571  419 
714  849  837 
715  170  804 
716  135  826 
717  690  47  
718  799  339 
719  49   445 
720  178  283 
721  490  25  
722  864  262 
723  519  592 
724  315  94  
725  780  60  
726  569  823 
727  715  977 
728  111  696 
729  898  211 
730  499  410 
731  409  902 
732  428  102 
733  768  715 
734  200  29  
735  976  622 
736  849  496 
737  702  836 
738  958  722 
739  542  941 
740  270  752 
741  608  121 
742  71   923 
743  457  515 
744  385  302 
745  776  905 
746  634  965 
747  12   587 
748  471  38  
749  831  262 
750  500  534 
751  682  562 
752  848  342 
753  295  69  
754  377  866 
755  52   334 
756  56   777 
757  57   48  
758  100  114 
759  959  51  
760  358  958 
761  52   253 
762  717  253 
763  403  397 
764  820  250 
765  327  474 
766  972  13  
767  782  314 
768  565  170 
769  514  940 
770  820  105 
771  587  686 
772  743  803 
773  320  475 
774  249  491 
775  213  0   
776  327  248 
777  347  710 
778  386  714 
779  8    40  
780  243  793 
781  321  935 
782  381  955 
783  535  676 
784  882  704 
785  277  660 
786  333  824 
787  136  332 
788  529  267 
789  450  628 
790  485  973 
791  397  91  
792  74   440 
793  131  51  
794  45   617 
795  27   994 
796  213  979 
797  343  772 
798  753  710 
799  535  394 
800  934  925 
801  838  57  
802  434  947 
803  53   939 
804  274  584 
805  791  109 
806  371  500 
807  266  584 
808  12   84  
809  72   951 
810  767  114 
811  288  724 
812  126  334 
813  14   574 
814  165  690 
815  19   868 
816  417  605 
817  72   774 
818  390  360 
819  600  284 
820  71   857 
821  41   670 
822  745  370 
823  125  496 
824  931  37  
825  73   269 
826  555  753 
827  793  4   
828  578  818 
829  779  489 
830  727  407 
831  466  804 
832  147  387 
833  385  266 
834  774  300 
835  564  752 
836  357  94  
837  693  404 
838  385  443 
839  423  423 
840  263  446 
841  51   844 
842  324  696 
843  487  860 
844  147  353 
845  522  191 
846  356  105 
847  599  959 
848  708  198 
849  416  334 
850  327  664 
851  916  395 
852  241  223 
853  471  665 
854  458  552 
855  437  281 
856  845  428 
857  775  449 
858  688  489 
859  797  9   
860  798  866 
861  639  848 
862  378  259 
863  919  538 
864  333  617 
865  449  84  
866  32   508 
867  87   606 
868  763  13  
869  891  48  
870  411  1   
871  251  462 
872  382  564 
873  862  226 
874  209  854 
875  246  71  
876  951  568 
877  536  713 
878  627  776 
879  888  520 
880  705  214 
881  649  942 
882  260  969 
883  72   757 
884  126  392 
885  550  286 
886  466  309 
887  948  749 
888  326  201 
889  477  83  
890  575  782 
891  504  239 
892  656  156 
893  140  5   
894  322  928 
895  715  699 
896  866  805 
897  908  2   
898  140  916 
899  107  331 
900  487  303 
901  236  621 
902  899  321 
903  480  455 
904  547  211 
905  624  462 
906  399  558 
907  110  585 
908  20   689 
909  24   308 
910  340  930 
911  414  489 
912  510  374 
913  149  132 
914  629  996 
915  447  355 
916  431  878 
917  909  650 
918  0    476 
919  436  720 
920  241  520 
921  721  774 
922  280  124 
923  327  606 
924  879  477 
925  608  144 
926  721  919 
927  96   484 
928  902  108 
929  389  439 
930  686  567 
931  765  454 
932  91   187 
933  238  446 
934  565  863 
935  786  604 
936  821  453 
937  699  553 
938  795  726 
939  837  875 
940  15   35  
941  894  916 
942  510  925 
943  789  520 
944  60   648 
945  906  468 
946  48   564 
947  385  835 
948  962  95  
949  7    716 
950  123  473 
951  621  442 
952  795  869 
953  744  795 
954  212  273 
955  655  401 
956  761  568 
957  631  22  
958  299  931 
959  925  619 
960  752  149 
961  491  443 
962  236  126 
963  217  302 
964  627  887 
965  331  274 
966  316  166 
967  31   605 
968  952  934 
969  202  13  
970  809  99  
971  370  923 
972  973  816 
973  260  941 
974  231  138 
975  365  704 
976  31   883 
977  625  596 
978  793  640 
979  830  741 
980  905  818 
981  619  114 
982  430  247 
983  931  782 
984  435  607 
985  704  148 
986  903  460 
987  727  648 
988  215  468 
989  269  540 
990  699  427 
991  681  740 
992  607  610 
993  97   509 
994  654  689 
995  159  253 
996  568  818 
997  609  410 
998  55   444 
999  12   465 
1000 197  987 
1001 628  17  
1002 242  756 
1003 998  135 
1004 257  271 
1005 484  152 
1006 474  402 
1007 864  790 
1008 561  842 
1009 377  837 
1010 47   707 
1011 1000 182 
1012 547  779 
1013 508  117 
1014 60   846 
1015 519  209 
1016 315  991 
1017 837  958 
1018 294  363 
1019 303  395 
1020 470  424 
1021 170  60  
1022 78   605 
1023 192  540 
1024 834  967 
1025 215  604 
1026 53   353 
1027 865  827 
1028 846  678 
1029 632  750 
1030 463  582 
1031 284  91  
1032 375  410 
1033 550  154 
1034 364  905 
1035 753  110 
1036 222  507 
1037 223  70  
1038 406  738 
1039 133  362 
1040 887  511 
1041 982  273 
1042 806  67  
1043 790  580 
1044 915  344 
1045 290  855 
1046 522  538 
1047 827  705 
1048 227  353 
1049 819  101 
1050 752  0   
1051 718  789 
1052 41   229 
1053 46   150 
1054 818  919 
1055 966  39  
1056 917  545 
1057 130  437 
1058 292  50  
1059 499  718 
1060 260  528 
1061 524  837 
1062 117  3   
1063 139  417 
1064 892  859 
1065 73   165 
1066 145  720 
1067 843  441 
1068 383  320 
1069 202  259 
1070 594  513 
1071 130  36  
1072 775  596 
1073 44   482 
1074 476  166 
1075 231  908 
1076 639  19  
1077 895  485 
1078 168  286 
1079 562  242 
1080 374  956 
1081 90   723 
1082 698  914 
1083 571  128 
1084 457  800 
1085 410  502 
1086 585  60  
1087 859  653 
1088 186  81  
1089 741  673 
1090 261  513 
1091 390  431 
1092 319  287 
1093 840  206 
1094 827  472 
1095 811  959 
1096 205  484 
1097 667  691 
1098 137  668 
1099 85   830 
1100 100  285 
1101 68   819 
1102 345  594 
1103 99   607 
1104 9    299 
1105 156  398 
1106 812  321 
1107 650  36  
1108 501  704 
1109 727  54  
1110 416  146 
1111 843  733 
1112 989  887 
1113 298  90  
1114 461  446 
1115 869  257 
1116 195  750 
1117 878  49  
1118 790  919 
1119 717  845 
1120 94   480 
1121 555  126 
1122 955  824 
1123 811  392 
1124 848  4   
1125 372  926 
1126 215  608 
1127 513  518 
1128 899  637 
1129 259  730 
1130 504  681 
1131 144  522 
1132 127  457 
1133 40   971 
1134 38   106 
1135 596  576 
1136 740  272 
1137 179  0   
1138 364  124 
1139 950  799 
1140 420  830 
1141 903  963 
1142 351  774 
1143 134  808 
1144 283  494 
1145 883  901 
1146 863  251 
1147 131  50  
1148 444  27  
1149 688  921 
1150 782  887 
1151 748  41  
1152 787  543 
1153 376  304 
1154 235  23  
1155 236  356 
1156 843  468 
1157 473  686 
1158 116  306 
1159 596  4   
1160 979  244 
1161 102  325 
1162 818  10  
1163 525  0   
1164 162  550 
1165 35   268 
1166 219  571 
1167 254  384 
1168 199  513 
1169 605  370 
1170 40   406 
1171 734  142 
1172 624  197 
1173 201  229 
1174 130  187 
1175 439  167 
1176 330  451 
1177 408  265 
1178 318  780 
1179 266  939 
1180 457  988 
1181 314  959 
1182 206  193 
1183 673  764 
1184 806  944 
1185 979  816 
1186 870  43  
1187 431  853 
1188 712  981 
1189 980  718 
1190 67   443 
1191 68   896 
1192 493  397 
1193 555  414 
1194 884  354 
1195 301  518 
1196 342  338 
1197 789  785 
1198 392  345 
1199 450  243 
1200 878  243 
1201 327  667 
1202 702  445 
1203 975  875 
1204 892  27  
1205 547  592 
1206 161  509 
1207 252  442 
1208 364  668 
1209 647  757 
1210 636  16  
1211 431  382 
1212 342  175 
1213 471  521 
1214 237  59  
1215 937  413 
1216 186  907 
1217 242  339 
1218 816  526 
1219 66   165 
1220 502  929 
1221 142  118 
1222 891  51  
1223 393  444 
1224 179  495 
1225 0    714 
1226 293  91  
1227 834  209 
1228 283  93  
1229 982  345 
1230 394  990 
1231 14   479 
1232 17   393 
1233 917  790 
1234 184  390 
1235 960  359 
1236 796  149 
1237 98   455 
1238 425  781 
1239 571  524 
1240 199  711 
1241 257  580 
1242 165  883 
1243 549  221 
1244 571  637 
1245 862  428 
1246 761  95  
1247 136  982 
1248 107  445 
1249 453  217 
1250 37   410 
1251 956  160 
1252 318  857 
1253 337  432 
1254 600  330 
1255 875  944 
1256 857  605 
1257 630  204 
1258 605  199 
1259 969  59  
1260 343  367 
1261 515  368 
1262 555  847 
1263 59   924 
1264 176  80  
1265 659  861 
1266 664  965 
1267 708  502 
1268 655  649 
1269 894  473 
1270 343  77  
1271 803  410 
1272 368  775 
1273 462  357 
1274 234  396 
1275 713  489 
1276 971  765 
1277 556  81  
1278 168  786 
1279 725  966 
1280 300  279 
1281 428  476 
1282 972  737 
1283 854  261 
1284 547  767 
1285 786  605 
1286 986  389 
1287 113  823 
1288 575  213 
1289 873  781 
1290 582  935 
1291 609  795 
1292 60   649 
1293 20   468 
1294 725  649 
1295 981  895 
1296 877  958 
1297 333  524 
1298 578  509 
1299 977  1000
1300 734  744 
1301 679  345 
1302 735  177 
1303 260  249 
1304 246  390 
1305 356  578 
1306 963  570 
1307 602  358 
1308 30   903 
1309 394  867 
1310 218  623 
1311 551  355 
1312 237  321 
1313 576  629 
1314 645  234 
1315 740  296 
1316 248  742 
1317 448  504 
1318 878  698 
1319 494  835 
1320 524  636 
1321 622  703 
1322 930  883 
1323 576  787 
1324 773  711 
1325 994  62  
1326 701  52  
1327 870  597 
1328 338  442 
1329 361  619 
1330 213  906 
1331 658  777 
1332 827  898 
1333 829  208 
1334 481  66  
1335 653  2   
1336 692  600 
1337 641  986 
1338 918  430 
1339 776  595 
1340 170  846 
1341 282  388 
1342 62   880 
1343 966  474 
1344 76   936 
1345 130  240 
1346 760  317 
1347 98   700 
1348 813  333 
1349 432  488 
1350 713  73  
1351 73   490 
1352 404  774 
1353 205  669 
1354 343  371 
1355 987  407 
1356 167  545 
1357 663  700 
1358 756  216 
1359 79   309 
1360 746  18  
1361 504  345 
1362 401  921 
1363 254  773 
1364 148  242 
1365 923  832 
1366 582  455 
1367 349  928 
1368 168  895 
1369 280  89  
1370 834  512 
1371 890  936 
1372 413  131 
1373 87   108 
1374 52   453 
1375 555  486 
1376 132  573 
1377 133  772 
1378 190  335 
1379 251  879 
1380 752  776 
1381 306  932 
1382 879  97  
1383 475  871 
1384 557  413 
1385 195  356 
1386 717  215 
1387 901  400 
1388 63   421 
1389 47   544 
1390 446  55  
1391 837  846 
1392 986  8   
1393 950  615 
1394 271  168 
1395 9    121 
1396 377  535 
1397 913  467 
1398 948  76  
1399 90   372 
1400 644  325 
1401 187  786 
1402 97   656 
1403 388  27  
1404 647  594 
1405 51   323 
1406 454  780 
1407 734  708 
1408 703  331 
1409 905  256 
1410 227  386 
1411 874  971 
1412 786  5   
1413 53   514 
1414 536  612 
1415 847  924 
1416 304  820 
1417 377  482 
1418 175  19  
1419 213  844 
1420 910  162 
1421 930  804 
1422 397  53  
1423 226  201 
1424 463  788 
1425 857  985 
1426 274  723 
1427 795  31  
1428 306  192 
1429 164  230 
1430 883  710 
1431 994  181 
1432 848  643 
1433 226  299 
1434 169  328 
1435 27   806 
1436 525  27  
1437 736  484 
1438 236  656 
1439 942  60  
1440 343  561 
1441 222  598 
1442 978  496 
1443 337  504 
1444 63   726 
1445 168  430 
1446 478  655 
1447 653  409 
1448 505  563 
1449 736  177 
1450 510  316 
1451 935  627 
1452 475  135 
1453 940  971 
1454 760  55  
1455 853  818 
1456 529  548 
1457 841  794 
1458 56   702 
1459 915  767 
1460 115  93  
1461 779  92  
1462 34   13  
1463 664  172 
1464 557  223 
1465 299  243 
1466 281  412 
1467 445  709 
1468 930  51  
1469 994  894 
1470 24   186 
1471 233  772 
1472 367  849 
1473 996  167 
1474 691  947 
1475 808  885 
1476 38   830 
1477 129  626 
1478 207  925 
1479 960  848 
1480 998  748 
1481 507  195 
1482 217  937 
1483 812  608 
1484 911  92  
1485 130  931 
1486 791  570 
1487 757  577 
1488 207  544 
1489 759  23  
1490 705  942 
1491 265  733 
1492 716  234 
1493 806  108 
1494 695  987 
1495 187  540 
1496 411  212 
1497 654  16  
1498 179  176 
1499 986  544 
1500 382  617 
1501 914  197 
1502 52   674 
1503 109  975 
1504 255  485 
1505 95   268 
1506 350  459 
1507 818  809 
1508 545  615 
1509 731  796 
1510 36   894 
1511 992  540 
1512 438  574 
1513 573  49  
1514 192  84  
1515 729  371 
1516 36   973 
1517 473  685 
1518 202  469 
1519 165  815 
1520 993  422 
1521 222  784 
1522 136  571 
1523 818  11  
1524 505  380 
1525 822  579 
1526 948  698 
1527 292  166 
1528 166  715 
1529 154  131 
1530 559  352 
1531 466  113 
1532 374  622 
1533 412  847 
1534 70   375 
1535 235  308 
1536 662  107 
1537 373  430 
1538 418  895 
1539 555  866 
1540 77   410 
1541 774  512 
1542 442  105 
1543 831  753 
1544 334  59  
1545 261  723 
1546 182  127 
1547 475  227 
1548 326  687 
1549 63   936 
1550 694  218 
1551 362  851 
1552 276  103 
1553 262  86  
1554 690  533 
1555 50   692 
1556 578  978 
1557 194  811 
1558 581  717 
1559 565  712 
1560 12   760 
1561 162  205 
1562 197  692 
1563 988  705 
1564 39   145 
1565 756  677 
1566 811  184 
1567 43   210 
1568 392  346 
1569 872  442 
1570 820  954 
1571 587  913 
1572 273  585 
1573 590  292 
1574 648  619 
1575 39   102 
1576 60   887 
1577 82   519 
1578 151  537 
1579 152  745 
1580 298  63  
1581 66   51  
1582 322  169 
1583 910  350 
1584 747  904 
1585 256  583 
1586 170  501 
1587 398  29  
1588 653  601 
1589 178  955 
1590 731  557 
1591 236  133 
1592 532  426 
1593 0    715 
1594 635  457 
1595 286  941 
1596 965  616 
1597 681  161 
1598 493  643 
1599 297  168 
1600 728  196 
1601 601  122 
1602 431  189 
1603 288  421 
1604 739  452 
1605 762  47  
1606 445  337 
1607 601  491 
1608 946  150 
1609 657  73  
1610 822  781 
1611 205  773 
1612 633  826 
1613 670  901 
1614 808  90  
1615 809  295 
1616 330  258 
1617 222  780 
1618 975  214 
1619 443  993 
1620 794  149 
1621 466  450 
1622 943  820 
1623 512  846 
1624 875  34  
1625 488  662 
1626 849  643 
1627 59   177 
1628 651  405 
1629 140  918 
1630 490  95  
1631 883  476 
1632 261  678 
1633 996  709 
1634 941  196 
1635 466  228 
1636 799  186 
1637 693  675 
1638 585  106 
1639 197  852 
1640 749  807 
1641 89   891 
1642 542  600 
1643 135  34  
1644 907  205 
1645 927  6   
1646 287  871 
1647 508  286 
1648 453  395 
1649 665  51  
1650 24   421 
1651 385  251 
1652 94   978 
1653 58   204 
1654 591  346 
1655 209  40  
1656 483  601 
1657 677  977 
1658 513  16  
1659 896  152 
1660 659  570 
1661 441  45  
1662 461  146 
1663 559  809 
1664 690  904 
1665 431  590 
1666 241  360 
1667 846  831 
1668 707  87  
1669 564  500 
1670 932  812 
1671 608  496 
1672 441  783 
1673 80   57  
1674 298  896 
1675 696  787 
1676 809  532 
1677 955  754 
1678 905  9   
1679 579  190 
1680 872  180 
1681 318  214 
1682 303  358 
1683 768  287 
1684 471  556 
1685 346  775 
1686 592  51  
1687 497  433 
1688 777  71  
1689 942  907 
1690 994  362 
1691 42   175 
1692 630  398 
1693 919  425 
1694 260  250 
1695 725  490 
1696 36   577 
1697 643  443 
1698 277  857 
1699 352  918 
1700 498  684 
1701 503  413 
1702 291  533 
1703 899  850 
1704 114  924 
1705 387  6   
1706 959  670 
1707 861  924 
1708 726  750 
1709 640  773 
1710 930  995 
1711 255  2   
1712 397  242 
1713 64   87  
1714 463  81  
1715 46   235 
1716 374  692 
1717 653  1   
1718 952  646 
1719 650  793 
1720 562  125 
1721 581  303 
1722 606  882 
1723 850  320 
1724 561  307 
1725 997  575 
1726 756  170 
1727 332  658 
1728 334  448 
1729 29   622 
1730 853  940 
1731 840  325 
1732 505  534 
1733 534  473 
1734 129  56  
1735 614  139 
1736 82   504 
1737 599  573 
1738 374  880 
1739 590  928 
1740 720  634 
1741 21   107 
1742 957  847 
1743 101  189 
1744 345  715 
1745 966  935 
1746 8    917 
1747 10   79  
1748 285  471 
1749 786  668 
1750 440  288 
1751 918  565 
1752 63   198 
1753 380  74  
1754 890  651 
1755 427  251 
1756 584  262 
1757 904  397 
1758 557  557 
1759 186  977 
1760 498  927 
1761 887  219 
1762 890  621 
1763 65   768 
1764 812  637 
1765 963  763 
1766 138  604 
1767 530  458 
1768 467  660 
1769 786  864 
1770 687  627 
1771 416  86  
1772 402  89  
1773 332  282 
1774 740  495 
1775 407  296 
1776 501  445 
1777 844  445 
1778 792  608 
1779 207  591 
1780 687  849 
1781 283  151 
1782 910  48  
1783 821  923 
1784 92   797 
1785 75   201 
1786 339  684 
1787 179  87  
1788 737  577 
1789 373  917 
1790 909  473 
1791 527  862 
1792 169  318 
1793 978  572 
1794 448  227 
1795 269  971 
1796 469  531 
1797 843  298 
1798 938  522 
1799 244  789 
1800 154  61  
1801 743  333 
1802 982  979 
1803 130  34  
1804 535  65  
1805 719  228 
1806 64   290 
1807 712  590 
1808 931  812 
1809 1    311 
1810 330  429 
1811 483  981 
1812 440  896 
1813 77   501 
1814 867  751 
1815 391  781 
1816 954  971 
1817 609  646 
1818 370  178 
1819 958  563 
1820 560  78  
1821 445  708 
1822 872  304 
1823 216  820 
1824 472  734 
1825 125  188 
1826 931  505 
1827 362  542 
1828 418  284 
1829 215  62  
1830 313  50  
1831 521  629 
1832 315  908 
1833 650  83  
1834 691  773 
1835 375  820 
1836 394  277 
1837 329  964 
1838 458  672 
1839 114  62  
1840 919  813 
1841 775  329 
1842 816  774 
1843 375  165 
1844 740  173 
1845 983  283 
1846 731  290 
1847 967  886 
1848 472  875 
1849 939  209 
1850 489  860 
1851 131  393 
1852 151  986 
1853 751  525 
1854 271  429 
1855 863  455 
1856 386  713 
1857 539  437 
1858 577  250 
1859 991  18  
1860 89   384 
1861 434  253 
1862 736  837 
1863 293  54  
1864 131  167 
1865 856  478 
1866 359  309 
1867 643  256 
1868 148  930 
1869 420  143 
1870 22   847 
1871 120  601 
1872 982  541 
1873 658  831 
1874 917  978 
1875 222  134 
1876 630  3   
1877 386  922 
1878 249  36  
1879 247  753 
1880 568  688 
1881 735  844 
1882 779  558 
1883 27   773 
1884 746  663 
1885 309  947 
1886 149  794 
1887 867  557 
1888 245  321 
1889 210  984 
1890 67   609 
1891 301  47  
1892 671  869 
1893 728  805 
1894 732  885 
1895 292  822 
1896 883  451 
1897 280  726 
1898 894  193 
1899 785  627 
1900 107  753 
1901 110  688 
1902 145  988 
1903 77   409 
1904 599  628 
1905 267  65  
1906 710  695 
1907 876  587 
1908 163  176 
1909 914  936 
1910 880  654 
1911 315  349 
1912 10   293 
1913 628  75  
1914 59   848 
1915 741  340 
1916 542  799 
1917 444  814 
1918 600  684 
1919 730  743 
1920 103  555 
1921 458  994 
1922 9    500 
1923 48   350 
1924 251  697 
1925 472  698 
1926 436  797 
1927 290  503 
1928 789  799 
1929 855  18  
1930 565  888 
1931 180  282 
1932 436  908 
1933 403  61  
1934 685  559 
1935 81   299 
1936 158  433 
1937 143  7   
1938 185  501 
1939 5    34  
1940 939  172 
1941 133  125 
1942 214  120 
1943 844  231 
1944 863  261 
1945 332  467 
1946 613  814 
1947 192  582 
1948 501  452 
1949 66   163 
1950 708  630 
1951 907  987 
1952 401  206 
1953 700  934 
1954 22   670 
1955 795  922 
1956 635  91  
1957 198  319 
1958 19   344 
1959 890  135 
1960 374  28  
1961 50   382 
1962 250  38  
1963 964  958 
1964 2    509 
1965 496  426 
1966 912  508 
1967 53   746 
1968 424  38  
1969 779  876 
1970 819  95  
1971 286  844 
1972 494  903 
1973 193  616 
1974 606  4   
1975 809  294 
1976 886  308 
1977 836  521 
1978 892  925 
1979 54   730 
1980 63   664 
1981 707  764 
1982 732  857 
1983 605  197 
1984 789  270 
1985 148  506 
1986 968  383 
1987 954  318 
1988 438  71  
1989 758  540 
1990 318  953 
1991 270  828 
1992 950  162 
1993 510  373 
1994 353  558 
1995 63   975 
1996 589  435 
1997 310  188 
1998 609  349 
1999 172  181 
2000 530  803 
2001 432  778 
2002 954  899 
2003 777  906 
2004 410  881 
2005 656  633 
2006 507  319 
2007 824  491 
2008 198  972 
2009 897  353 
2010 254  600 
2011 609  575 
2012 459  432 
2013 172  987 
2014 873  866 
2015 985  600 
2016 488  384 
2017 532  11  
2018 916  426 
2019 321  288 
2020 564  356 
2021 216  522 
2022 911  241 
2023 492  463 
2024 83   858 
2025 691  539 
2026 507  138 
2027 803  937 
2028 532  361 
2029 860  654 
2030 956  589 
2031 317  389 
2032 86   194 
2033 15   194 
2034 398  254 
2035 570  535 
2036 661  700 
2037 829  298 
2038 216  215 
2039 273  112 
2040 290  846 
2041 772  94  
2042 479  262 
2043 616  344 
2044 728  306 
2045 985  133 
2046 431  227 
2047 397  15  
2048 331  279 
2049 539  234 
2050 307  478 
2051 571  701 
2052 255  444 
2053 566  900 
2054 753  643 
2055 919  108 
2056 938  535 
2057 351  638 
2058 931  674 
2059 956  215 
2060 775  621 
2061 634  489 
2062 653  145 
2063 529  131 
2064 909  231 
2065 897  743 
2066 153  151 
2067 709  394 
2068 304  293 
2069 880  1000
2070 326  970 
2071 789  290 
2072 866  695 
2073 222  523 
2074 907  155 
2075 376  183 
2076 693  646 
2077 555  685 
2078 760  29  
2079 6    871 
2080 529  574 
2081 694  272 
2082 789  4   
2083 332  625 
2084 115  67  
2085 903  124 
2086 395  301 
2087 125  38  
2088 253  465 
2089 720  522 
2090 497  903 
2091 868  658 
2092 449  548 
2093 547  959 
2094 911  390 
2095 200  338 
2096 517  539 
2097 441  72  
2098 556  55  
2099 768  47  
2100 146  655 
2101 94   745 
2102 959  27  
2103 980  998 
2104 933  700 
2105 474  179 
2106 636  491 
2107 432  739 
2108 878  24  
2109 734  936 
2110 716  403 
2111 368  737 
2112 950  613 
2113 350  913 
2114 294  249 
2115 243  739 
2116 990  705 
2117 593  361 
2118 976  383 
2119 333  558 
2120 66   235 
2121 907  995 
2122 398  218 
2123 442  842 
2124 518  699 
2125 497  301 
2126 596  559 
2127 592  318 
2128 38   476 
2129 813  858 
2130 830  840 
2131 464  961 
2132 579  584 
2133 688  865 
2134 731  901 
2135 640  964 
2136 148  911 
2137 9    571 
2138 191  775 
2139 585  532 
2140 141  46  
2141 342  657 
2142 539  103 
2143 170  526 
2144 762  100 
2145 321  618 
2146 589  981 
2147 680  975 
2148 848  645 
2149 795  398 
2150 10   714 
2151 339  122 
2152 620  153 
2153 286  535 
2154 880  822 
2155 610  387 
2156 376  501 
2157 563  779 
2158 858  953 
2159 153  115 
2160 121  295 
2161 943  604 
2162 569  827 
2163 586  251 
2164 533  976 
2165 867  750 
2166 346  503 
2167 237  750 
2168 950  251 
2169 43   445 
2170 138  475 
2171 876  759 
2172 46   563 
2173 881  948 
2174 94   939 
2175 229  124 
2176 362  543 
2177 200  334 
2178 695  371 
2179 775  315 
2180 337  971 
2181 156  393 
2182 376  655 
2183 195  437 
2184 837  526 
2185 272  954 
2186 540  551 
2187 189  591 
2188 122  530 
2189 673  130 
2190 466  640 
2191 972  954 
2192 38   828 
2193 347  399 
2194 535  877 
2195 510  984 
2196 590  488 
2197 955  829 
2198 833  373 
2199 635  193 
2200 855  988 
2201 325  689 
2202 56   474 
2203 905  209 
2204 126  807 
2205 714  547 
2206 658  395 
2207 142  8   
2208 679  355 
2209 75   103 
2210 938  939 
2211 867  3   
2212 244  694 
2213 902  518 
2214 49   896 
2215 551  293 
2216 113  313 
2217 882  764 
2218 579  548 
2219 544  93  
2220 503  580 
2221 472  424 
2222 697  561 
2223 101  973 
2224 781  177 
2225 640  863 
2226 622  629 
2227 933  502 
2228 292  450 
2229 255  116 
2230 616  590 
2231 286  736 
2232 508  816 
2233 287  329 
2234 315  144 
2235 206  443 
2236 614  532 
2237 690  124 
2238 709  288 
2239 883  597 
2240 735  732 
2241 921  304 
2242 120  935 
2243 373  315 
2244 715  608 
2245 296  690 
2246 166  856 
2247 595  438 
2248 318  819 
2249 779  271 
2250 101  385 
2251 654  765 
2252 609  86  
2253 611  672 
2254 396  676 
2255 590  878 
2256 920  278 
2257 152  128 
2258 637  273 
2259 842  583 
2260 627  231 
2261 534  369 
2262 357  90  
2263 431  967 
2264 272  760 
2265 241  497 
2266 629  558 
2267 48   351 
2268 803  705 
2269 953  172 
2270 402  730 
2271 769  322 
2272 424  973 
2273 815  643 
2274 778  400 
2275 213  349 
2276 198  643 
2277 52   221 
2278 570  798 
2279 310  541 
2280 42   407 
2281 285  849 
2282 857  347 
2283 105  734 
2284 846  669 
2285 332  291 
2286 190  833 
2287 178  953 
2288 127  494 
2289 735  239 
2290 51   42  
2291 710  298 
2292 674  756 
2293 51   91  
2294 662  713 
2295 528  685 
2296 657  79  
2297 986  693 
2298 326  178 
2299 731  890 
2300 628  982 
2301 715  337 
2302 205  771 
2303 331  584 
2304 539  47  
2305 630  108 
2306 4    434 
2307 279  232 
2308 322  781 
2309 823  495 
2310 117  248 
2311 822  557 
2312 144  68  
2313 438  826 
2314 594  964 
2315 83   57  
2316 1    382 
2317 970  835 
2318 119  912 
2319 818  271 
2320 749  805 
2321 612  823 
2322 884  60  
2323 386  419 
2324 633  372 
2325 543  163 
2326 266  221 
2327 914  909 
2328 537  126 
2329 186  20  
2330 665  49  
2331 722  66  
2332 443  431 
2333 478  980 
2334 618  115 
2335 964  27  
2336 414  124 
2337 968  94  
2338 251  727 
2339 531  521 
2340 716  571 
2341 238  467 
2342 578  564 
2343 634  872 
2344 910  623 
2345 589  148 
2346 627  481 
2347 350  664 
2348 994  804 
2349 869  100 
2350 273  555 
2351 366  486 
2352 955  647 
2353 740  151 
2354 5    244 
2355 25   718 
2356 155  523 
2357 603  137 
2358 554  351 
2359 57   221 
2360 796  304 
2361 688  393 
2362 262  636 
2363 377  632 
2364 462  804 
2365 605  928 
2366 930  458 
2367 397  731 
2368 161  271 
2369 398  76  
2370 226  879 
2371 835  475 
2372 324  860 
2373 74   651 
2374 900  133 
2375 170  358 
2376 9    828 
2377 778  633 
2378 265  650 
2379 653  635 
2380 964  780 
2381 493  724 
2382 407  228 
2383 762  879 
2384 486  615 
2385 126  718 
2386 682  364 
2387 279  46  
2388 652  516 
2389 528  634 
2390 161  843 
2391 416  520 
2392 19   597 
2393 60   191 
2394 244  908 
2395 101  773 
2396 528  649 
2397 404  700 
2398 813  680 
2399 64   425 
2400 706  536 
2401 18   630 
2402 952  648 
2403 878  778 
2404 443  15  
2405 558  132 
2406 325  495 
2407 128  549 
2408 475  414 
2409 76   939 
2410 221  142 
2411 993  93  
2412 37   443 
2413 334  343 
2414 172  342 
2415 317  667 
2416 603  922 
2417 970  871 
2418 680  129 
2419 719  32  
2420 318  971 
2421 374  967 
2422 805  567 
2423 847  140 
2424 10   363 
2425 798  448 
2426 201  412 
2427 24   387 
2428 43   481 
2429 298  558 
2430 214  394 
2431 949  973 
2432 788  461 
2433 405  891 
2434 674  436 
2435 160  562 
2436 548  461 
2437 55   719 
2438 629  742 
2439 938  368 
2440 702  489 
2441 815  714 
2442 377  826 
2443 768  223 
2444 553  863 
2445 163  647 
2446 312  75  
2447 21   557 
2448 857  497 
2449 12   992 
2450 949  385 
2451 755  462 
2452 441  666 
2453 877  927 
2454 754  170 
2455 796  395 
2456 943  340 
2457 47   771 
2458 104  331 
2459 530  347 
2460 749  101 
2461 956  705 
2462 847  1000
2463 13   768 
2464 990  992 
2465 900  8   
2466 740  719 
2467 28   195 
2468 972  426 
2469 739  433 
2470 317  251 
2471 781  140 
2472 123  692 
2473 587  197 
2474 986  762 
2475 255  83  
2476 245  73  
2477 905  624 
2478 502  424 
2479 782  782 
2480 399  942 
2481 519  937 
2482 169  333 
2483 244  791 
2484 122  375 
2485 931  833 
2486 163  299 
2487 741  890 
2488 999  54  
2489 68   468 
2490 413  655 
2491 434  746 
2492 148  460 
2493 296  727 
2494 426  810 
2495 214  837 
2496 35   114 
2497 515  316 
2498 439  204 
2499 614  218 
2500 561  430 
2501 818  471 
2502 287  936 
2503 915  659 
2504 107  676 
2505 515  333 
2506 914  834 
2507 81   769 
2508 723  430 
2509 393  669 
2510 766  112 
2511 278  532 
2512 319  360 
2513 584  247 
2514 665  410 
2515 205  113 
2516 663  931 
2517 964  226 
2518 177  528 
2519 113  658 
2520 898  528 
2521 350  705 
2522 349  818 
2523 595  582 
2524 172  781 
2525 53   62  
2526 933  718 
2527 128  363 
2528 690  801 
2529 711  585 
2530 533  373 
2531 593  426 
2532 713  785 
2533 368  270 
2534 424  752 
2535 42   67  
2536 703  138 
2537 997  425 
2538 856  531 
2539 670  321 
2540 934  458 
2541 717  986 
2542 863  432 
2543 132  80  
2544 298  376 
2545 227  82  
2546 677  444 
2547 299  606 
2548 890  353 
2549 231  411 
2550 305  541 
2551 285  543 
2552 808  436 
2553 130  704 
2554 499  995 
2555 942  675 
2556 49   528 
2557 359  311 
2558 178  244 
2559 98   63  
2560 364  286 
2561 648  379 
2562 728  9   
2563 398  755 
2564 274  581 
2565 580  653 
2566 490  471 
2567 552  102 
2568 240  754 
2569 210  982 
2570 912  94  
2571 2    970 
2572 75   640 
2573 206  346 
2574 617  529 
2575 524  75  
2576 210  105 
2577 234  99  
2578 236  917 
2579 599  630 
2580 966  707 
2581 996  514 
2582 776  987 
2583 997  855 
2584 525  704 
2585 376  863 
2586 231  739 
2587 430  636 
2588 368  799 
2589 38   669 
2590 548  438 
2591 863  835 
2592 542  172 
2593 48   336 
2594 121  894 
2595 919  962 
2596 794  901 
2597 599  954 
2598 893  345 
2599 368  588 
2600 479  872 
2601 78   511 
2602 544  591 
2603 708  850 
2604 543  659 
2605 731  403 
2606 952  484 
2607 510  874 
2608 317  270 
2609 623  278 
2610 275  230 
2611 220  779 
2612 939  319 
2613 299  668 
2614 617  425 
2615 981  968 
2616 380  449 
2617 423  631 
2618 652  771 
2619 658  492 
2620 164  613 
2621 436  450 
2622 700  535 
2623 240  195 
2624 867  62  
2625 868  461 
2626 227  479 
2627 999  549 
2628 505  225 
2629 655  297 
2630 783  356 
2631 587  431 
2632 643  465 
2633 294  883 
2634 459  816 
2635 282  795 
2636 304  767 
2637 57   749 
2638 867  284 
2639 580  963 
2640 248  428 
2641 448  190 
2642 247  550 
2643 457  416 
2644 938  561 
2645 334  606 
2646 95   498 
2647 597  860 
2648 581  423 
2649 871  333 
2650 965  792 
2651 573  195 
2652 41   946 
2653 975  211 
2654 558  873 
2655 614  561 
2656 410  153 
2657 340  346 
2658 487  469 
2659 805  816 
2660 992  793 
2661 120  964 
2662 893  727 
2663 295  631 
2664 84   726 
2665 585  111 
2666 529  967 
2667 440  954 
2668 393  580 
2669 67   381 
2670 215  301 
2671 401  945 
2672 225  505 
2673 867  950 
2674 428  186 
2675 910  850 
2676 519  458 
2677 388  600 
2678 557  147 
2679 686  457 
2680 428  329 
2681 780  950 
2682 380  946 
2683 998  510 
2684 671  300 
2685 214  329 
2686 108  836 
2687 452  470 
2688 95   606 
2689 404  273 
2690 137  442 
2691 997  190 
2692 391  629 
2693 341  954 
2694 548  648 
2695 878  147 
2696 751  899 
2697 471  715 
2698 20   353 
2699 617  363 
2700 265  94  
2701 88   599 
2702 820  776 
2703 323  464 
2704 716  361 
2705 241  79  
2706 276  954 
2707 385  725 
2708 759  261 
2709 967  824 
2710 91   973 
2711 421  212 
2712 424  712 
2713 386  621 
2714 496  155 
2715 579  816 
2716 190  915 
2717 691  650 
2718 454  804 
2719 934  18  
2720 155  473 
2721 299  521 
2722 873  700 
2723 910  91  
2724 472  67  
2725 809  836 
2726 442  807 
2727 977  654 
2728 619  557 
2729 620  258 
2730 160  288 
2731 531  275 
2732 736  783 
2733 553  335 
2734 826  989 
2735 350  503 
2736 173  614 
2737 231  304 
2738 143  590 
2739 516  212 
2740 165  898 
2741 279  158 
2742 248  456 
2743 728  82  
2744 754  730 
2745 832  48  
2746 978  742 
2747 562  489 
2748 121  47  
2749 321  573 
2750 586  483 
2751 549  253 
2752 992  950 
2753 663  101 
2754 496  517 
2755 741  837 
2756 62   884 
2757 373  321 
2758 11   706 
2759 876  344 
2760 248  21  
2761 525  469 
2762 637  517 
2763 177  47  
2764 140  949 
2765 128  981 
2766 712  819 
2767 948  915 
2768 589  627 
2769 861  462 
2770 572  775 
2771 741  648 
2772 290  232 
2773 186  41  
2774 372  348 
2775 926  421 
2776 341  651 
2777 323  112 
2778 399  303 
2779 741  362 
2780 779  133 
2781 543  420 
2782 232  182 
2783 949  893 
2784 896  103 
2785 803  267 
2786 773  431 
2787 21   330 
2788 497  790 
2789 668  667 
2790 815  868 
2791 105  345 
2792 949  238 
2793 195  360 
2794 398  271 
2795 648  550 
2796 351  341 
2797 564  378 
2798 712  429 
2799 983  368 
2800 68   521 
2801 877  781 
2802 699  697 
2803 744  94  
2804 726  210 
2805 929  956 
2806 933  924 
2807 455  72  
2808 810  105 
2809 756  813 
2810 8    419 
2811 284  80  
2812 838  523 
2813 195  535 
2814 749  100 
2815 342  858 
2816 322  287 
2817 551  434 
2818 645  185 
2819 868  310 
2820 501  299 
2821 892  428 
2822 386  659 
2823 922  577 
2824 377  486 
2825 786  400 
2826 572  385 
2827 723  535 
2828 406  449 
2829 153  565 
2830 623  770 
2831 643  182 
2832 369  715 
2833 301  294 
2834 176  577 
2835 349  58  
2836 991  767 
2837 135  931 
2838 710  29  
2839 235  191 
2840 295  729 
2841 469  882 
2842 418  740 
2843 439  94  
2844 775  736 
2845 172  315 
2846 872  887 
2847 945  253 
2848 729  678 
2849 970  664 
2850 332  689 
2851 45   84  
2852 33   628 
2853 72   206 
2854 498  280 
2855 318  631 
2856 500  894 
2857 138  473 
2858 229  408 
2859 181  293 
2860 423  296 
2861 408  127 
2862 376  947 
2863 162  50  
2864 396  992 
2865 702  680 
2866 391  671 
2867 968  230 
2868 177  608 
2869 252  60  
2870 397  943 
2871 881  660 
2872 609  613 
2873 243  419 
2874 523  309 
2875 75   315 
2876 366  270 
2877 556  714 
2878 373  562 
2879 100  862 
2880 229  574 
2881 290  914 
2882 973  431 
2883 593  331 
2884 190  939 
2885 161  679 
2886 147  884 
2887 118  153 
2888 355  249 
2889 981  21  
2890 361  884 
2891 877  164 
2892 960  272 
2893 598  262 
2894 250  112 
2895 378  941 
2896 820  260 
2897 22   834 
2898 994  115 
2899 478  128 
2900 645  447 
2901 1000 896 
2902 88   250 
2903 861  961 
2904 473  512 
2905 918  264 
2906 719  423 
2907 424  220 
2908 633  802 
2909 774  952 
2910 706  558 
2911 157  986 
2912 266  739 
2913 191  906 
2914 35   418 
2915 405  284 
2916 728  953 
2917 145  695 
2918 365  788 
2919 838  221 
2920 624  329 
2921 988  234 
2922 514  191 
2923 525  285 
2924 932  481 
2925 512  563 
2926 766  2   
2927 685  104 
2928 794  369 
2929 101  353 
2930 251  604 
2931 971  839 
2932 76   545 
2933 208  361 
2934 620  722 
2935 972  619 
2936 974  489 
2937 869  253 
2938 214  290 
2939 436  792 
2940 988  733 
2941 76   263 
2942 755  250 
2943 845  68  
2944 638  645 
2945 971  562 
2946 989  805 
2947 264  792 
2948 764  235 
2949 857  447 
2950 674  223 
2951 311  930 
2952 493  59  
2953 976  27  
2954 833  422 
2955 613  986 
2956 100  227 
2957 651  757 
2958 373  534 
2959 66   190 
2960 268  934 
2961 527  479 
2962 75   436 
2963 661  677 
2964 424  380 
2965 852  612 
2966 236  129 
2967 697  369 
2968 551  378 
2969 625  102 
2970 643  579 
2971 481  750 
2972 843  56  
2973 553  338 
2974 535  710 
2975 490  647 
2976 198  220 
2977 183  680 
2978 900  336 
2979 209  985 
2980 155  139 
2981 212  72  
2982 931  570 
2983 736  578 
2984 424  184 
2985 995  675 
2986 562  450 
2987 620  76  
2988 932  208 
2989 780  412 
2990 272  139 
2991 805  831 
2992 239  599 
2993 295  737 
2994 900  517 
2995 775  667 
2996 840  478 
2997 513  424 
2998 567  789 
2999 784  118 
3000 469  810 
3001 571  350 
3002 75   687 
3003 353  833 
3004 211  351 
3005 987  398 
3006 534  49  
3007 590  729 
3008 332  761 
3009 340  936 
3010 825  584 
3011 58   89  
3012 957  807 
3013 85   768 
3014 682  722 
3015 632  173 
3016 566  96  
3017 966  974 
3018 480  537 
3019 82   709 
3020 603  493 
3021 15   267 
3022 881  707 
3023 915  793 
3024 181  63  
3025 613  28  
3026 686  680 
3027 854  286 
3028 159  744 
3029 668  598 
3030 775  402 
3031 333  293 
3032 13   679 
3033 669  60  
3034 104  194 
3035 602  65  
3036 655  249 
3037 469  86  
3038 74   550 
3039 369  226 
3040 541  226 
3041 319  756 
3042 599  300 
3043 748  938 
3044 52   977 
3045 471  921 
3046 528  862 
3047 781  388 
3048 677  371 
3049 770  695 
3050 735  205 
3051 847  903 
3052 647  779 
3053 47   79  
3054 14   444 
3055 252  927 
3056 274  345 
3057 701  222 
3058 170  646 
3059 944  893 
3060 250  168 
3061 144  885 
3062 344  173 
3063 255  441 
3064 202  55  
3065 37   246 
3066 23   39  
3067 188  102 
3068 903  663 
3069 614  752 
3070 47   429 
3071 107  126 
3072 731  856 
3073 184  645 
3074 956  99  
3075 991  666 
3076 478  491 
3077 690  179 
3078 50   210 
3079 527  612 
3080 987  863 
3081 505  335 
3082 128  648 
3083 917  632 
3084 365  843 
3085 442  344 
3086 704  123 
3087 947  401 
3088 40   339 
3089 46   457 
3090 163  111 
3091 914  717 
3092 131  717 
3093 558  100 
3094 577  525 
3095 618  179 
3096 564  993 
3097 324  58  
3098 179  729 
3099 399  520 
3100 76   651 
3101 438  38  
3102 79   304 
3103 266  255 
3104 581  990 
3105 432  203 
3106 716  891 
3107 793  198 
3108 116  811 
3109 577  815 
3110 512  362 
3111 128  99  
3112 257  257 
3113 556  163 
3114 479  636 
3115 806  735 
3116 494  91  
3117 674  37  
3118 708  772 
3119 48   744 
3120 11   508 
3121 798  898 
3122 181  900 
3123 399  125 
3124 219  369 
3125 788  156 
3126 632  534 
3127 138  969 
3128 964  573 
3129 532  153 
3130 950  632 
3131 367  542 
3132 373  605 
3133 941  795 
3134 526  955 
3135 483  53  
3136 587  699 
3137 825  258 
3138 809  645 
3139 937  472 
3140 369  142 
3141 77   597 
3142 653  524 
3143 934  63  
3144 665  794 
3145 332  357 
3146 152  963 
3147 385  978 
3148 528  954 
3149 156  923 
3150 874  820 
3151 558  746 
3152 875  418 
3153 412  700 
3154 899  178 
3155 518  984 
3156 631  865 
3157 429  991 
3158 175  143 
3159 140  278 
3160 966  142 
3161 754  620 
3162 188  10  
3163 852  225 
3164 448  231 
3165 653  976 
3166 801  677 
3167 70   98  
3168 700  429 
3169 791  70  
3170 408  533 
3171 170  924 
3172 279  274 
3173 559  474 
3174 781  108 
3175 675  761 
3176 965  991 
3177 819  265 
3178 576  18  
3179 206  461 
3180 297  535 
3181 335  235 
3182 822  747 
3183 435  641 
3184 738  314 
3185 991  924 
3186 315  87  
3187 980  355 
3188 638  323 
3189 127  730 
3190 510  214 
3191 718  475 
3192 149  996 
3193 188  590 
3194 44   254 
3195 806  910 
3196 751  262 
3197 55   271 
3198 996  511 
3199 300  438 
3200 301  907 
3201 858  504 
3202 12   578 
3203 159  509 
3204 720  489 
3205 385  336 
3206 3    769 
3207 501  936 
3208 376  547 
3209 358  599 
3210 837  634 
3211 829  826 
3212 910  549 
3213 967  588 
3214 254  663 
3215 76   371 
3216 522  21  
3217 209  278 
3218 502  701 
3219 756  620 
3220 151  752 
3221 371  518 
3222 651  712 
3223 601  933 
3224 259  691 
3225 226  674 
3226 104  282 
3227 469  14  
3228 900  200 
3229 497  381 
3230 830  9   
3231 155  275 
3232 247  137 
3233 605  791 
3234 507  804 
3235 199  42  
3236 147  887 
3237 728  382 
3238 714  945 
3239 307  125 
3240 142  190 
3241 753  925 
3242 986  954 
3243 352  594 
3244 374  423 
3245 571  649 
3246 365  608 
3247 187  640 
3248 340  98  
3249 253  671 
3250 903  735 
3251 425  676 
3252 305  846 
3253 583  375 
3254 468  270 
3255 179  853 
3256 1    629 
3257 315  149 
3258 832  121 
3259 409  216 
3260 463  21  
3261 527  604 
3262 107  471 
3263 295  764 
3264 629  70  
3265 408  480 
3266 563  872 
3267 430  817 
3268 384  409 
3269 20   565 
3270 594  878 
3271 851  37  
3272 945  24  
3273 927  408 
3274 804  213 
3275 111  741 
3276 609  107 
3277 864  424 
3278 885  270 
3279 690  300 
3280 215  267 
3281 500  851 
3282 358  273 
3283 508  358 
3284 402  567 
3285 664  798 
3286 717  342 
3287 21   431 
3288 519  480 
3289 557  173 
3290 870  444 
3291 393  776 
3292 105  246 
3293 395  374 
3294 599  967 
3295 52   442 
3296 203  574 
3297 811  191 
3298 314  509 
3299 946  922 
3300 67   223 
3301 565  836 
3302 329  996 
3303 720  243 
3304 651  871 
3305 356  231 
3306 753  381 
3307 971  386 
3308 535  797 
3309 789  765 
3310 702  310 
3311 223  337 
3312 62   81  
3313 65   851 
3314 161  352 
3315 252  295 
3316 532  337 
3317 459  71  
3318 612  7   
3319 85   129 
3320 97   723 
3321 494  591 
3322 259  316 
3323 596  755 
3324 787  242 
3325 437  949 
3326 709  973 
3327 925  640 
3328 305  575 
3329 748  869 
3330 951  896 
3331 862  229 
3332 991  387 
3333 198  221 
3334 515  813 
3335 398  947 
3336 778  821 
3337 601  494 
3338 178  105 
3339 35   496 
3340 438  543 
3341 790  352 
3342 974  765 
3343 847  369 
3344 259  248 
3345 518  819 
3346 460  815 
3347 62   719 
3348 875  136 
3349 503  843 
3350 697  812 
3351 948  667 
3352 272  140 
3353 495  952 
3354 187  507 
3355 663  432 
3356 463  414 
3357 373  284 
3358 129  422 
3359 337  315 
3360 672  988 
3361 818  266 
3362 89   894 
3363 605  114 
3364 292  933 
3365 572  893 
3366 457  994 
3367 817  66  
3368 157  481 
3369 712  872 
3370 729  782 
3371 604  398 
3372 58   102 
3373 68   83  
3374 769  16  
3375 765  110 
3376 234  502 
3377 785  782 
3378 327  599 
3379 385  408 
3380 379  268 
3381 696  570 
3382 12   665 
3383 570  223 
3384 474  40  
3385 91   176 
3386 459  436 
3387 793  436 
3388 668  544 
3389 156  460 
3390 707  491 
3391 963  885 
3392 111  403 
3393 366  340 
3394 596  817 
3395 217  996 
3396 536  880 
3397 350  840 
3398 597  329 
3399 798  720 
3400 416  958 
3401 973  630 
3402 833  163 
3403 344  400 
3404 271  481 
3405 815  228 
3406 523  824 
3407 669  718 
3408 264  369 
3409 959  564 
3410 322  475 
3411 325  936 
3412 429  617 
3413 771  258 
3414 773  688 
3415 758  406 
3416 1000 586 
3417 52   615 
3418 606  202 
3419 718  768 
3420 866  15  
3421 313  885 
3422 481  491 
3423 541  549 
3424 49   687 
3425 526  395 
3426 880  191 
3427 165  738 
3428 44   501 
3429 98   711 
3430 118  642 
3431 46   95  
3432 619  107 
3433 837  176 
3434 303  628 
3435 987  719 
3436 852  275 
3437 46   462 
3438 585  184 
3439 896  573 
3440 336  586 
3441 245  694 
3442 543  243 
3443 945  32  
3444 862  575 
3445 663  698 
3446 704  393 
3447 922  368 
3448 897  54  
3449 558  327 
3450 872  586 
3451 300  467 
3452 564  768 
3453 271  754 
3454 807  412 
3455 708  103 
3456 200  342 
3457 312  368 
3458 189  694 
3459 826  345 
3460 60   837 
3461 498  182 
3462 543  708 
3463 163  648 
3464 650  154 
3465 834  943 
3466 997  289 
3467 320  553 
3468 527  368 
3469 644  444 
3470 203  804 
3471 172  729 
3472 377  537 
3473 467  667 
3474 891  147 
3475 164  729 
3476 74   603 
3477 866  495 
3478 95   112 
3479 924  98  
3480 47   253 
3481 86   349 
3482 269  147 
3483 606  388 
3484 942  650 
3485 584  854 
3486 344  27  
3487 900  410 
3488 151  0   
3489 282  849 
3490 653  894 
3491 529  432 
3492 468  132 
3493 876  9   
3494 32   904 
3495 678  275 
3496 684  852 
3497 205  887 
3498 999  845 
3499 305  801 
3500 519  938 
3501 331  533 
3502 174  61  
3503 364  475 
3504 202  266 
3505 993  13  
3506 830  648 
3507 486  66  
3508 969  100 
3509 301  87  
3510 306  431 
3511 183  87  
3512 261  761 
3513 922  293 
3514 604  455 
3515 881  846 
3516 438  3   
3517 427  798 
3518 546  456 
3519 589  486 
3520 291  319 
3521 759  794 
3522 261  411 
3523 797  761 
3524 929  417 
3525 935  335 
3526 992  271 
3527 276  56  
3528 833  781 
3529 967  702 
3530 470  882 
3531 471  431 
3532 807  273 
3533 42   669 
3534 846  201 
3535 704  802 
3536 470  237 
3537 733  681 
3538 661  316 
3539 593  30  
3540 906  181 
3541 281  640 
3542 104  125 
3543 503  111 
3544 52   197 
3545 981  832 
3546 588  358 
3547 790  942 
3548 661  542 
3549 848  251 
3550 226  675 
3551 373  560 
3552 155  357 
3553 88   640 
3554 216  373 
3555 752  615 
3556 164  765 
3557 169  833 
3558 35   872 
3559 307  207 
3560 792  577 
3561 445  101 
3562 212  336 
3563 530  205 
3564 553  372 
3565 302  321 
3566 378  939 
3567 13   178 
3568 783  434 
3569 714  769 
3570 288  415 
3571 978  906 
3572 795  64  
3573 279  83  
3574 815  13  
3575 981  373 
3576 931  512 
3577 279  192 
3578 763  421 
3579 156  525 
3580 586  470 
3581 608  610 
3582 979  253 
3583 64   404 
3584 512  888 
3585 857  729 
3586 685  307 
3587 558  195 
3588 357  898 
3589 619  51  
3590 1    278 
3591 755  531 
3592 239  418 
3593 336  899 
3594 150  177 
3595 335  895 
3596 46   262 
3597 236  912 
3598 936  998 
3599 3    561 
3600 738  590 
3601 724  909 
3602 409  874 
3603 637  700 
3604 943  749 
3605 103  320 
3606 585  449 
3607 395  395 
3608 883  228 
3609 387  831 
3610 512  676 
3611 177  343 
3612 250  903 
3613 927  185 
3614 898  465 
3615 438  414 
3616 941  269 
3617 444  811 
3618 584  22  
3619 931  267 
3620 725  811 
3621 565  722 
3622 994  796 
3623 198  884 
3624 15   422 
3625 199  453 
3626 418  428 
3627 630  875 
3628 752  677 
3629 713  673 
3630 327  289 
3631 955  748 
3632 61   661 
3633 562  858 
3634 156  143 
3635 674  844 
3636 125  558 
3637 401  304 
3638 256  605 
3639 636  158 
3640 234  998 
3641 787  132 
3642 734  759 
3643 882  826 
3644 187  848 
3645 773  953 
3646 763  5   
3647 49   855 
3648 817  941 
3649 434  267 
3650 36   555 
3651 806  51  
3652 772  103 
3653 296  312 
3654 297  1   
3655 652  653 
3656 155  111 
3657 501  225 
3658 781  495 
3659 389  561 
3660 322  500 
3661 967  4   
3662 473  832 
3663 240  85  
3664 532  662 
3665 536  721 
3666 813  559 
3667 175  326 
3668 531  470 
3669 593  881 
3670 724  493 
3671 874  446 
3672 953  965 
3673 273  459 
3674 221  53  
3675 41   951 
3676 171  768 
3677 776  446 
3678 153  781 
3679 166  670 
3680 447  983 
3681 232  882 
3682 323  605 
3683 395  888 
3684 178  328 
3685 201  57  
3686 562  34  
3687 453  339 
3688 366  588 
3689 40   264 
3690 788  727 
3691 663  657 
3692 701  606 
3693 386  447 
3694 871  786 
3695 638  235 
3696 33   562 
3697 362  814 
3698 400  527 
3699 664  972 
3700 662  363 
3701 945  997 
3702 513  249 
3703 399  468 
3704 771  673 
3705 48   480 
3706 945  886 
3707 485  181 
3708 530  796 
3709 11   244 
3710 489  306 
3711 234  503 
3712 128  8   
3713 771  718 
3714 479  939 
3715 767  688 
3716 471  343 
3717 509  640 
3718 938  408 
3719 367  806 
3720 630  964 
3721 461  285 
3722 483  317 
3723 73   877 
3724 94   641 
3725 321  315 
3726 527  287 
3727 697  64  
3728 806  482 
3729 330  571 
3730 367  516 
3731 705  733 
3732 298  29  
3733 333  692 
3734 851  971 
3735 856  607 
3736 946  737 
3737 66   17  
3738 325  740 
3739 213  95  
3740 195  572 
3741 342  829 
3742 972  220 
3743 494  616 
3744 597  313 
3745 173  833 
3746 28   68  
3747 48   778 
3748 910  94  
3749 182  945 
3750 203  502 
3751 666  962 
3752 956  680 
3753 338  659 
3754 113  453 
3755 352  539 
3756 717  705 
3757 425  961 
3758 947  68  
3759 288  455 
3760 622  582 
3761 878  556 
3762 184  536 
3763 719  488 
3764 296  50  
3765 701  77  
3766 297  287 
3767 170  535 
3768 391  445 
3769 47   431 
3770 503  697 
3771 987  800 
3772 162  903 
3773 606  90  
3774 914  406 
3775 936  98  
3776 883  755 
3777 350  276 
3778 169  341 
3779 524  857 
3780 966  66  
3781 771  176 
3782 370  885 
3783 10   674 
3784 175  440 
3785 412  798 
3786 783  825 
3787 440  891 
3788 554  723 
3789 520  607 
3790 745  528 
3791 693  784 
3792 34   431 
3793 569  802 
3794 721  559 
3795 888  488 
3796 979  915 
3797 33   621 
3798 582  284 
3799 984  571 
3800 720  737 
3801 883  303 
3802 989  310 
3803 701  610 
3804 760  34  
3805 371  67  
3806 962  674 
3807 430  584 
3808 289  692 
3809 326  745 
3810 223  839 
3811 78   126 
3812 335  597 
3813 712  20  
3814 471  21  
3815 290  86  
3816 185  884 
3817 295  203 
3818 668  871 
3819 686  488 
3820 252  164 
3821 362  548 
3822 253  349 
3823 426  281 
3824 389  403 
3825 824  396 
3826 734  883 
3827 788  47  
3828 243  456 
3829 190  193 
3830 651  849 
3831 543  711 
3832 376  743 
3833 746  465 
3834 214  219 
3835 308  148 
3836 933  679 
3837 39   36  
3838 223  283 
3839 260  279 
3840 647  677 
3841 940  433 
3842 656  888 
3843 270  200 
3844 972  994 
3845 705  697 
3846 190  35  
3847 412  105 
3848 661  618 
3849 22   744 
3850 208  782 
3851 619  748 
3852 657  975 
3853 213  115 
3854 485  766 
3855 515  569 
3856 878  383 
3857 678  935 
3858 702  41  
3859 612  175 
3860 874  818 
3861 446  747 
3862 951  858 
3863 151  146 
3864 647  873 
3865 959  555 
3866 658  66  
3867 217  274 
3868 126  750 
3869 499  952 
3870 922  767 
3871 45   636 
3872 706  342 
3873 154  357 
3874 434  53  
3875 532  846 
3876 278  130 
3877 743  506 
3878 482  809 
3879 322  881 
3880 417  735 
3881 838  101 
3882 383  328 
3883 737  918 
3884 6    651 
3885 671  655 
3886 309  970 
3887 291  115 
3888 789  464 
3889 793  789 
3890 266  959 
3891 908  450 
3892 676  102 
3893 931  931 
3894 272  356 
3895 54   822 
3896 242  558 
3897 370  635 
3898 650  537 
3899 79   353 
3900 524  50  
3901 104  531 
3902 751  403 
3903 935  616 
3904 936  922 
3905 409  830 
3906 48   74  
3907 16   1000
3908 110  504 
3909 662  275 
3910 885  586 
3911 746  128 
3912 603  265 
3913 158  18  
3914 487  930 
3915 457  667 
3916 354  809 
3917 688  9   
3918 87   9   
3919 253  353 
3920 806  761 
3921 751  230 
3922 833  701 
3923 794  941 
3924 102  590 
3925 983  51  
3926 843  580 
3927 57   63  
3928 739  567 
3929 132  431 
3930 940  262 
3931 81   449 
3932 635  998 
3933 368  691 
3934 384  648 
3935 522  994 
3936 445  785 
3937 411  865 
3938 436  212 
3939 100  857 
3940 749  180 
3941 679  137 
3942 265  373 
3943 835  407 
3944 75   26  
3945 991  24  
3946 577  252 
3947 479  308 
3948 799  853 
3949 87   659 
3950 458  241 
3951 792  753 
3952 596  447 
3953 407  40  
3954 544  82  
3955 946  282 
3956 981  131 
3957 182  744 
3958 143  530 
3959 863  227 
3960 113  397 
3961 155  160 
3962 264  409 
3963 526  465 
3964 396  142 
3965 867  373 
3966 317  908 
3967 49   758 
3968 178  466 
3969 511  170 
3970 421  702 
3971 836  531 
3972 802  671 
3973 867  595 
3974 45   915 
3975 675  356 
3976 469  787 
3977 310  281 
3978 510  97  
3979 975  25  
3980 888  433 
3981 872  854 
3982 343  323 
3983 948  935 
3984 438  125 
3985 292  899 
3986 21   203 
3987 776  880 
3988 372  241 
3989 263  2   
3990 733  200 
3991 163  182 
3992 332  551 
3993 150  400 
3994 462  486 
3995 286  48  
3996 180  595 
3997 272  622 
3998 348  281 
3999 78   182 
4000 262  73  
4001 824  614 
4002 935  370 
4003 59   711 
4004 775  133 
4005 82   732 
4006 547  890 
4007 63   4   
4008 436  906 
4009 860  386 
4010 863  621 
4011 80   84  
4012 831  3   
4013 688  275 
4014 483  145 
4015 946  875 
4016 264  795 
4017 461  457 
4018 925  90  
4019 311  959 
4020 522  902 
4021 855  782 
4022 843  846 
4023 271  233 
4024 561  709 
4025 627  580 
4026 131  491 
4027 459  982 
4028 498  560 
4029 502  40  
4030 948  178 
4031 587  466 
4032 869  912 
4033 778  977 
4034 925  670 
4035 321  922 
4036 411  24  
4037 14   423 
4038 878  678 
4039 772  247 
4040 717  732 
4041 847  605 
4042 499  963 
4043 688  814 
4044 729  182 
4045 268  278 
4046 326  36  
4047 558  915 
4048 705  173 
4049 795  47  
4050 616  512 
4051 856  47  
4052 514  461 
4053 397  199 
4054 880  149 
4055 993  362 
4056 762  153 
4057 176  524 
4058 652  323 
4059 377  253 
4060 196  583 
4061 503  837 
4062 71   385 
4063 478  413 
4064 614  565 
4065 440  864 
4066 58   659 
4067 63   646 
4068 193  652 
4069 819  752 
4070 384  359 
4071 735  588 
4072 809  458 
4073 991  982 
4074 386  269 
4075 633  142 
4076 131  722 
4077 706  834 
4078 305  219 
4079 324  193 
4080 676  958 
4081 624  455 
4082 662  249 
4083 974  191 
4084 281  146 
4085 216  980 
4086 90   949 
4087 966  946 
4088 96   270 
4089 500  544 
4090 564  733 
4091 696  589 
4092 713  401 
4093 327  593 
4094 901  642 
4095 12   667 
4096 38   927 
4097 609  561 
4098 522  88  
4099 122  740 
4100 871  721 
4101 802  440 
4102 626  148 
4103 293  547 
4104 916  432 
4105 129  514 
4106 366  491 
4107 185  426 
4108 958  815 
4109 467  784 
4110 319  787 
4111 583  582 
4112 160  888 
4113 734  950 
4114 679  115 
4115 38   889 
4116 111  413 
4117 649  420 
4118 341  152 
4119 605  955 
4120 142  939 
4121 470  500 
4122 803  943 
4123 735  296 
4124 886  908 
4125 133  236 
4126 282  566 
4127 32   17  
4128 930  566 
4129 750  175 
4130 803  828 
4131 960  701 
4132 703  351 
4133 613  733 
4134 155  477 
4135 230  819 
4136 346  544 
4137 619  545 
4138 230  898 
4139 875  443 
4140 433  620 
4141 52   754 
4142 477  891 
4143 117  276 
4144 675  992 
4145 748  218 
4146 178  184 
4147 239  801 
4148 700  277 
4149 516  208 
4150 874  512 
4151 435  392 
4152 914  407 
4153 154  32  
4154 357  743 
4155 714  56  
4156 75   622 
4157 480  158 
4158 904  528 
4159 433  40  
4160 213  756 
4161 36   147 
4162 720  964 
4163 277  151 
4164 41   547 
4165 278  944 
4166 757  503 
4167 372  11  
4168 687  476 
4169 743  4   
4170 653  284 
4171 512  976 
4172 858  862 
4173 305  118 
4174 942  155 
4175 269  531 
4176 766  383 
4177 227  776 
4178 36   226 
4179 438  138 
4180 953  563 
4181 249  546 
4182 141  682 
4183 950  128 
4184 760  914 
4185 589  337 
4186 902  438 
4187 7    214 
4188 210  478 
4189 104  869 
4190 177  751 
4191 327  565 
4192 879  504 
4193 806  722 
4194 702  515 
4195 725  994 
4196 617  41  
4197 523  188 
4198 525  998 
4199 410  863 
4200 342  402 
4201 859  100 
4202 271  914 
4203 536  1   
4204 39   86  
4205 261  232 
4206 266  318 
4207 252  395 
4208 698  285 
4209 517  807 
4210 385  644 
4211 725  708 
4212 213  272 
4213 985  303 
4214 485  539 
4215 18   350 
4216 237  106 
4217 311  999 
4218 419  997 
4219 982  76  
4220 397  762 
4221 881  95  
4222 991  150 
4223 226  780 
4224 298  129 
4225 672  158 
4226 446  281 
4227 673  331 
4228 584  634 
4229 821  883 
4230 770  743 
4231 293  394 
4232 938  945 
4233 622  769 
4234 786  125 
4235 644  99  
4236 425  915 
4237 450  614 
4238 911  663 
4239 296  128 
4240 630  143 
4241 499  955 
4242 131  193 
4243 889  263 
4244 117  488 
4245 819  108 
4246 729  238 
4247 13   29  
4248 999  847 
4249 467  70  
4250 620  0   
4251 804  335 
4252 607  282 
4253 886  455 
4254 117  10  
4255 690  82  
4256 946  40  
4257 340  303 
4258 991  520 
4259 667  846 
4260 282  480 
4261 961  557 
4262 653  175 
4263 177  254 
4264 440  792 
4265 457  862 
4266 679  927 
4267 956  352 
4268 908  451 
4269 128  949 
4270 440  903 
4271 646  587 
4272 276  373 
4273 599  617 
4274 620  964 
4275 659  812 
4276 713  254 
4277 168  549 
4278 799  8   
4279 747  459 
4280 323  963 
4281 197  934 
4282 737  337 
4283 958  683 
4284 741  313 
4285 560  246 
4286 462  314 
4287 872  311 
4288 928  761 
4289 765  20  
4290 911  480 
4291 733  566 
4292 350  714 
4293 703  834 
4294 1000 155 
4295 0    187 
4296 751  86  
4297 294  317 
4298 760  763 
4299 595  570 
4300 593  429 
4301 924  819 
4302 677  581 
4303 473  479 
4304 809  597 
4305 185  339 
4306 705  644 
4307 119  46  
4308 321  147 
4309 764  417 
4310 838  984 
4311 269  467 
4312 52   997 
4313 640  745 
4314 694  604 
4315 716  60  
4316 40   549 
4317 169  839 
4318 21   814 
4319 351  107 
4320 668  191 
4321 890  507 
4322 869  746 
4323 782  179 
4324 571  940 
4325 950  869 
4326 536  985 
4327 203  32  
4328 60   431 
4329 523  757 
4330 601  245 
4331 985  86  
4332 952  777 
4333 645  298 
4334 204  974 
4335 41   46  
4336 833  26  
4337 895  844 
4338 201  848 
4339 97   775 
4340 421  347 
4341 83   340 
4342 136  709 
4343 875  272 
4344 912  294 
4345 732  703 
4346 364  283 
4347 982  903 
4348 148  655 
4349 650  841 
4350 16   9   
4351 549  177 
4352 55   168 
4353 440  837 
4354 864  333 
4355 904  552 
4356 546  665 
4357 619  53  
4358 310  286 
4359 25   414 
4360 499  467 
4361 82   153 
4362 6    519 
4363 249  760 
4364 931  94  
4365 624  476 
4366 804  208 
4367 23   556 
4368 337  365 
4369 853  877 
4370 231  649 
4371 508  498 
4372 71   992 
4373 510  320 
4374 828  701 
4375 573  638 
4376 334  178 
4377 929  466 
4378 950  72  
4379 797  731 
4380 745  154 
4381 581  804 
4382 567  497 
4383 0    121 
4384 777  919 
4385 261  270 
4386 447  87  
4387 622  419 
4388 821  326 
4389 306  917 
4390 586  733 
4391 954  857 
4392 371  713 
4393 9    334 
4394 907  357 
4395 926  131 
4396 513  814 
4397 381  416 
4398 272  924 
4399 886  647 
4400 872  49  
4401 217  796 
4402 365  108 
4403 919  703 
4404 406  982 
4405 61   659 
4406 959  174 
4407 985  359 
4408 911  11  
4409 551  16  
4410 419  957 
4411 590  462 
4412 316  967 
4413 501  461 
4414 561  708 
4415 7    738 
4416 657  517 
4417 169  163 
4418 908  658 
4419 195  979 
4420 217  175 
4421 198  310 
4422 278  510 
4423 226  935 
4424 151  868 
4425 463  950 
4426 587  418 
4427 348  630 
4428 496  417 
4429 64   165 
4430 9    740 
4431 191  756 
4432 503  550 
4433 143  625 
4434 438  611 
4435 457  474 
4436 114  963 
4437 667  123 
4438 559  185 
4439 248  433 
4440 190  564 
4441 672  275 
4442 981  279 
4443 724  376 
4444 369  663 
4445 370  847 
4446 740  881 
4447 637  907 
4448 927  347 
4449 496  621 
4450 196  358 
4451 326  993 
4452 239  448 
4453 22   430 
4454 179  705 
4455 325  279 
4456 885  495 
4457 7    463 
4458 907  197 
4459 715  864 
4460 935  563 
4461 609  485 
4462 10   192 
4463 500  690 
4464 506  819 
4465 485  34  
4466 664  893 
4467 112  906 
4468 284  534 
4469 394  242 
4470 655  513 
4471 971  756 
4472 78   258 
4473 189  687 
4474 100  478 
4475 17   774 
4476 803  739 
4477 665  710 
4478 691  834 
4479 530  572 
4480 733  751 
4481 972  873 
4482 826  307 
4483 846  950 
4484 686  799 
4485 63   392 
4486 651  644 
4487 198  737 
4488 471  695 
4489 679  114 
4490 167  350 
4491 868  57  
4492 948  113 
4493 566  416 
4494 199  201 
4495 682  165 
4496 791  517 
4497 687  724 
4498 482  479 
4499 561  736 
4500 181  767 
4501 22   701 
4502 4    88  
4503 498  597 
4504 240  228 
4505 597  168 
4506 134  862 
4507 36   728 
4508 607  3   
4509 809  984 
4510 807  637 
4511 554  157 
4512 597  25  
4513 210  742 
4514 762  75  
4515 269  991 
4516 456  698 
4517 330  223 
4518 679  660 
4519 22   249 
4520 10   721 
4521 266  679 
4522 247  694 
4523 840  512 
4524 418  618 
4525 455  965 
4526 245  401 
4527 214  960 
4528 766  749 
4529 969  77  
4530 988  319 
4531 839  611 
4532 951  421 
4533 148  566 
4534 224  148 
4535 477  318 
4536 22   475 
4537 331  840 
4538 442  215 
4539 634  355 
4540 581  184 
4541 895  344 
4542 272  378 
4543 646  620 
4544 349  356 
4545 941  32  
4546 927  93  
4547 785  572 
4548 658  706 
4549 110  627 
4550 895  297 
4551 1    205 
4552 149  61  
4553 262  244 
4554 874  84  
4555 860  7   
4556 537  92  
4557 976  524 
4558 441  375 
4559 263  218 
4560 547  983 
4561 289  827 
4562 306  891 
4563 586  563 
4564 474  489 
4565 492  870 
4566 935  676 
4567 684  100 
4568 64   777 
4569 910  930 
4570 68   961 
4571 414  237 
4572 751  204 
4573 950  419 
4574 402  653 
4575 385  505 
4576 918  717 
4577 977  7   
4578 885  662 
4579 243  349 
4580 171  456 
4581 149  384 
4582 323  149 
4583 489  701 
4584 661  293 
4585 954  785 
4586 493  221 
4587 993  765 
4588 152  267 
4589 707  59  
4590 798  902 
4591 863  676 
4592 403  122 
4593 96   760 
4594 21   567 
4595 152  698 
4596 975  810 
4597 704  999 
4598 199  284 
4599 147  897 
4600 699  700 
4601 907  907 
4602 692  419 
4603 584  748 
4604 35   992 
4605 930  488 
4606 807  946 
4607 991  145 
4608 743  816 
4609 230  845 
4610 835  445 
4611 506  493 
4612 804  948 
4613 970  412 
4614 848  816 
4615 652  704 
4616 230  988 
4617 563  295 
4618 319  613 
4619 290  877 
4620 535  661 
4621 347  868 
4622 368  85  
4623 626  381 
4624 900  502 
4625 869  983 
4626 943  432 
4627 395  710 
4628 731  922 
4629 951  965 
4630 203  357 
4631 611  96  
4632 139  765 
4633 529  437 
4634 640  842 
4635 625  268 
4636 714  202 
4637 813  646 
4638 210  861 
4639 892  877 
4640 74   252 
4641 847  475 
4642 226  403 
4643 852  451 
4644 762  321 
4645 291  117 
4646 352  101 
4647 116  454 
4648 651  469 
4649 547  260 
4650 231  791 
4651 275  969 
4652 187  149 
4653 194  651 
4654 270  844 
4655 732  143 
4656 879  712 
4657 326  696 
4658 150  394 
4659 850  62  
4660 279  722 
4661 393  647 
4662 548  265 
4663 414  47  
4664 806  797 
4665 827  466 
4666 210  304 
4667 138  85  
4668 357  47  
4669 196  227 
4670 719  721 
4671 731  239 
4672 90   797 
4673 911  483 
4674 149  420 
4675 66   258 
4676 214  138 
4677 458  680 
4678 590  209 
4679 406  856 
4680 760  764 
4681 246  539 
4682 228  50  
4683 964  398 
4684 693  200 
4685 198  670 
4686 366  416 
4687 534  936 
4688 280  459 
4689 281  822 
4690 764  51  
4691 13   747 
4692 660  886 
4693 554  273 
4694 492  270 
4695 114  280 
4696 132  207 
4697 9    924 
4698 997  467 
4699 63   337 
4700 798  668 
4701 489  836 
4702 703  257 
4703 463  556 
4704 726  98  
4705 583  815 
4706 363  392 
4707 454  865 
4708 40   949 
4709 476  681 
4710 455  440 
4711 649  221 
4712 260  186 
4713 795  807 
4714 122  209 
4715 485  865 
4716 948  335 
4717 625  206 
4718 71   232 
4719 238  555 
4720 316  241 
4721 869  971 
4722 654  25  
4723 805  83  
4724 201  855 
4725 58   808 
4726 714  159 
4727 218  846 
4728 117  124 
4729 745  803 
4730 710  227 
4731 678  397 
4732 843  462 
4733 918  508 
4734 560  760 
4735 176  753 
4736 947  348 
4737 129  301 
4738 983  591 
4739 505  756 
4740 272  307 
4741 112  562 
4742 700  147 
4743 25   413 
4744 775  707 
4745 875  863 
4746 180  831 
4747 859  626 
4748 896  504 
4749 422  852 
4750 477  407 
4751 430  535 
4752 324  126 
4753 328  121 
4754 475  250 
4755 148  204 
4756 152  135 
4757 902  349 
4758 243  70  
4759 375  605 
4760 854  954 
4761 286  54  
4762 987  327 
4763 183  346 
4764 656  646 
4765 267  807 
4766 751  151 
4767 825  785 
4768 738  798 
4769 902  127 
4770 996  366 
4771 445  736 
4772 968  775 
4773 366  98  
4774 9    333 
4775 30   469 
4776 290  382 
4777 717  5   
4778 422  355 
4779 354  557 
4780 744  253 
4781 137  17  
4782 321  348 
4783 449  263 
4784 488  315 
4785 270  279 
4786 660  923 
4787 494  369 
4788 459  234 
4789 228  421 
4790 543  558 
4791 964  625 
4792 878  475 
4793 237  49  
4794 181  873 
4795 203  225 
4796 961  285 
4797 651  633 
4798 284  102 
4799 152  912 
4800 428  965 
4801 217  174 
4802 630  298 
4803 597  147 
4804 763  247 
4805 528  902 
4806 517  306 
4807 744  712 
4808 672  421 
4809 433  471 
4810 421  382 
4811 761  267 
4812 445  360 
4813 818  962 
4814 943  217 
4815 973  914 
4816 279  225 
4817 70   174 
4818 73   154 
4819 809  302 
4820 870  897 
4821 33   868 
4822 639  76  
4823 306  272 
4824 272  128 
4825 956  186 
4826 617  614 
4827 651  396 
4828 836  896 
4829 235  267 
4830 520  565 
4831 41   598 
4832 408  367 
4833 244  107 
4834 724  829 
4835 124  513 
4836 197  859 
4837 110  596 
4838 614  228 
4839 561  488 
4840 615  181 
4841 945  905 
4842 346  438 
4843 741  751 
4844 137  625 
4845 409  756 
4846 105  69  
4847 824  661 
4848 589  427 
4849 59   884 
4850 426  401 
4851 160  557 
4852 582  608 
4853 309  452 
4854 629  523 
4855 977  26  
4856 828  928 
4857 149  363 
4858 82   702 
4859 559  816 
4860 375  839 
4861 177  594 
4862 548  551 
4863 977  171 
4864 636  360 
4865 730  997 
4866 551  209 
4867 271  41  
4868 830  280 
4869 545  408 
4870 164  850 
4871 643  887 
4872 616  19  
4873 725  671 
4874 299  353 
4875 194  89  
4876 673  60  
4877 549  577 
4878 109  74  
4879 398  87  
4880 19   158 
4881 95   907 
4882 703  200 
4883 583  870 
4884 325  626 
4885 971  128 
4886 194  379 
4887 450  657 
4888 490  962 
4889 56   264 
4890 351  819 
4891 655  267 
4892 804  631 
4893 18   828 
4894 640  879 
4895 204  614 
4896 994  52  
4897 938  652 
4898 376  259 
4899 728  88  
4900 923  353 
4901 452  719 
4902 454  373 
4903 887  961 
4904 301  478 
4905 488  763 
4906 898  80  
4907 185  701 
4908 629  58  
4909 918  23  
4910 461  664 
4911 227  778 
4912 72   841 
4913 438  136 
4914 867  762 
4915 44   279 
4916 671  970 
4917 112  713 
4918 884  31  
4919 993  816 
4920 385  222 
4921 251  539 
4922 203  668 
4923 607  922 
4924 427  980 
4925 617  926 
4926 48   399 
4927 564  691 
4928 60   978 
4929 848  358 
4930 977  6   
4931 172  800 
4932 432  957 
4933 363  867 
4934 694  933 
4935 592  859 
4936 725  593 
4937 798  903 
4938 836  350 
4939 803  623 
4940 57   145 
4941 402  940 
4942 686  824 
4943 159  856 
4944 734  912 
4945 539  642 
4946 497  507 
4947 26   883 
4948 80   173 
4949 648  955 
4950 765  690 
4951 397  760 
4952 937  451 
4953 661  631 
4954 403  347 
4955 976  375 
4956 331  124 
4957 189  374 
4958 728  504 
4959 670  511 
4960 765  547 
4961 381  826 
4962 365  341 
4963 99   121 
4964 579  931 
4965 485  844 
4966 126  642 
4967 566  687 
4968 951  855 
4969 311  564 
4970 424  456 
4971 169  11  
4972 632  983 
4973 804  619 
4974 821  531 
4975 643  303 
4976 469  425 
4977 307  258 
4978 108  159 
4979 143  936 
4980 182  690 
4981 334  617 
4982 889  502 
4983 961  769 
4984 925  870 
4985 529  69  
4986 984  478 
4987 382  853 
4988 240  894 
4989 625  621 
4990 131  782 
4991 475  499 
4992 478  746 
4993 614  322 
4994 63   728 
4995 546  738 
4996 945  247 
4997 926  606 
4998 1    191 
4999 936  782 
5000 883  415 
5001 186  245 
5002 923  536 
5003 780  135 
5004 140  806 
5005 556  350 
5006 498  274 
5007 279  749 
5008 471  69  
5009 219  148 
5010 1    89  
5011 699  174 
5012 718  254 
5013 573  713 
5014 613  492 
5015 349  617 
5016 577  782 
5017 188  681 
5018 524  275 
5019 998  350 
5020 600  729 
5021 390  53  
5022 508  206 
5023 987  235 
5024 417  137 
5025 129  829 
5026 798  193 
5027 629  707 
5028 974  262 
5029 357  256 
5030 739  568 
5031 976  166 
5032 260  359 
5033 707  22  
5034 33   59  
5035 806  478 
5036 879  252 
5037 275  98  
5038 646  183 
5039 445  814 
5040 268  809 
5041 109  385 
5042 609  857 
5043 639  817 
5044 26   710 
5045 433  712 
5046 861  648 
5047 972  231 
5048 744  862 
5049 486  599 
5050 322  492 
5051 198  347 
5052 326  428 
5053 821  966 
5054 148  964 
5055 890  219 
5056 744  749 
5057 736  717 
5058 364  134 
5059 147  600 
5060 645  441 
5061 66   536 
5062 931  516 
5063 342  693 
5064 951  601 
5065 112  198 
5066 723  934 
5067 279  220 
5068 799  517 
5069 178  465 
5070 343  905 
5071 306  154 
5072 329  75  
5073 718  751 
5074 793  724 
5075 790  187 
5076 942  102 
5077 407  745 
5078 947  460 
5079 253  877 
5080 239  430 
5081 352  2   
5082 885  152 
5083 500  954 
5084 317  732 
5085 33   953 
5086 913  573 
5087 723  482 
5088 917  14  
5089 261  618 
5090 888  146 
5091 210  130 
5092 873  450 
5093 176  62  
5094 394  77  
5095 582  490 
5096 306  689 
5097 181  259 
5098 475  106 
5099 258  524 
5100 370  380 
5101 225  583 
5102 775  113 
5103 445  654 
5104 372  402 
5105 764  940 
5106 647  42  
5107 985  937 
5108 141  833 
5109 617  86  
5110 447  81  
5111 413  65  
5112 677  948 
5113 732  289 
5114 920  939 
5115 975  975 
5116 996  254 
5117 7    937 
5118 356  29  
5119 321  418 
5120 595  619 
5121 569  388 
5122 720  232 
5123 901  333 
5124 454  529 
5125 603  210 
5126 94   459 
5127 366  300 
5128 649  30  
5129 228  309 
5130 363  486 
5131 660  762 
5132 946  475 
5133 913  290 
5134 566  740 
5135 199  5   
5136 829  398 
5137 978  840 
5138 1000 708 
5139 655  310 
5140 749  439 
5141 532  547 
5142 697  740 
5143 202  138 
5144 355  360 
5145 691  450 
5146 639  408 
5147 839  202 
5148 680  849 
5149 844  732 
5150 279  115 
5151 407  958 
5152 800  346 
5153 782  862 
5154 36   900 
5155 934  949 
5156 719  385 
5157 684  792 
5158 994  128 
5159 776  467 
5160 795  465 
5161 874  442 
5162 339  77  
5163 435  478 
5164 808  68  
5165 588  552 
5166 58   559 
5167 295  782 
5168 775  512 
5169 374  721 
5170 432  360 
5171 491  791 
5172 534  233 
5173 495  967 
5174 885  203 
5175 262  492 
5176 11   812 
5177 49   497 
5178 272  272 
5179 370  559 
5180 166  892 
5181 336  611 
5182 153  51  
5183 63   528 
5184 124  514 
5185 234  78  
5186 197  858 
5187 36   344 
5188 220  493 
5189 955  98  
5190 686  246 
5191 270  773 
5192 915  720 
5193 625  992 
5194 935  557 
5195 257  398 
5196 93   650 
5197 348  329 
5198 613  467 
5199 461  934 
5200 101  143 
5201 229  474 
5202 103  497 
5203 819  768 
5204 841  728 
5205 860  172 
5206 955  320 
5207 480  672 
5208 741  383 
5209 873  79  
5210 393  815 
5211 621  985 
5212 167  997 
5213 828  929 
5214 0    246 
5215 661  271 
5216 437  431 
5217 630  984 
5218 389  460 
5219 156  457 
5220 817  513 
5221 301  752 
5222 926  253 
5223 802  439 
5224 556  874 
5225 207  942 
5226 427  294 
5227 569  17  
5228 109  440 
5229 27   461 
5230 929  937 
5231 51   451 
5232 859  424 
5233 273  845 
5234 892  272 
5235 621  430 
5236 252  695 
5237 289  443 
5238 825  345 
5239 792  526 
5240 591  902 
5241 673  285 
5242 892  391 
5243 285  559 
5244 109  875 
5245 401  50  
5246 240  230 
5247 477  711 
5248 411  249 
5249 196  881 
5250 431  234 
5251 217  314 
5252 566  883 
5253 807  639 
5254 170  640 
5255 320  61  
5256 601  92  
5257 286  774 
5258 585  615 
5259 658  237 
5260 325  804 
5261 301  315 
5262 763  496 
5263 364  349 
5264 689  914 
5265 338  320 
5266 514  351 
5267 272  94  
5268 18   622 
5269 257  814 
5270 554  588 
5271 166  702 
5272 461  518 
5273 61   460 
5274 580  716 
5275 176  698 
5276 249  852 
5277 547  413 
5278 603  869 
5279 359  171 
5280 469  871 
5281 59   215 
5282 409  4   
5283 434  593 
5284 474  546 
5285 477  429 
5286 174  375 
5287 68   158 
5288 721  700 
5289 441  260 
5290 79   318 
5291 963  395 
5292 11   54  
5293 289  840 
5294 271  584 
5295 500  656 
5296 194  583 
5297 634  946 
5298 788  469 
5299 718  18  
5300 544  817 
5301 870  377 
5302 103  618 
5303 768  905 
5304 626  981 
5305 440  298 
5306 497  783 
5307 77   11  
5308 638  884 
5309 640  115 
5310 345  499 
5311 592  860 
5312 849  67  
5313 781  798 
5314 233  678 
5315 986  108 
5316 976  74  
5317 61   616 
5318 756  534 
5319 617  328 
5320 547  533 
5321 521  178 
5322 722  757 
5323 962  4   
5324 857  362 
5325 496  190 
5326 778  690 
5327 401  141 
5328 476  711 
5329 739  219 
5330 591  922 
5331 668  197 
5332 678  42  
5333 832  454 
5334 830  881 
5335 706  291 
5336 339  694 
5337 122  42  
5338 583  107 
5339 160  323 
5340 913  123 
5341 217  278 
5342 507  636 
5343 74   393 
5344 2    442 
5345 715  51  
5346 402  384 
5347 847  534 
5348 169  411 
5349 956  831 
5350 425  801 
5351 511  92  
5352 142  454 
5353 952  590 
5354 974  655 
5355 792  951 
5356 652  439 
5357 504  853 
5358 654  349 
5359 583  137 
5360 527  977 
5361 179  895 
5362 969  269 
5363 329  174 
5364 644  787 
5365 442  407 
5366 741  785 
5367 80   776 
5368 525  16  
5369 728  932 
5370 212  253 
5371 926  972 
5372 178  268 
5373 456  438 
5374 909  915 
5375 309  583 
5376 400  685 
5377 236  937 
5378 239  506 
5379 168  409 
5380 375  714 
5381 853  854 
5382 729  728 
5383 128  807 
5384 439  885 
5385 116  230 
5386 153  404 
5387 655  677 
5388 676  832 
5389 897  21  
5390 202  971 
5391 336  329 
5392 707  874 
5393 85   706 
5394 819  888 
5395 949  809 
5396 3    775 
5397 647  86  
5398 885  711 
5399 431  923 
5400 983  94  
5401 824  573 
5402 717  398 
5403 612  676 
5404 375  782 
5405 673  808 
5406 51   748 
5407 836  300 
5408 753  506 
5409 733  676 
5410 533  268 
5411 919  807 
5412 393  65  
5413 855  241 
5414 971  412 
5415 399  95  
5416 403  408 
5417 77   785 
5418 649  400 
5419 902  834 
5420 885  906 
5421 924  782 
5422 263  764 
5423 837  791 
5424 488  336 
5425 329  812 
5426 458  392 
5427 43   798 
5428 616  108 
5429 194  414 
5430 199  147 
5431 532  298 
5432 187  843 
5433 316  941 
5434 853  242 
5435 397  364 
5436 222  451 
5437 856  313 
5438 691  376 
5439 891  912 
5440 140  466 
5441 152  852 
5442 562  759 
5443 355  335 
5444 139  650 
5445 468  54  
5446 268  366 
5447 520  223 
5448 944  827 
5449 888  616 
5450 995  652 
5451 248  263 
5452 176  612 
5453 46   190 
5454 781  57  
5455 909  68  
5456 213  599 
5457 473  698 
5458 109  742 
5459 535  14  
5460 887  539 
5461 373  145 
5462 379  988 
5463 145  680 
5464 387  759 
5465 597  674 
5466 157  757 
5467 671  879 
5468 358  94  
5469 413  619 
5470 322  960 
5471 927  497 
5472 288  848 
5473 913  675 
5474 505  762 
5475 984  729 
5476 862  734 
5477 58   362 
5478 757  428 
5479 232  569 
5480 598  820 
5481 235  446 
5482 71   844 
5483 521  963 
5484 629  866 
5485 371  142 
5486 831  762 
5487 906  655 
5488 417  330 
5489 537  105 
5490 614  73  
5491 262  178 
5492 427  881 
5493 780  827 
5494 234  269 
5495 20   896 
5496 242  816 
5497 160  515 
5498 586  585 
5499 628  204 
5500 320  985 
5501 323  222 
5502 971  602 
5503 800  578 
5504 946  916 
5505 176  492 
5506 543  266 
5507 566  185 
5508 125  967 
5509 381  445 
5510 716  750 
5511 570  180 
5512 405  669 
5513 797  107 
5514 12   977 
5515 664  288 
5516 777  199 
5517 317  262 
5518 299  263 
5519 541  102 
5520 854  471 
5521 503  255 
5522 506  321 
5523 458  428 
5524 664  335 
5525 740  474 
5526 833  296 
5527 192  592 
5528 616  72  
5529 599  257 
5530 786  158 
5531 623  399 
5532 398  232 
5533 169  160 
5534 62   181 
5535 834  178 
5536 284  151 
5537 344  442 
5538 161  580 
5539 958  371 
5540 78   899 
5541 317  89  
5542 247  792 
5543 779  777 
5544 142  271 
5545 515  787 
5546 572  320 
5547 524  547 
5548 583  192 
5549 452  582 
5550 624  63  
5551 681  72  
5552 496  642 
5553 994  129 
5554 301  359 
5555 47   263 
5556 348  774 
5557 205  907 
5558 520  985 
5559 921  362 
5560 779  580 
5561 67   950 
5562 88   507 
5563 415  112 
5564 839  632 
5565 555  925 
5566 774  697 
5567 666  478 
5568 633  33  
5569 652  93  
5570 486  15  
5571 568  948 
5572 715  519 
5573 330  491 
5574 604  277 
5575 469  932 
5576 128  880 
5577 405  140 
5578 79   293 
5579 651  364 
5580 287  872 
5581 253  82  
5582 974  50  
5583 703  592 
5584 637  460 
5585 582  471 
5586 0    425 
5587 419  433 
5588 220  268 
5589 663  626 
5590 99   933 
5591 264  590 
5592 245  879 
5593 530  793 
5594 881  619 
5595 570  118 
5596 797  301 
5597 409  532 
5598 78   432 
5599 704  879 
5600 686  691 
5601 265  245 
5602 0    870 
5603 817  657 
5604 801  116 
5605 5    12  
5606 105  528 
5607 497  430 
5608 80   338 
5609 920  725 
5610 815  396 
5611 47   886 
5612 303  216 
5613 808  598 
5614 136  467 
5615 568  54  
5616 87   742 
5617 678  15  
5618 454  175 
5619 787  788 
5620 611  504 
5621 868  489 
5622 463  919 
5623 423  736 
5624 47   84  
5625 865  613 
5626 460  619 
5627 299  815 
5628 840  805 
5629 415  673 
5630 108  181 
5631 576  879 
5632 44   717 
5633 351  979 
5634 801  658 
5635 16   438 
5636 549  20  
5637 240  852 
5638 735  889 
5639 62   749 
5640 945  495 
5641 763  608 
5642 856  190 
5643 72   621 
5644 822  919 
5645 257  813 
5646 353  900 
5647 151  329 
5648 652  242 
5649 391  350 
5650 69   64  
5651 549  374 
5652 883  532 
5653 851  114 
5654 232  738 
5655 927  457 
5656 430  883 
5657 789  296 
5658 404  778 
5659 131  562 
5660 172  478 
5661 119  847 
5662 546  591 
5663 28   858 
5664 33   608 
5665 528  78  
5666 824  853 
5667 842  418 
5668 127  700 
5669 534  468 
5670 993  822 
5671 991  839 
5672 462  435 
5673 104  587 
5674 945  939 
5675 84   609 
5676 234  306 
5677 375  519 
5678 231  547 
5679 181  378 
5680 238  261 
5681 890  956 
5682 689  319 
5683 485  212 
5684 985  992 
5685 293  993 
5686 609  736 
5687 42   675 
5688 955  476 
5689 594  372 
5690 212  791 
5691 502  569 
5692 945  742 
5693 447  104 
5694 158  213 
5695 548  581 
5696 437  386 
5697 20   158 
5698 405  612 
5699 225  872 
5700 579  105 
5701 543  706 
5702 927  547 
5703 34   846 
5704 539  791 
5705 812  737 
5706 246  685 
5707 389  176 
5708 194  8   
5709 329  823 
5710 551  68  
5711 237  102 
5712 518  407 
5713 542  281 
5714 319  640 
5715 692  430 
5716 621  256 
5717 472  777 
5718 397  758 
5719 677  574 
5720 345  61  
5721 293  293 
5722 701  424 
5723 494  414 
5724 437  725 
5725 856  687 
5726 769  988 
5727 790  742 
5728 558  642 
5729 578  68  
5730 448  417 
5731 723  686 
5732 796  162 
5733 799  781 
5734 946  371 
5735 164  308 
5736 311  423 
5737 41   71  
5738 577  53  
5739 101  991 
5740 302  158 
5741 359  411 
5742 127  143 
5743 148  768 
5744 718  870 
5745 331  442 
5746 282  202 
5747 800  387 
5748 362  284 
5749 714  201 
5750 145  306 
5751 878  956 
5752 383  486 
5753 581  359 
5754 932  23  
5755 240  719 
5756 499  330 
5757 886  330 
5758 714  427 
5759 698  564 
5760 272  202 
5761 328  354 
5762 991  901 
5763 707  702 
5764 783  905 
5765 629  141 
5766 306  568 
5767 625  990 
5768 590  792 
5769 44   132 
5770 452  225 
5771 589  480 
5772 914  970 
5773 441  144 
5774 370  342 
5775 280  18  
5776 23   746 
5777 85   705 
5778 141  859 
5779 661  100 
5780 150  747 
5781 121  873 
5782 176  370 
5783 422  747 
5784 868  783 
5785 263  473 
5786 447  140 
5787 267  538 
5788 858  229 
5789 824  429 
5790 164  950 
5791 124  15  
5792 988  608 
5793 57   66  
5794 590  212 
5795 77   959 
5796 901  343 
5797 670  172 
5798 359  789 
5799 765  370 
5800 954  675 
5801 497  20  
5802 246  649 
5803 1000 445 
5804 643  689 
5805 651  606 
5806 839  301 
5807 618  790 
5808 147  892 
5809 97   569 
5810 463  990 
5811 729  44  
5812 285  534 
5813 57   623 
5814 424  422 
5815 8    165 
5816 49   527 
5817 943  81  
5818 784  582 
5819 123  762 
5820 35   588 
5821 772  175 
5822 465  863 
5823 966  237 
5824 415  377 
5825 936  400 
5826 739  293 
5827 353  226 
5828 903  724 
5829 637  882 
5830 654  318 
5831 914  475 
5832 258  87  
5833 426  981 
5834 885  68  
5835 620  247 
5836 748  316 
5837 718  540 
5838 331  644 
5839 192  334 
5840 809  465 
5841 610  300 
5842 979  993 
5843 871  151 
5844 720  799 
5845 956  503 
5846 371  145 
5847 558  423 
5848 119  823 
5849 413  908 
5850 432  59  
5851 436  595 
5852 769  156 
5853 718  169 
5854 560  775 
5855 372  365 
5856 301  855 
5857 910  895 
5858 493  495 
5859 384  45  
5860 55   360 
5861 366  775 
5862 298  751 
5863 744  435 
5864 462  282 
5865 157  312 
5866 341  587 
5867 195  125 
5868 682  649 
5869 147  510 
5870 495  470 
5871 902  114 
5872 64   884 
5873 233  835 
5874 180  382 
5875 767  666 
5876 890  871 
5877 542  36  
5878 985  585 
5879 626  877 
5880 254  698 
5881 937  750 
5882 256  309 
5883 501  695 
5884 817  628 
5885 86   979 
5886 750  442 
5887 143  8   
5888 275  128 
5889 892  159 
5890 160  192 
5891 311  811 
5892 373  542 
5893 263  880 
5894 144  724 
5895 949  369 
5896 164  543 
5897 319  553 
5898 956  642 
5899 891  959 
5900 213  167 
5901 787  872 
5902 952  809 
5903 754  461 
5904 424  386 
5905 259  451 
5906 5    747 
5907 273  163 
5908 718  815 
5909 173  394 
5910 321  703 
5911 260  590 
5912 782  719 
5913 92   365 
5914 554  598 
5915 131  827 
5916 541  892 
5917 766  757 
5918 948  866 
5919 666  479 
5920 903  478 
5921 82   230 
5922 851  89  
5923 932  446 
5924 978  428 
5925 373  406 
5926 747  361 
5927 71   819 
5928 609  392 
5929 491  567 
5930 898  365 
5931 918  872 
5932 903  252 
5933 547  174 
5934 452  170 
5935 366  944 
5936 3    672 
5937 833  941 
5938 153  339 
5939 689  385 
5940 615  263 
5941 637  459 
5942 440  673 
5943 495  389 
5944 208  333 
5945 573  783 
5946 82   298 
5947 245  878 
5948 564  730 
5949 622  464 
5950 142  624 
5951 487  993 
5952 289  908 
5953 589  313 
5954 78   262 
5955 997  84  
5956 599  992 
5957 307  544 
5958 932  961 
5959 95   577 
5960 156  459 
5961 730  992 
5962 972  869 
5963 81   268 
5964 872  17  
5965 364  757 
5966 786  880 
5967 513  552 
5968 364  772 
5969 750  193 
5970 398  90  
5971 591  787 
5972 345  81  
5973 716  64  
5974 476  765 
5975 352  819 
5976 739  161 
5977 61   917 
5978 579  968 
5979 653  625 
5980 156  911 
5981 933  193 
5982 329  453 
5983 74   256 
5984 445  423 
5985 179  71  
5986 787  900 
5987 992  754 
5988 500  393 
5989 615  560 
5990 889  366 
5991 526  483 
5992 340  50  
5993 268  311 
5994 362  406 
5995 749  298 
5996 629  372 
5997 922  788 
5998 830  949 
5999 136  641 
6000 83   272 
6001 17   130 
6002 787  610 
6003 883  761 
6004 813  670 
6005 761  149 
6006 335  110 
6007 671  512 
6008 306  160 
6009 532  918 
6010 594  527 
6011 425  630 
6012 248  175 
6013 887  962 
6014 728  889 
6015 747  55  
6016 227  783 
6017 585  161 
6018 289  620 
6019 36   239 
6020 77   453 
6021 200  16  
6022 206  10  
6023 975  333 
6024 963  397 
6025 157  478 
6026 489  502 
6027 824  709 
6028 159  368 
6029 788  352 
6030 452  142 
6031 811  577 
6032 928  867 
6033 998  177 
6034 765  154 
6035 845  802 
6036 37   997 
6037 7    205 
6038 964  240 
6039 233  906 
6040 641  179 
6041 474  100 
6042 974  297 
6043 738  965 
6044 461  170 
6045 617  44  
6046 446  198 
6047 945  741 
6048 370  100 
6049 246  563 
6050 375  213 
6051 659  320 
6052 73   819 
6053 446  32  
6054 85   352 
6055 109  410 
6056 203  221 
6057 498  915 
6058 83   771 
6059 503  166 
6060 716  21  
6061 256  539 
6062 856  688 
6063 375  360 
6064 716  100 
6065 240  181 
6066 19   300 
6067 57   993 
6068 9    838 
6069 400  453 
6070 38   459 
6071 810  368 
6072 518  577 
6073 350  73  
6074 117  322 
6075 99   203 
6076 934  785 
6077 961  149 
6078 653  887 
6079 465  899 
6080 961  774 
6081 339  918 
6082 782  788 
6083 398  541 
6084 644  797 
6085 836  549 
6086 468  353 
6087 993  6   
6088 225  124 
6089 595  310 
6090 213  659 
6091 145  595 
6092 97   442 
6093 462  242 
6094 135  184 
6095 720  820 
6096 662  203 
6097 242  552 
6098 63   554 
6099 651  294 
6100 232  622 
6101 436  632 
6102 534  497 
6103 58   438 
6104 702  887 
6105 975  289 
6106 525  722 
6107 175  809 
6108 111  943 
6109 849  370 
6110 495  76  
6111 975  726 
6112 270  626 
6113 993  563 
6114 444  909 
6115 674  494 
6116 59   558 
6117 974  261 
6118 885  886 
6119 798  87  
6120 104  981 
6121 986  479 
6122 534  573 
6123 39   113 
6124 609  636 
6125 114  50  
6126 613  92  
6127 393  71  
6128 159  680 
6129 109  493 
6130 588  270 
6131 824  285 
6132 850  529 
6133 156  162 
6134 88   536 
6135 30   671 
6136 13   743 
6137 678  795 
6138 716  426 
6139 308  485 
6140 275  212 
6141 665  988 
6142 389  804 
6143 561  723 
6144 468  739 
6145 857  324 
6146 539  528 
6147 226  813 
6148 670  478 
6149 85   102 
6150 411  901 
6151 415  949 
6152 493  769 
6153 501  278 
6154 691  378 
6155 123  268 
6156 878  652 
6157 718  929 
6158 735  13  
6159 829  472 
6160 207  420 
6161 653  778 
6162 123  765 
6163 269  1   
6164 550  402 
6165 53   666 
6166 792  870 
6167 776  171 
6168 278  305 
6169 502  275 
6170 505  45  
6171 857  768 
6172 487  197 
6173 361  925 
6174 349  228 
6175 421  727 
6176 616  697 
6177 84   119 
6178 931  662 
6179 92   650 
6180 3    139 
6181 791  98  
6182 336  860 
6183 444  271 
6184 931  871 
6185 50   869 
6186 832  799 
6187 463  307 
6188 230  26  
6189 103  232 
6190 896  508 
6191 144  369 
6192 400  651 
6193 996  677 
6194 54   903 
6195 962  740 
6196 409  796 
6197 742  16  
6198 655  699 
6199 698  154 
6200 2    661 
6201 629  898 
6202 613  269 
6203 134  126 
6204 962  535 
6205 358  664 
6206 124  334 
6207 767  564 
6208 681  857 
6209 849  239 
6210 958  987 
6211 940  194 
6212 445  764 
6213 724  729 
6214 640  142 
6215 513  944 
6216 713  584 
6217 362  614 
6218 695  424 
6219 821  321 
6220 555  285 
6221 220  584 
6222 295  30  
6223 722  262 
6224 321  423 
6225 122  714 
6226 157  89  
6227 911  368 
6228 90   108 
6229 823  516 
6230 347  375 
6231 113  773 
6232 848  432 
6233 493  161 
6234 388  787 
6235 720  122 
6236 657  623 
6237 623  280 
6238 350  852 
6239 811  482 
6240 99   468 
6241 998  788 
6242 768  447 
6243 899  583 
6244 701  495 
6245 26   729 
6246 522  738 
6247 652  821 
6248 568  28  
6249 915  305 
6250 716  172 
6251 403  517 
6252 160  286 
6253 771  302 
6254 718  957 
6255 826  975 
6256 41   13  
6257 905  468 
6258 725  59  
6259 667  126 
6260 526  439 
6261 767  289 
6262 363  39  
6263 571  538 
6264 914  429 
6265 365  717 
6266 168  23  
6267 576  180 
6268 16   475 
6269 232  889 
6270 710  82  
6271 948  867 
6272 747  219 
6273 12   254 
6274 159  121 
6275 162  719 
6276 552  475 
6277 823  134 
6278 992  130 
6279 442  175 
6280 278  793 
6281 707  633 
6282 465  262 
6283 475  173 
6284 76   664 
6285 153  417 
6286 335  969 
6287 106  387 
6288 720  651 
6289 578  873 
6290 775  961 
6291 99   854 
6292 172  26  
6293 656  343 
6294 585  375 
6295 567  419 
6296 290  77  
6297 16   566 
6298 976  948 
6299 232  324 
6300 850  804 
6301 390  131 
6302 431  605 
6303 626  831 
6304 453  801 
6305 881  762 
6306 698  400 
6307 629  696 
6308 483  290 
6309 854  279 
6310 466  684 
6311 696  689 
6312 492  428 
6313 256  274 
6314 341  817 
6315 699  663 
6316 223  189 
6317 156  234 
6318 66   104 
6319 51   452 
6320 130  973 
6321 442  971 
6322 39   287 
6323 42   1   
6324 27   383 
6325 882  857 
6326 591  899 
6327 5    300 
6328 982  260 
6329 105  816 
6330 382  752 
6331 53   560 
6332 386  645 
6333 795  227 
6334 540  38  
6335 982  375 
6336 587  69  
6337 19   497 
6338 807  632 
6339 739  414 
6340 870  756 
6341 689  693 
6342 17   240 
6343 625  283 
6344 79   854 
6345 154  443 
6346 562  268 
6347 156  733 
6348 236  275 
6349 80   815 
6350 598  545 
6351 451  612 
6352 527  623 
6353 822  917 
6354 503  807 
6355 932  253 
6356 81   743 
6357 62   866 
6358 176  701 
6359 174  152 
6360 527  668 
6361 182  359 
6362 419  19  
6363 148  563 
6364 116  495 
6365 463  378 
6366 653  278 
6367 767  136 
6368 625  679 
6369 489  100 
6370 896  420 
6371 414  421 
6372 104  589 
6373 858  634 
6374 395  456 
6375 201  393 
6376 628  96  
6377 370  304 
6378 833  904 
6379 851  451 
6380 525  574 
6381 31   309 
6382 949  978 
6383 699  247 
6384 419  431 
6385 516  967 
6386 647  111 
6387 858  412 
6388 640  199 
6389 823  686 
6390 863  909 
6391 128  491 
6392 385  508 
6393 258  866 
6394 246  897 
6395 263  503 
6396 600  799 
6397 256  335 
6398 355  779 
6399 104  9   
6400 375  212 
6401 158  362 
6402 858  190 
6403 147  23  
6404 220  935 
6405 186  627 
6406 189  400 
6407 336  172 
6408 869  286 
6409 815  588 
6410 812  739 
6411 38   159 
6412 609  817 
6413 313  364 
6414 958  92  
6415 498  912 
6416 997  442 
6417 545  41  
6418 757  718 
6419 938  40  
6420 424  686 
6421 351  125 
6422 248  818 
6423 765  575 
6424 731  755 
6425 174  649 
6426 892  422 
6427 621  32  
6428 531  200 
6429 551  309 
6430 592  298 
6431 403  573 
6432 939  543 
6433 705  77  
6434 122  41  
6435 321  836 
6436 13   134 
6437 268  325 
6438 40   252 
6439 187  639 
6440 277  753 
6441 991  451 
6442 188  428 
6443 335  303 
6444 869  803 
6445 448  65  
6446 639  349 
6447 107  196 
6448 913  9   
6449 606  174 
6450 790  433 
6451 442  547 
6452 95   431 
6453 387  510 
6454 945  440 
6455 818  902 
6456 526  367 
6457 322  729 
6458 362  282 
6459 948  517 
6460 287  345 
6461 865  353 
6462 59   278 
6463 573  144 
6464 649  608 
6465 335  77  
6466 467  61  
6467 987  690 
6468 306  325 
6469 309  930 
6470 348  968 
6471 865  210 
6472 205  593 
6473 511  268 
6474 996  940 
6475 98   739 
6476 46   387 
6477 763  767 
6478 547  442 
6479 908  106 
6480 426  785 
6481 300  250 
6482 67   513 
6483 619  476 
6484 488  618 
6485 434  624 
6486 629  139 
6487 611  688 
6488 996  642 
6489 337  379 
6490 599  615 
6491 710  836 
6492 552  290 
6493 3    618 
6494 8    832 
6495 979  805 
6496 232  510 
6497 855  334 
6498 837  335 
6499 341  708 
6500 655  678 
6501 343  410 
6502 915  525 
6503 816  70  
6504 708  60  
6505 305  455 
6506 113  574 
6507 440  346 
6508 901  691 
6509 134  34  
6510 617  126 
6511 355  585 
6512 963  134 
6513 924  756 
6514 85   688 
6515 536  500 
6516 275  392 
6517 21   372 
6518 318  302 
6519 247  348 
6520 836  303 
6521 786  516 
6522 589  81  
6523 536  99  
6524 976  154 
6525 941  596 
6526 68   704 
6527 252  421 
6528 843  714 
6529 950  674 
6530 812  711 
6531 6    266 
6532 78   537 
6533 941  997 
6534 639  940 
6535 329  721 
6536 368  313 
6537 497  411 
6538 99   443 
6539 298  220 
6540 251  212 
6541 17   380 
6542 165  268 
6543 100  983 
6544 672  176 
6545 605  878 
6546 914  21  
6547 240  210 
6548 297  45  
6549 522  606 
6550 924  94  
6551 598  173 
6552 377  287 
6553 31   740 
6554 874  785 
6555 855  566 
6556 252  617 
6557 182  880 
6558 456  906 
6559 109  816 
6560 330  943 
6561 829  471 
6562 668  91  
6563 340  4   
6564 154  320 
6565 672  269 
6566 819  78  
6567 503  713 
6568 515  841 
6569 936  33  
6570 934  540 
6571 904  607 
6572 615  857 
6573 879  932 
6574 193  697 
6575 537  332 
6576 282  369 
6577 227  838 
6578 361  472 
6579 111  748 
6580 590  715 
6581 701  562 
6582 859  742 
6583 291  370 
6584 646  696 
6585 594  137 
6586 723  343 
6587 546  484 
6588 345  669 
6589 57   273 
6590 662  310 
6591 224  814 
6592 885  567 
6593 998  382 
6594 747  570 
6595 720  462 
6596 629  562 
6597 669  411 
6598 7    788 
6599 814  604 
6600 128  467 
6601 475  780 
6602 404  256 
6603 738  906 
6604 9    368 
6605 485  379 
6606 114  87  
6607 481  824 
6608 705  600 
6609 261  42  
6610 462  933 
6611 267  649 
6612 587  540 
6613 803  555 
6614 522  897 
6615 416  60  
6616 74   520 
6617 221  935 
6618 80   361 
6619 27   402 
6620 561  766 
6621 446  328 
6622 458  314 
6623 136  58  
6624 356  605 
6625 783  248 
6626 752  266 
6627 326  381 
6628 667  339 
6629 170  281 
6630 978  836 
6631 959  539 
6632 623  622 
6633 830  780 
6634 779  778 
6635 635  436 
6636 69   422 
6637 749  324 
6638 587  41  
6639 643  363 
6640 516  251 
6641 844  728 
6642 645  409 
6643 834  450 
6644 709  726 
6645 598  427 
6646 69   311 
6647 791  16  
6648 662  807 
6649 741  854 
6650 282  435 
6651 690  20  
6652 984  265 
6653 862  302 
6654 135  882 
6655 853  553 
6656 619  23  
6657 642  66  
6658 326  987 
6659 129  445 
6660 664  566 
6661 149  946 
6662 448  629 
6663 14   772 
6664 310  111 
6665 718  280 
6666 63   621 
6667 245  586 
6668 7    453 
6669 728  556 
6670 361  69  
6671 533  141 
6672 275  629 
6673 846  508 
6674 764  605 
6675 266  80  
6676 195  202 
6677 286  23  
6678 453  526 
6679 419  434 
6680 759  986 
6681 742  140 
6682 964  158 
6683 534  664 
6684 310  824 
6685 851  516 
6686 253  290 
6687 570  228 
6688 811  146 
6689 356  61  
6690 553  879 
6691 989  799 
6692 834  832 
6693 337  664 
6694 781  839 
6695 372  775 
6696 638  574 
6697 217  834 
6698 882  116 
6699 935  194 
6700 703  102 
6701 527  404 
6702 393  376 
6703 857  131 
6704 160  93  
6705 543  926 
6706 145  152 
6707 722  958 
6708 706  475 
6709 522  534 
6710 481  369 
6711 796  200 
6712 957  443 
6713 705  130 
6714 944  966 
6715 317  860 
6716 835  771 
6717 987  824 
6718 752  99  
6719 1    539 
6720 862  488 
6721 719  353 
6722 573  139 
6723 653  51  
6724 526  259 
6725 1    436 
6726 187  417 
6727 995  598 
6728 589  774 
6729 845  668 
6730 849  729 
6731 791  282 
6732 244  37  
6733 836  993 
6734 600  309 
6735 714  261 
6736 897  867 
6737 552  440 
6738 89   816 
6739 332  640 
6740 719  52  
6741 629  182 
6742 225  304 
6743 847  227 
6744 673  708 
6745 124  546 
6746 965  148 
6747 140  831 
6748 110  629 
6749 276  463 
6750 439  877 
6751 576  349 
6752 940  982 
6753 279  708 
6754 374  834 
6755 603  692 
6756 567  17  
6757 298  530 
6758 577  805 
6759 816  91  
6760 229  506 
6761 620  765 
6762 234  320 
6763 586  573 
6764 453  738 
6765 607  897 
6766 579  332 
6767 929  269 
6768 33   304 
6769 507  377 
6770 125  170 
6771 713  438 
6772 968  245 
6773 850  777 
6774 911  314 
6775 380  88  
6776 532  77  
6777 821  440 
6778 424  994 
6779 104  10  
6780 376  751 
6781 712  329 
6782 15   486 
6783 527  379 
6784 215  767 
6785 489  961 
6786 125  637 
6787 498  913 
6788 189  256 
6789 928  144 
6790 584  530 
6791 604  717 
6792 380  429 
6793 643  743 
6794 769  928 
6795 630  629 
6796 833  277 
6797 672  149 
6798 854  141 
6799 450  863 
6800 549  753 
6801 217  120 
6802 472  187 
6803 863  465 
6804 277  798 
6805 938  952 
6806 84   264 
6807 18   906 
6808 208  548 
6809 645  320 
6810 810  257 
6811 796  812 
6812 343  883 
6813 605  604 
6814 145  422 
6815 787  531 
6816 537  932 
6817 773  556 
6818 795  492 
6819 481  14  
6820 830  599 
6821 691  175 
6822 122  264 
6823 585  912 
6824 965  820 
6825 912  320 
6826 623  900 
6827 978  705 
6828 136  526 
6829 247  656 
6830 502  471 
6831 572  105 
6832 222  950 
6833 499  335 
6834 527  755 
6835 27   597 
6836 589  699 
6837 736  209 
6838 148  327 
6839 576  266 
6840 496  826 
6841 957  899 
6842 357  887 
6843 432  18  
6844 158  888 
6845 124  582 
6846 236  820 
6847 93   861 
6848 816  232 
6849 319  271 
6850 471  64  
6851 715  814 
6852 789  43  
6853 186  464 
6854 439  998 
6855 557  191 
6856 633  425 
6857 38   764 
6858 133  728 
6859 890  991 
6860 392  478 
6861 444  911 
6862 216  770 
6863 107  847 
6864 346  141 
6865 55   551 
6866 95   522 
6867 811  845 
6868 778  30  
6869 427  68  
6870 589  80  
6871 882  218 
6872 254  669 
6873 702  433 
6874 406  850 
6875 151  661 
6876 685  573 
6877 265  50  
6878 748  695 
6879 142  840 
6880 657  641 
6881 311  960 
6882 227  241 
6883 445  154 
6884 247  18  
6885 393  295 
6886 734  512 
6887 518  257 
6888 649  118 
6889 136  31  
6890 264  212 
6891 725  451 
6892 282  617 
6893 847  976 
6894 973  565 
6895 23   274 
6896 334  829 
6897 173  641 
6898 890  373 
6899 924  95  
6900 711  129 
6901 30   974 
6902 771  308 
6903 661  872 
6904 576  908 
6905 938  815 
6906 540  111 
6907 852  809 
6908 374  445 
6909 322  536 
6910 878  637 
6911 421  324 
6912 294  722 
6913 60   132 
6914 526  473 
6915 377  120 
6916 502  273 
6917 697  941 
6918 862  17  
6919 663  192 
6920 956  78  
6921 630  29  
6922 302  40  
6923 370  802 
6924 918  502 
6925 538  282 
6926 923  300 
6927 524  793 
6928 528  348 
6929 2    47  
6930 757  7   
6931 44   438 
6932 667  803 
6933 120  948 
6934 706  967 
6935 175  632 
6936 309  566 
6937 456  470 
6938 145  573 
6939 932  389 
6940 790  47  
6941 779  314 
6942 927  386 
6943 659  992 
6944 141  521 
6945 604  269 
6946 22   372 
6947 150  313 
6948 707  556 
6949 176  932 
6950 324  100 
6951 462  494 
6952 580  181 
6953 447  382 
6954 361  249 
6955 884  195 
6956 138  115 
6957 341  584 
6958 323  53  
6959 641  72  
6960 2    514 
6961 737  487 
6962 955  424 
6963 501  914 
6964 172  854 
6965 176  273 
6966 720  350 
6967 494  25  
6968 220  586 
6969 632  378 
6970 428  639 
6971 655  968 
6972 60   774 
6973 958  827 
6974 812  277 
6975 322  9   
6976 603  184 
6977 108  634 
6978 345  344 
6979 532  244 
6980 971  444 
6981 587  543 
6982 989  939 
6983 649  432 
6984 933  968 
6985 165  350 
6986 311  804 
6987 192  596 
6988 725  374 
6989 707  279 
6990 781  516 
6991 592  213 
6992 919  410 
6993 652  823 
6994 657  911 
6995 971  107 
6996 558  697 
6997 667  338 
6998 353  432 
6999 748  863 
7000 400  271 
7001 679  395 
7002 279  25  
7003 321  771 
7004 946  310 
7005 657  169 
7006 882  612 
7007 957  406 
7008 830  924 
7009 429  797 
7010 624  51  
7011 331  583 
7012 518  809 
7013 763  600 
7014 839  999 
7015 288  658 
7016 269  773 
7017 884  764 
7018 358  239 
7019 842  168 
7020 880  875 
7021 149  832 
7022 177  63  
7023 179  601 
7024 309  522 
7025 239  457 
7026 21   134 
7027 166  881 
7028 480  488 
7029 282  338 
7030 380  625 
7031 558  454 
7032 11   1   
7033 295  329 
7034 78   107 
7035 121  708 
7036 394  106 
7037 324  495 
7038 112  897 
7039 439  558 
7040 794  715 
7041 807  323 
7042 534  665 
7043 739  665 
7044 684  14  
7045 557  280 
7046 228  146 
7047 500  607 
7048 54   306 
7049 163  521 
7050 777  773 
7051 780  648 
7052 466  682 
7053 588  449 
7054 381  605 
7055 479  176 
7056 498  795 
7057 924  963 
7058 240  430 
7059 312  43  
7060 955  771 
7061 920  682 
7062 846  552 
7063 501  569 
7064 948  120 
7065 824  70  
7066 365  218 
7067 735  272 
7068 421  216 
7069 904  254 
7070 946  617 
7071 263  849 
7072 531  65  
7073 397  351 
7074 695  882 
7075 735  161 
7076 95   6   
7077 49   874 
7078 144  578 
7079 577  188 
7080 2    467 
7081 990  896 
7082 460  615 
7083 101  935 
7084 338  539 
7085 136  309 
7086 527  843 
7087 514  566 
7088 538  432 
7089 559  90  
7090 908  866 
7091 467  178 
7092 452  678 
7093 843  319 
7094 184  656 
7095 317  972 
7096 836  716 
7097 447  877 
7098 912  244 
7099 70   140 
7100 571  425 
7101 331  752 
7102 466  409 
7103 527  670 
7104 969  118 
7105 235  348 
7106 554  728 
7107 124  972 
7108 31   128 
7109 90   716 
7110 453  318 
7111 210  37  
7112 858  713 
7113 291  444 
7114 702  862 
7115 280  907 
7116 488  814 
7117 909  588 
7118 180  620 
7119 55   316 
7120 457  533 
7121 332  615 
7122 225  529 
7123 23   706 
7124 663  914 
7125 78   246 
7126 719  762 
7127 816  43  
7128 530  889 
7129 640  217 
7130 94   840 
7131 972  678 
7132 964  258 
7133 570  249 
7134 99   675 
7135 977  137 
7136 237  209 
7137 897  456 
7138 73   816 
7139 81   365 
7140 959  158 
7141 946  811 
7142 947  638 
7143 712  473 
7144 808  792 
7145 511  519 
7146 427  406 
7147 947  751 
7148 14   218 
7149 346  746 
7150 679  156 
7151 437  721 
7152 874  936 
7153 605  776 
7154 307  253 
7155 236  173 
7156 75   105 
7157 122  196 
7158 308  721 
7159 471  807 
7160 994  496 
7161 960  256 
7162 99   204 
7163 389  624 
7164 605  554 
7165 222  10  
7166 389  641 
7167 734  97  
7168 616  576 
7169 466  347 
7170 874  620 
7171 253  609 
7172 718  661 
7173 917  560 
7174 235  171 
7175 453  240 
7176 560  674 
7177 649  759 
7178 120  921 
7179 687  267 
7180 288  841 
7181 515  154 
7182 37   578 
7183 956  376 
7184 847  81  
7185 206  331 
7186 227  812 
7187 429  408 
7188 131  530 
7189 480  400 
7190 23   512 
7191 63   599 
7192 888  13  
7193 686  192 
7194 194  642 
7195 182  99  
7196 348  159 
7197 901  927 
7198 903  193 
7199 873  488 
7200 928  787 
7201 968  52  
7202 145  771 
7203 954  107 
7204 884  232 
7205 760  950 
7206 569  656 
7207 699  789 
7208 257  378 
7209 423  429 
7210 85   702 
7211 539  937 
7212 635  512 
7213 696  764 
7214 38   991 
7215 518  85  
7216 994  993 
7217 856  962 
7218 431  644 
7219 582  844 
7220 17   592 
7221 860  550 
7222 958  239 
7223 25   657 
7224 906  266 
7225 428  698 
7226 88   539 
7227 985  275 
7228 455  147 
7229 227  240 
7230 890  400 
7231 714  706 
7232 56   488 
7233 296  439 
7234 459  37  
7235 691  718 
7236 526  781 
7237 468  861 
7238 160  390 
7239 476  672 
7240 434  236 
7241 914  162 
7242 700  759 
7243 807  685 
7244 565  459 
7245 783  388 
7246 44   770 
7247 634  238 
7248 502  278 
7249 620  461 
7250 566  943 
7251 363  60  
7252 810  629 
7253 938  590 
7254 616  700 
7255 943  179 
7256 156  519 
7257 314  763 
7258 791  127 
7259 463  30  
7260 357  551 
7261 301  399 
7262 214  912 
7263 749  529 
7264 366  719 
7265 754  873 
7266 738  354 
7267 274  969 
7268 258  450 
7269 851  65  
7270 465  654 
7271 782  529 
7272 926  700 
7273 853  900 
7274 139  218 
7275 533  774 
7276 1    157 
7277 55   70  
7278 993  769 
7279 315  509 
7280 779  394 
7281 672  826 
7282 712  887 
7283 626  677 
7284 219  857 
7285 450  399 
7286 379  543 
7287 976  971 
7288 332  943 
7289 246  813 
7290 286  72  
7291 345  524 
7292 663  986 
7293 674  497 
7294 251  694 
7295 253  284 
7296 313  95  
7297 354  693 
7298 138  850 
7299 376  697 
7300 301  646 
7301 67   200 
7302 711  659 
7303 513  806 
7304 242  158 
7305 886  671 
7306 371  638 
7307 1000 14  
7308 843  744 
7309 368  712 
7310 294  160 
7311 994  628 
7312 21   616 
7313 359  906 
7314 510  998 
7315 313  426 
7316 886  953 
7317 844  101 
7318 790  819 
7319 203  119 
7320 424  360 
7321 365  134 
7322 460  414 
7323 728  438 
7324 636  775 
7325 855  615 
7326 164  618 
7327 364  962 
7328 368  5   
7329 630  301 
7330 728  293 
7331 729  12  
7332 584  777 
7333 472  483 
7334 23   422 
7335 478  217 
7336 297  152 
7337 779  780 
7338 429  907 
7339 502  195 
7340 40   182 
7341 44   742 
7342 562  359 
7343 778  824 
7344 50   83  
7345 430  15  
7346 549  123 
7347 571  543 
7348 880  142 
7349 662  842 
7350 990  199 
7351 224  418 
7352 738  36  
7353 39   777 
7354 27   833 
7355 466  291 
7356 410  123 
7357 583  332 
7358 36   17  
7359 970  915 
7360 737  868 
7361 112  375 
7362 538  383 
7363 457  60  
7364 865  175 
7365 174  131 
7366 413  729 
7367 268  252 
7368 73   108 
7369 687  451 
7370 269  742 
7371 474  584 
7372 55   53  
7373 185  539 
7374 577  573 
7375 542  569 
7376 337  304 
7377 482  699 
7378 942  247 
7379 528  103 
7380 715  907 
7381 571  219 
7382 410  575 
7383 452  150 
7384 906  831 
7385 105  78  
7386 488  834 
7387 875  606 
7388 125  19  
7389 698  189 
7390 20   929 
7391 812  69  
7392 228  780 
7393 447  482 
7394 964  152 
7395 858  391 
7396 362  566 
7397 825  822 
7398 418  228 
7399 974  465 
7400 924  574 
7401 284  669 
7402 466  536 
7403 194  799 
7404 582  746 
7405 519  223 
7406 685  755 
7407 507  445 
7408 878  156 
7409 592  773 
7410 664  402 
7411 739  630 
7412 170  167 
7413 626  28  
7414 455  202 
7415 203  821 
7416 94   542 
7417 19   54  
7418 895  712 
7419 696  914 
7420 132  142 
7421 26   649 
7422 958  54  
7423 652  837 
7424 619  762 
7425 66   150 
7426 999  670 
7427 15   211 
7428 694  540 
7429 437  621 
7430 921  924 
7431 77   566 
7432 407  133 
7433 448  346 
7434 485  849 
7435 731  537 
7436 805  306 
7437 915  334 
7438 203  480 
7439 558  730 
7440 226  67  
7441 613  597 
7442 387  233 
7443 869  955 
7444 355  317 
7445 389  539 
7446 139  888 
7447 833  41  
7448 450  539 
7449 106  765 
7450 400  364 
7451 308  621 
7452 255  476 
7453 75   170 
7454 757  954 
7455 652  570 
7456 763  281 
7457 821  681 
7458 52   618 
7459 914  381 
7460 709  712 
7461 990  163 
7462 994  190 
7463 408  517 
7464 871  356 
7465 232  969 
7466 946  61  
7467 396  478 
7468 553  229 
7469 899  497 
7470 849  846 
7471 975  186 
7472 478  614 
7473 795  288 
7474 603  891 
7475 586  103 
7476 533  604 
7477 810  879 
7478 281  91  
7479 174  270 
7480 349  380 
7481 480  501 
7482 871  219 
7483 233  195 
7484 442  49  
7485 25   207 
7486 941  425 
7487 840  196 
7488 343  499 
7489 695  94  
7490 499  177 
7491 564  779 
7492 29   640 
7493 158  60  
7494 983  195 
7495 513  211 
7496 159  269 
7497 750  570 
7498 989  558 
7499 732  368 
7500 829  810 
7501 811  867 
7502 635  615 
7503 941  732 
7504 357  277 
7505 626  862 
7506 510  717 
7507 534  533 
7508 974  348 
7509 636  395 
7510 104  12  
7511 360  150 
7512 254  758 
7513 169  944 
7514 458  414 
7515 664  285 
7516 192  622 
7517 14   219 
7518 388  500 
7519 445  229 
7520 491  363 
7521 347  719 
7522 558  647 
7523 138  686 
7524 490  545 
7525 165  119 
7526 368  77  
7527 593  516 
7528 189  81  
7529 800  186 
7530 835  707 
7531 810  271 
7532 279  64  
7533 524  529 
7534 142  456 
7535 848  741 
7536 856  240 
7537 784  893 
7538 514  394 
7539 794  170 
7540 939  847 
7541 942  482 
7542 672  706 
7543 505  375 
7544 970  939 
7545 878  816 
7546 607  402 
7547 297  515 
7548 875  986 
7549 383  707 
7550 426  796 
7551 776  719 
7552 742  270 
7553 192  406 
7554 852  314 
7555 486  200 
7556 822  662 
7557 415  196 
7558 54   780 
7559 35   96  
7560 590  754 
7561 384  312 
7562 269  558 
7563 37   722 
7564 742  409 
7565 797  940 
7566 788  657 
7567 774  420 
7568 603  658 
7569 328  980 
7570 975  722 
7571 409  693 
7572 141  854 
7573 826  46  
7574 979  516 
7575 746  281 
7576 394  178 
7577 232  159 
7578 876  900 
7579 924  614 
7580 11   391 
7581 985  624 
7582 603  33  
7583 105  288 
7584 950  310 
7585 226  596 
7586 284  372 
7587 983  442 
7588 824  289 
7589 346  941 
7590 366  424 
7591 186  530 
7592 9    59  
7593 800  794 
7594 584  673 
7595 363  610 
7596 588  153 
7597 617  447 
7598 742  662 
7599 449  93  
7600 708  514 
7601 969  774 
7602 277  975 
7603 218  389 
7604 660  604 
7605 493  765 
7606 338  702 
7607 601  252 
7608 891  918 
7609 527  236 
7610 308  694 
7611 644  72  
7612 773  876 
7613 777  361 
7614 706  257 
7615 744  724 
7616 531  342 
7617 142  309 
7618 517  343 
7619 739  475 
7620 706  688 
7621 981  378 
7622 213  992 
7623 472  294 
7624 952  624 
7625 202  115 
7626 184  730 
7627 934  896 
7628 148  801 
7629 588  684 
7630 226  365 
7631 526  334 
7632 586  477 
7633 165  734 
7634 577  310 
7635 692  737 
7636 715  640 
7637 419  95  
7638 297  639 
7639 79   41  
7640 547  347 
7641 106  137 
7642 748  328 
7643 35   143 
7644 537  337 
7645 645  870 
7646 206  164 
7647 666  119 
7648 561  363 
7649 603  976 
7650 340  554 
7651 179  748 
7652 845  563 
7653 936  977 
7654 371  148 
7655 448  667 
7656 231  640 
7657 770  328 
7658 495  255 
7659 461  955 
7660 23   660 
7661 686  332 
7662 103  458 
7663 432  143 
7664 333  65  
7665 6    169 
7666 561  166 
7667 729  984 
7668 16   605 
7669 474  425 
7670 718  76  
7671 208  245 
7672 54   340 
7673 555  273 
7674 377  787 
7675 198  867 
7676 87   148 
7677 384  767 
7678 246  639 
7679 464  429 
7680 621  673 
7681 512  251 
7682 588  302 
7683 990  622 
7684 20   450 
7685 721  203 
7686 540  649 
7687 62   93  
7688 708  983 
7689 623  292 
7690 646  293 
7691 276  539 
7692 282  728 
7693 924  159 
7694 942  892 
7695 502  951 
7696 982  397 
7697 749  142 
7698 826  745 
7699 611  373 
7700 574  75  
7701 744  786 
7702 230  781 
7703 753  36  
7704 259  441 
7705 292  311 
7706 867  189 
7707 80   537 
7708 692  816 
7709 417  962 
7710 679  538 
7711 536  732 
7712 496  297 
7713 882  610 
7714 903  678 
7715 776  331 
7716 135  568 
7717 118  912 
7718 635  294 
7719 723  986 
7720 173  389 
7721 620  50  
7722 412  623 
7723 540  252 
7724 252  878 
7725 202  407 
7726 118  771 
7727 799  486 
7728 766  623 
7729 875  132 
7730 163  256 
7731 537  531 
7732 41   956 
7733 795  327 
7734 106  858 
7735 862  301 
7736 650  997 
7737 500  118 
7738 547  375 
7739 767  144 
7740 35   171 
7741 163  126 
7742 879  554 
7743 185  538 
7744 96   75  
7745 64   745 
7746 687  435 
7747 943  549 
7748 174  354 
7749 451  315 
7750 257  22  
7751 718  287 
7752 866  530 
7753 63   622 
7754 567  14  
7755 110  463 
7756 510  357 
7757 628  8   
7758 708  480 
7759 485  41  
7760 674  304 
7761 34   211 
7762 826  119 
7763 59   652 
7764 81   212 
7765 480  679 
7766 617  938 
7767 266  46  
7768 578  519 
7769 349  844 
7770 30   313 
7771 472  533 
7772 552  825 
7773 419  866 
7774 593  83  
7775 65   922 
7776 542  404 
7777 450  84  
7778 17   543 
7779 380  277 
7780 414  555 
7781 803  968 
7782 365  71  
7783 857  279 
7784 584  761 
7785 344  382 
7786 513  547 
7787 591  798 
7788 960  536 
7789 703  240 
7790 619  765 
7791 454  790 
7792 184  342 
7793 368  467 
7794 781  439 
7795 415  905 
7796 17   458 
7797 181  631 
7798 809  950 
7799 886  164 
7800 584  806 
7801 969  649 
7802 80   660 
7803 545  574 
7804 783  620 
7805 679  655 
7806 576  148 
7807 614  636 
7808 596  223 
7809 995  714 
7810 743  344 
7811 999  178 
7812 670  982 
7813 913  835 
7814 808  39  
7815 168  134 
7816 153  246 
7817 139  263 
7818 230  452 
7819 382  3   
7820 400  809 
7821 483  936 
7822 652  127 
7823 230  87  
7824 488  626 
7825 345  911 
7826 896  521 
7827 987  584 
7828 337  275 
7829 504  508 
7830 366  998 
7831 112  705 
7832 115  162 
7833 571  87  
7834 662  258 
7835 741  267 
7836 689  416 
7837 394  12  
7838 547  990 
7839 72   446 
7840 702  702 
7841 10   124 
7842 121  855 
7843 837  649 
7844 267  871 
7845 824  552 
7846 259  791 
7847 941  731 
7848 265  138 
7849 467  984 
7850 376  643 
7851 489  676 
7852 898  654 
7853 648  581 
7854 632  436 
7855 25   522 
7856 155  631 
7857 233  687 
7858 882  4   
7859 313  263 
7860 795  647 
7861 262  696 
7862 547  538 
7863 20   506 
7864 856  518 
7865 123  25  
7866 803  885 
7867 702  69  
7868 920  567 
7869 227  39  
7870 216  276 
7871 41   431 
7872 832  430 
7873 190  776 
7874 139  790 
7875 806  118 
7876 493  681 
7877 334  855 
7878 986  602 
7879 628  895 
7880 737  592 
7881 80   737 
7882 322  674 
7883 201  819 
7884 886  418 
7885 904  728 
7886 67   854 
7887 842  12  
7888 201  924 
7889 643  53  
7890 606  61  
7891 315  132 
7892 12   92  
7893 269  843 
7894 992  864 
7895 224  218 
7896 205  589 
7897 761  37  
7898 120  923 
7899 192  376 
7900 657  290 
7901 714  469 
7902 948  807 
7903 305  136 
7904 159  61  
7905 676  105 
7906 457  981 
7907 594  782 
7908 576  269 
7909 29   577 
7910 894  37  
7911 327  860 
7912 491  754 
7913 2    795 
7914 370  449 
7915 495  218 
7916 25   170 
7917 11   75  
7918 195  246 
7919 486  299 
7920 405  831 
7921 409  692 
7922 618  442 
7923 391  892 
7924 713  454 
7925 928  755 
7926 986  297 
7927 659  389 
7928 696  527 
7929 720  373 
7930 216  692 
7931 843  625 
7932 976  158 
7933 78   498 
7934 542  93  
7935 393  74  
7936 892  2   
7937 454  557 
7938 228  394 
7939 251  123 
7940 983  298 
7941 459  86  
7942 276  512 
7943 407  494 
7944 228  281 
7945 381  869 
7946 117  527 
7947 87   567 
7948 184  270 
7949 520  488 
7950 596  595 
7951 545  811 
7952 175  80  
7953 32   194 
7954 438  738 
7955 973  643 
7956 903  812 
7957 593  615 
7958 722  901 
7959 27   89  
7960 230  576 
7961 191  730 
7962 359  292 
7963 910  140 
7964 696  280 
7965 786  486 
7966 143  615 
7967 889  297 
7968 706  689 
7969 526  476 
7970 948  630 
7971 731  878 
7972 787  560 
7973 278  165 
7974 266  661 
7975 545  742 
7976 718  759 
7977 719  346 
7978 131  965 
7979 395  840 
7980 275  782 
7981 793  845 
7982 760  280 
7983 11   824 
7984 840  464 
7985 729  611 
7986 510  108 
7987 662  121 
7988 519  672 
7989 116  35  
7990 957  563 
7991 136  779 
7992 304  157 
7993 608  971 
7994 842  405 
7995 663  641 
7996 900  821 
7997 115  237 
7998 851  161 
7999 870  79  
8000 543  191 
8001 617  659 
8002 357  872 
8003 470  601 
8004 290  179 
8005 570  379 
8006 223  883 
8007 573  628 
8008 564  861 
8009 432  128 
8010 675  220 
8011 659  707 
8012 768  810 
8013 275  714 
8014 864  131 
8015 686  444 
8016 971  706 
8017 826  195 
8018 242  954 
8019 3    872 
8020 613  153 
8021 280  227 
8022 501  927 
8023 439  628 
8024 480  523 
8025 708  163 
8026 928  543 
8027 677  956 
8028 99   620 
8029 760  690 
8030 119  369 
8031 727  118 
8032 51   721 
8033 450  222 
8034 752  834 
8035 346  31  
8036 475  689 
8037 954  734 
8038 388  792 
8039 6    347 
8040 940  477 
8041 730  953 
8042 548  746 
8043 787  434 
8044 381  551 
8045 143  22  
8046 365  98  
8047 95   777 
8048 170  80  
8049 333  644 
8050 372  862 
8051 30   764 
8052 901  87  
8053 522  796 
8054 526  892 
8055 865  880 
8056 612  155 
8057 977  514 
8058 355  178 
8059 304  896 
8060 815  358 
8061 674  546 
8062 839  412 
8063 916  987 
8064 41   487 
8065 978  832 
8066 207  534 
8067 852  985 
8068 981  59  
8069 585  738 
8070 965  582 
8071 765  852 
8072 434  142 
8073 307  420 
8074 92   982 
8075 308  651 
8076 165  14  
8077 60   308 
8078 667  452 
8079 889  340 
8080 616  508 
8081 190  595 
8082 896  994 
8083 292  391 
8084 592  389 
8085 421  357 
8086 424  23  
8087 978  610 
8088 981  285 
8089 486  853 
8090 966  195 
8091 549  121 
8092 697  974 
8093 109  562 
8094 4    418 
8095 870  559 
8096 491  894 
8097 575  826 
8098 766  767 
8099 440  875 
8100 404  910 
8101 124  939 
8102 89   984 
8103 681  764 
8104 408  376 
8105 317  760 
8106 728  641 
8107 469  941 
8108 71   809 
8109 55   420 
8110 371  115 
8111 558  453 
8112 741  645 
8113 79   290 
8114 125  416 
8115 806  963 
8116 129  83  
8117 478  964 
8118 903  11  
8119 858  530 
8120 214  638 
8121 695  229 
8122 755  902 
8123 292  648 
8124 24   38  
8125 595  817 
8126 29   811 
8127 414  255 
8128 659  588 
8129 789  977 
8130 521  595 
8131 355  645 
8132 335  667 
8133 513  919 
8134 641  218 
8135 371  687 
8136 392  360 
8137 446  191 
8138 855  193 
8139 930  248 
8140 821  465 
8141 627  414 
8142 385  693 
8143 782  420 
8144 893  511 
8145 76   63  
8146 555  26  
8147 43   974 
8148 924  845 
8149 820  142 
8150 471  574 
8151 938  49  
8152 756  984 
8153 422  102 
8154 687  734 
8155 504  645 
8156 531  66  
8157 289  435 
8158 950  904 
8159 166  155 
8160 388  417 
8161 891  992 
8162 178  845 
8163 783  216 
8164 435  70  
8165 705  100 
8166 227  488 
8167 725  105 
8168 728  259 
8169 1000 552 
8170 585  670 
8171 13   157 
8172 88   98  
8173 37   23  
8174 240  109 
8175 438  682 
8176 459  717 
8177 79   684 
8178 351  843 
8179 559  246 
8180 134  999 
8181 355  396 
8182 321  748 
8183 198  42  
8184 400  12  
8185 75   906 
8186 573  135 
8187 921  478 
8188 848  650 
8189 791  161 
8190 979  65  
8191 724  132 
8192 201  193 
8193 338  90  
8194 671  812 
8195 547  274 
8196 514  121 
8197 383  702 
8198 797  966 
8199 375  766 
8200 283  916 
8201 858  724 
8202 106  81  
8203 785  554 
8204 570  320 
8205 23   622 
8206 851  345 
8207 814  847 
8208 267  184 
8209 513  160 
8210 327  776 
8211 145  804 
8212 426  491 
8213 577  825 
8214 353  601 
8215 466  984 
8216 376  934 
8217 231  600 
8218 560  84  
8219 885  747 
8220 263  349 
8221 452  426 
8222 471  414 
8223 16   678 
8224 24   177 
8225 189  713 
8226 295  76  
8227 445  575 
8228 393  988 
8229 105  330 
8230 553  830 
8231 733  600 
8232 879  114 
8233 622  208 
8234 146  271 
8235 114  411 
8236 21   573 
8237 688  470 
8238 925  23  
8239 764  33  
8240 551  125 
8241 497  498 
8242 460  194 
8243 433  842 
8244 142  914 
8245 489  854 
8246 454  992 
8247 19   197 
8248 41   285 
8249 721  419 
8250 777  401 
8251 123  393 
8252 131  300 
8253 648  130 
8254 80   452 
8255 579  938 
8256 599  439 
8257 673  305 
8258 838  661 
8259 873  649 
8260 327  144 
8261 181  586 
8262 134  816 
8263 892  530 
8264 605  551 
8265 52   729 
8266 60   252 
8267 23   488 
8268 5    557 
8269 374  452 
8270 697  917 
8271 148  783 
8272 64   22  
8273 581  479 
8274 637  871 
8275 11   561 
8276 748  64  
8277 257  913 
8278 162  558 
8279 839  936 
8280 36   43  
8281 532  944 
8282 809  365 
8283 409  127 
8284 690  472 
8285 49   416 
8286 176  862 
8287 339  250 
8288 625  757 
8289 667  968 
8290 227  849 
8291 687  389 
8292 140  840 
8293 880  517 
8294 537  484 
8295 497  743 
8296 921  69  
8297 944  290 
8298 399  626 
8299 827  127 
8300 646  721 
8301 521  824 
8302 232  483 
8303 976  994 
8304 224  775 
8305 727  271 
8306 909  766 
8307 438  318 
8308 10   17  
8309 928  756 
8310 0    7   
8311 66   280 
8312 836  276 
8313 177  913 
8314 243  432 
8315 673  145 
8316 378  393 
8317 216  548 
8318 859  202 
8319 39   508 
8320 854  451 
8321 711  462 
8322 267  753 
8323 472  893 
8324 713  769 
8325 697  388 
8326 240  489 
8327 557  656 
8328 338  922 
8329 523  512 
8330 479  26  
8331 485  693 
8332 695  774 
8333 934  506 
8334 626  437 
8335 919  626 
8336 574  941 
8337 83   914 
8338 815  333 
8339 999  672 
8340 562  909 
8341 48   895 
8342 765  990 
8343 53   450 
8344 458  146 
8345 78   943 
8346 852  966 
8347 999  561 
8348 397  501 
8349 182  885 
8350 643  485 
8351 770  625 
8352 208  516 
8353 51   78  
8354 605  523 
8355 93   471 
8356 956  987 
8357 100  641 
8358 672  258 
8359 840  868 
8360 468  173 
8361 827  622 
8362 884  629 
8363 424  203 
8364 574  489 
8365 706  545 
8366 308  837 
8367 990  377 
8368 631  633 
8369 562  416 
8370 712  525 
8371 70   203 
8372 201  8   
8373 845  672 
8374 510  109 
8375 131  738 
8376 300  219 
8377 121  466 
8378 370  403 
8379 404  201 
8380 79   329 
8381 689  13  
8382 841  858 
8383 3    589 
8384 977  266 
8385 116  194 
8386 667  754 
8387 871  882 
8388 863  802 
8389 742  229 
8390 392  623 
8391 284  517 
8392 301  993 
8393 931  310 
8394 586  625 
8395 492  672 
8396 863  947 
8397 918  528 
8398 464  129 
8399 357  474 
8400 452  482 
8401 128  424 
8402 458  867 
8403 440  490 
8404 99   623 
8405 372  697 
8406 212  854 
8407 229  784 
8408 587  898 
8409 933  658 
8410 751  127 
8411 769  337 
8412 811  58  
8413 830  362 
8414 103  904 
8415 267  652 
8416 91   832 
8417 700  850 
8418 403  444 
8419 811  75  
8420 890  576 
8421 636  60  
8422 375  8   
8423 88   762 
8424 35   981 
8425 14   230 
8426 147  963 
8427 60   608 
8428 42   23  
8429 170  480 
8430 522  797 
8431 369  247 
8432 545  212 
8433 51   287 
8434 288  123 
8435 695  874 
8436 57   946 
8437 921  901 
8438 35   819 
8439 551  363 
8440 700  551 
8441 574  216 
8442 297  12  
8443 653  727 
8444 607  16  
8445 239  928 
8446 596  487 
8447 226  45  
8448 407  64  
8449 549  919 
8450 677  162 
8451 787  990 
8452 207  311 
8453 464  777 
8454 502  369 
8455 162  884 
8456 537  608 
8457 258  131 
8458 494  917 
8459 705  298 
8460 874  419 
8461 726  576 
8462 199  576 
8463 59   341 
8464 376  463 
8465 267  288 
8466 103  36  
8467 610  344 
8468 611  529 
8469 797  880 
8470 173  54  
8471 598  761 
8472 841  20  
8473 272  265 
8474 55   54  
8475 828  374 
8476 900  923 
8477 741  563 
8478 908  446 
8479 654  686 
8480 345  802 
8481 993  802 
8482 44   180 
8483 154  916 
8484 10   356 
8485 971  899 
8486 382  342 
8487 167  702 
8488 581  892 
8489 525  532 
8490 849  188 
8491 427  994 
8492 10   70  
8493 409  627 
8494 120  400 
8495 161  210 
8496 641  168 
8497 54   135 
8498 224  702 
8499 243  330 
8500 262  944 
8501 565  825 
8502 397  919 
8503 72   354 
8504 935  411 
8505 350  649 
8506 778  466 
8507 450  35  
8508 414  926 
8509 418  453 
8510 494  168 
8511 705  575 
8512 191  200 
8513 109  431 
8514 937  604 
8515 669  13  
8516 303  371 
8517 956  607 
8518 958  53  
8519 85   183 
8520 764  508 
8521 659  120 
8522 757  613 
8523 591  905 
8524 999  744 
8525 839  387 
8526 401  41  
8527 649  771 
8528 540  60  
8529 562  548 
8530 302  283 
8531 620  370 
8532 434  179 
8533 749  402 
8534 883  928 
8535 294  655 
8536 79   687 
8537 909  418 
8538 822  845 
8539 162  809 
8540 767  370 
8541 260  922 
8542 853  261 
8543 925  920 
8544 47   434 
8545 286  670 
8546 417  861 
8547 520  878 
8548 97   181 
8549 353  35  
8550 45   813 
8551 10   708 
8552 709  326 
8553 508  649 
8554 326  798 
8555 628  682 
8556 735  758 
8557 37   473 
8558 184  771 
8559 336  794 
8560 729  553 
8561 527  666 
8562 658  535 
8563 590  618 
8564 37   426 
8565 956  336 
8566 500  84  
8567 804  140 
8568 749  871 
8569 71   895 
8570 970  660 
8571 917  363 
8572 663  347 
8573 760  192 
8574 689  196 
8575 582  265 
8576 323  834 
8577 785  553 
8578 346  481 
8579 538  995 
8580 85   836 
8581 529  556 
8582 987  360 
8583 915  759 
8584 842  573 
8585 475  60  
8586 516  830 
8587 600  711 
8588 525  568 
8589 910  830 
8590 124  285 
8591 180  543 
8592 261  314 
8593 10   122 
8594 998  315 
8595 855  390 
8596 396  835 
8597 683  273 
8598 349  829 
8599 557  376 
8600 759  554 
8601 261  331 
8602 872  342 
8603 716  735 
8604 665  687 
8605 575  148 
8606 557  393 
8607 337  878 
8608 247  487 
8609 416  155 
8610 345  363 
8611 52   247 
8612 507  90  
8613 574  852 
8614 947  578 
8615 30   682 
8616 858  43  
8617 532  168 
8618 807  982 
8619 816  619 
8620 768  462 
8621 57   889 
8622 919  617 
8623 223  44  
8624 960  614 
8625 811  288 
8626 596  714 
8627 108  348 
8628 91   598 
8629 833  153 
8630 728  369 
8631 763  216 
8632 985  70  
8633 994  396 
8634 522  567 
8635 283  489 
8636 909  373 
8637 566  852 
8638 970  357 
8639 18   790 
8640 187  629 
8641 888  998 
8642 64   248 
8643 407  904 
8644 979  401 
8645 931  530 
8646 434  38  
8647 737  711 
8648 183  737 
8649 117  109 
8650 466  343 
8651 840  728 
8652 399  953 
8653 328  396 
8654 329  85  
8655 633  903 
8656 335  75  
8657 232  808 
8658 804  450 
8659 535  82  
8660 439  57  
8661 738  346 
8662 59   157 
8663 349  443 
8664 117  143 
8665 151  357 
8666 832  923 
8667 840  438 
8668 931  961 
8669 554  696 
8670 166  802 
8671 83   128 
8672 709  92  
8673 177  123 
8674 304  243 
8675 16   199 
8676 115  787 
8677 650  522 
8678 816  286 
8679 120  123 
8680 249  601 
8681 305  287 
8682 548  173 
8683 254  202 
8684 418  982 
8685 534  392 
8686 805  730 
8687 572  827 
8688 115  128 
8689 842  462 
8690 431  844 
8691 638  44  
8692 894  442 
8693 346  372 
8694 479  560 
8695 177  694 
8696 33   358 
8697 750  725 
8698 505  801 
8699 989  527 
8700 628  241 
8701 168  847 
8702 868  672 
8703 885  718 
8704 439  530 
8705 941  684 
8706 487  806 
8707 471  445 
8708 829  843 
8709 224  614 
8710 519  147 
8711 103  790 
8712 87   141 
8713 358  977 
8714 971  518 
8715 544  564 
8716 851  688 
8717 47   611 
8718 160  845 
8719 507  102 
8720 274  189 
8721 518  472 
8722 649  415 
8723 977  890 
8724 725  748 
8725 781  650 
8726 636  25  
8727 703  165 
8728 731  676 
8729 768  426 
8730 74   609 
8731 587  340 
8732 80   274 
8733 669  870 
8734 212  759 
8735 839  442 
8736 986  794 
8737 507  821 
8738 164  626 
8739 852  967 
8740 69   571 
8741 86   395 
8742 804  546 
8743 485  918 
8744 344  86  
8745 810  351 
8746 235  988 
8747 14   327 
8748 326  53  
8749 329  279 
8750 735  923 
8751 424  61  
8752 120  620 
8753 486  687 
8754 633  818 
8755 596  162 
8756 743  269 
8757 581  434 
8758 636  675 
8759 965  787 
8760 322  823 
8761 862  421 
8762 628  627 
8763 594  974 
8764 280  698 
8765 832  999 
8766 763  657 
8767 519  674 
8768 903  259 
8769 228  679 
8770 561  360 
8771 373  442 
8772 395  40  
8773 452  47  
8774 789  360 
8775 862  598 
8776 864  423 
8777 558  431 
8778 267  114 
8779 106  406 
8780 305  315 
8781 440  542 
8782 167  661 
8783 870  476 
8784 618  13  
8785 980  628 
8786 780  812 
8787 746  70  
8788 695  131 
8789 772  876 
8790 21   432 
8791 242  809 
8792 868  757 
8793 746  233 
8794 471  464 
8795 399  375 
8796 556  90  
8797 722  366 
8798 81   126 
8799 543  364 
8800 564  637 
8801 584  403 
8802 323  201 
8803 11   343 
8804 52   393 
8805 574  562 
8806 684  182 
8807 155  896 
8808 341  949 
8809 146  709 
8810 243  399 
8811 333  305 
8812 996  119 
8813 303  489 
8814 711  540 
8815 547  583 
8816 268  880 
8817 511  586 
8818 798  852 
8819 329  759 
8820 902  950 
8821 359  535 
8822 288  124 
8823 990  655 
8824 807  879 
8825 422  203 
8826 243  858 
8827 429  741 
8828 571  964 
8829 787  771 
8830 511  825 
8831 990  798 
8832 701  345 
8833 739  26  
8834 356  554 
8835 711  96  
8836 514  700 
8837 972  396 
8838 95   207 
8839 597  9   
8840 501  100 
8841 763  369 
8842 821  593 
8843 883  884 
8844 838  508 
8845 785  0   
8846 804  292 
8847 17   158 
8848 79   1000
8849 939  891 
8850 903  560 
8851 446  793 
8852 767  447 
8853 970  927 
8854 149  730 
8855 331  715 
8856 978  642 
8857 390  540 
8858 248  155 
8859 32   684 
8860 309  996 
8861 163  402 
8862 988  303 
8863 934  653 
8864 168  316 
8865 124  933 
8866 819  767 
8867 966  370 
8868 771  864 
8869 617  764 
8870 780  242 
8871 140  785 
8872 1    253 
8873 400  750 
8874 497  686 
8875 956  403 
8876 261  547 
8877 847  186 
8878 215  316 
8879 641  397 
8880 590  856 
8881 37   888 
8882 955  237 
8883 717  363 
8884 239  27  
8885 498  419 
8886 544  815 
8887 45   430 
8888 310  818 
8889 422  728 
8890 299  47  
8891 428  457 
8892 176  306 
8893 72   355 
8894 953  222 
8895 167  108 
8896 542  8   
8897 263  537 
8898 747  826 
8899 12   799 
8900 569  430 
8901 907  522 
8902 989  906 
8903 60   662 
8904 739  971 
8905 596  832 
8906 683  99  
8907 977  834 
8908 428  894 
8909 673  457 
8910 179  256 
8911 60   517 
8912 731  748 
8913 541  355 
8914 209  762 
8915 764  364 
8916 807  736 
8917 576  602 
8918 616  331 
8919 389  519 
8920 503  617 
8921 144  982 
8922 970  334 
8923 717  755 
8924 791  876 
8925 539  255 
8926 840  814 
8927 178  173 
8928 415  680 
8929 640  890 
8930 364  192 
8931 572  381 
8932 594  741 
8933 259  180 
8934 1000 968 
8935 675  636 
8936 213  933 
8937 446  938 
8938 529  86  
8939 990  167 
8940 991  650 
8941 889  80  
8942 905  731 
8943 657  426 
8944 608  568 
8945 956  226 
8946 576  6   
8947 490  28  
8948 810  875 
8949 222  623 
8950 118  524 
8951 211  410 
8952 672  920 
8953 139  137 
8954 914  829 
8955 992  165 
8956 721  537 
8957 906  765 
8958 104  549 
8959 733  146 
8960 880  618 
8961 20   867 
8962 328  45  
8963 802  813 
8964 271  594 
8965 915  758 
8966 901  567 
8967 243  11  
8968 543  6   
8969 399  318 
8970 497  948 
8971 785  987 
8972 732  332 
8973 437  24  
8974 368  935 
8975 223  619 
8976 612  650 
8977 544  954 
8978 980  898 
8979 46   772 
8980 161  110 
8981 588  403 
8982 38   948 
8983 66   421 
8984 893  272 
8985 143  219 
8986 241  137 
8987 574  853 
8988 868  114 
8989 428  723 
8990 384  553 
8991 740  52  
8992 939  217 
8993 27   419 
8994 708  554 
8995 734  558 
8996 825  274 
8997 181  694 
8998 762  703 
8999 725  297 
9000 843  914 
9001 327  253 
9002 394  816 
9003 179  58  
9004 199  967 
9005 271  458 
9006 627  952 
9007 166  276 
9008 43   603 
9009 999  924 
9010 821  536 
9011 715  45  
9012 350  448 
9013 908  940 
9014 911  523 
9015 148  777 
9016 224  511 
9017 957  473 
9018 583  131 
9019 805  133 
9020 606  32  
9021 776  405 
9022 652  312 
9023 162  556 
9024 434  777 
9025 306  380 
9026 553  197 
9027 58   749 
9028 992  867 
9029 849  686 
9030 575  892 
9031 250  545 
9032 784  31  
9033 275  868 
9034 348  118 
9035 790  5   
9036 979  972 
9037 690  425 
9038 324  255 
9039 659  970 
9040 310  446 
9041 775  864 
9042 98   988 
9043 138  359 
9044 283  882 
9045 417  420 
9046 107  662 
9047 396  691 
9048 776  977 
9049 580  351 
9050 618  22  
9051 840  228 
9052 569  554 
9053 784  332 
9054 231  745 
9055 552  696 
9056 76   558 
9057 871  985 
9058 418  185 
9059 293  827 
9060 684  60  
9061 668  857 
9062 885  717 
9063 116  910 
9064 669  432 
9065 319  235 
9066 492  717 
9067 533  417 
9068 534  602 
9069 898  766 
9070 684  211 
9071 333  443 
9072 924  610 
9073 391  543 
9074 910  565 
9075 454  657 
9076 82   524 
9077 378  407 
9078 765  265 
9079 275  111 
9080 479  247 
9081 941  990 
9082 801  203 
9083 198  549 
9084 146  384 
9085 830  430 
9086 412  67  
9087 910  454 
9088 968  723 
9089 199  133 
9090 401  214 
9091 645  123 
9092 316  935 
9093 207  654 
9094 282  627 
9095 730  373 
9096 783  237 
9097 89   107 
9098 18   89  
9099 331  226 
9100 847  990 
9101 277  828 
9102 494  562 
9103 359  720 
9104 363  277 
9105 87   673 
9106 736  873 
9107 36   693 
9108 57   630 
9109 905  416 
9110 672  405 
9111 430  389 
9112 98   461 
9113 796  782 
9114 602  589 
9115 52   558 
9116 398  598 
9117 883  776 
9118 679  707 
9119 258  189 
9120 322  820 
9121 503  887 
9122 296  903 
9123 130  18  
9124 315  18  
9125 478  546 
9126 466  90  
9127 690  506 
9128 258  334 
9129 629  199 
9130 993  171 
9131 278  885 
9132 850  244 
9133 173  97  
9134 253  211 
9135 349  672 
9136 520  660 
9137 573  512 
9138 172  415 
9139 104  637 
9140 908  363 
9141 254  231 
9142 385  226 
9143 79   504 
9144 906  772 
9145 245  992 
9146 872  610 
9147 926  323 
9148 548  337 
9149 16   962 
9150 90   931 
9151 309  323 
9152 163  821 
9153 385  275 
9154 998  369 
9155 858  428 
9156 859  925 
9157 234  386 
9158 676  765 
9159 759  636 
9160 233  842 
9161 103  676 
9162 200  413 
9163 542  45  
9164 670  102 
9165 824  338 
9166 751  121 
9167 695  465 
9168 935  70  
9169 574  642 
9170 501  702 
9171 873  779 
9172 130  846 
9173 463  758 
9174 134  434 
9175 872  77  
9176 928  367 
9177 639  841 
9178 493  955 
9179 920  707 
9180 740  460 
9181 501  464 
9182 502  907 
9183 69   764 
9184 26   545 
9185 356  580 
9186 161  594 
9187 331  142 
9188 611  454 
9189 830  164 
9190 562  574 
9191 486  622 
9192 710  398 
9193 217  299 
9194 184  412 
9195 113  458 
9196 577  91  
9197 260  785 
9198 672  433 
9199 1000 606 
9200 191  763 
9201 305  696 
9202 784  667 
9203 126  592 
9204 37   193 
9205 924  351 
9206 688  939 
9207 598  418 
9208 52   514 
9209 109  559 
9210 277  419 
9211 350  299 
9212 813  689 
9213 429  168 
9214 658  926 
9215 398  733 
9216 944  575 
9217 482  594 
9218 658  561 
9219 750  854 
9220 993  183 
9221 301  144 
9222 547  200 
9223 641  275 
9224 736  159 
9225 55   417 
9226 349  644 
9227 617  652 
9228 708  349 
9229 671  107 
9230 709  164 
9231 381  19  
9232 552  737 
9233 474  375 
9234 78   109 
9235 888  185 
9236 337  213 
9237 102  855 
9238 285  301 
9239 103  490 
9240 214  637 
9241 246  770 
9242 319  210 
9243 158  84  
9244 803  257 
9245 234  521 
9246 589  129 
9247 461  270 
9248 775  364 
9249 925  159 
9250 525  837 
9251 12   792 
9252 631  443 
9253 170  160 
9254 464  397 
9255 512  219 
9256 198  722 
9257 204  71  
9258 612  68  
9259 902  768 
9260 961  324 
9261 651  512 
9262 428  895 
9263 142  949 
9264 915  119 
9265 899  538 
9266 596  688 
9267 995  165 
9268 26   658 
9269 195  557 
9270 535  535 
9271 701  267 
9272 497  309 
9273 151  814 
9274 62   351 
9275 122  170 
9276 658  62  
9277 469  327 
9278 787  798 
9279 865  514 
9280 356  719 
9281 51   27  
9282 331  315 
9283 830  979 
9284 838  334 
9285 362  415 
9286 322  602 
9287 539  111 
9288 122  511 
9289 875  215 
9290 568  653 
9291 37   374 
9292 476  314 
9293 396  475 
9294 876  315 
9295 897  602 
9296 36   50  
9297 398  697 
9298 809  374 
9299 336  796 
9300 80   950 
9301 463  477 
9302 339  227 
9303 340  648 
9304 533  615 
9305 932  116 
9306 755  555 
9307 291  68  
9308 797  850 
9309 949  663 
9310 180  852 
9311 638  167 
9312 196  478 
9313 306  522 
9314 716  789 
9315 791  497 
9316 44   154 
9317 278  684 
9318 546  436 
9319 656  284 
9320 430  603 
9321 127  567 
9322 935  714 
9323 864  223 
9324 120  319 
9325 176  241 
9326 381  168 
9327 698  90  
9328 660  291 
9329 538  643 
9330 128  483 
9331 882  350 
9332 328  667 
9333 868  797 
9334 262  914 
9335 802  127 
9336 34   981 
9337 273  619 
9338 132  442 
9339 61   524 
9340 281  692 
9341 609  984 
9342 261  107 
9343 912  989 
9344 216  506 
9345 198  574 
9346 220  814 
9347 494  309 
9348 308  441 
9349 294  124 
9350 60   554 
9351 795  953 
9352 702  73  
9353 333  986 
9354 389  856 
9355 155  262 
9356 265  330 
9357 708  698 
9358 700  634 
9359 347  706 
9360 277  807 
9361 848  813 
9362 903  951 
9363 377  267 
9364 393  494 
9365 527  151 
9366 251  302 
9367 506  97  
9368 877  174 
9369 94   168 
9370 151  163 
9371 796  180 
9372 84   134 
9373 305  631 
9374 782  963 
9375 383  138 
9376 627  808 
9377 477  849 
9378 683  522 
9379 505  24  
9380 966  255 
9381 914  346 
9382 884  540 
9383 278  157 
9384 248  502 
9385 836  671 
9386 835  996 
9387 453  105 
9388 754  748 
9389 724  52  
9390 504  207 
9391 899  464 
9392 957  698 
9393 26   76  
9394 740  830 
9395 945  146 
9396 515  128 
9397 615  19  
9398 27   554 
9399 374  903 
9400 305  140 
9401 768  548 
9402 434  616 
9403 680  336 
9404 167  610 
9405 349  347 
9406 314  946 
9407 495  881 
9408 327  856 
9409 261  634 
9410 524  176 
9411 729  854 
9412 716  904 
9413 309  366 
9414 242  771 
9415 538  884 
9416 530  964 
9417 936  679 
9418 612  728 
9419 521  543 
9420 3    880 
9421 461  244 
9422 64   866 
9423 232  132 
9424 402  738 
9425 413  482 
9426 267  532 
9427 831  28  
9428 488  460 
9429 471  669 
9430 333  668 
9431 742  568 
9432 82   924 
9433 324  993 
9434 627  712 
9435 521  219 
9436 248  999 
9437 377  709 
9438 311  846 
9439 700  943 
9440 916  604 
9441 204  798 
9442 242  425 
9443 319  575 
9444 912  743 
9445 696  62  
9446 308  268 
9447 717  600 
9448 545  815 
9449 415  589 
9450 967  16  
9451 643  486 
9452 457  351 
9453 292  280 
9454 62   486 
9455 178  227 
9456 360  706 
9457 235  990 
9458 515  800 
9459 917  892 
9460 316  117 
9461 300  658 
9462 106  577 
9463 364  265 
9464 553  6   
9465 311  306 
9466 476  371 
9467 84   120 
9468 430  100 
9469 831  952 
9470 478  400 
9471 740  835 
9472 598  609 
9473 344  916 
9474 182  436 
9475 607  509 
9476 934  615 
9477 371  381 
9478 499  304 
9479 651  415 
9480 542  692 
9481 46   423 
9482 174  216 
9483 69   14  
9484 362  24  
9485 328  136 
9486 745  473 
9487 110  581 
9488 872  980 
9489 49   163 
9490 124  609 
9491 840  178 
9492 555  729 
9493 333  235 
9494 315  352 
9495 23   659 
9496 851  274 
9497 135  437 
9498 820  707 
9499 15   611 
9500 237  591 
9501 152  3   
9502 543  473 
9503 309  499 
9504 458  799 
9505 917  244 
9506 292  743 
9507 993  598 
9508 759  639 
9509 470  174 
9510 272  891 
9511 699  932 
9512 167  74  
9513 137  435 
9514 941  543 
9515 194  164 
9516 102  613 
9517 289  216 
9518 642  732 
9519 682  913 
9520 539  824 
9521 260  335 
9522 907  736 
9523 214  18  
9524 548  790 
9525 933  608 
9526 769  711 
9527 476  973 
9528 848  56  
9529 578  369 
9530 759  306 
9531 213  474 
9532 882  987 
9533 366  312 
9534 939  288 
9535 669  983 
9536 299  641 
9537 421  190 
9538 591  950 
9539 283  181 
9540 601  178 
9541 311  707 
9542 938  891 
9543 887  317 
9544 568  259 
9545 19   589 
9546 984  499 
9547 258  158 
9548 494  920 
9549 23   130 
9550 605  270 
9551 349  112 
9552 175  436 
9553 625  545 
9554 908  42  
9555 82   111 
9556 46   306 
9557 415  155 
9558 128  843 
9559 92   52  
9560 112  730 
9561 257  105 
9562 974  142 
9563 689  46  
9564 694  281 
9565 715  798 
9566 382  341 
9567 258  629 
9568 760  901 
9569 409  711 
9570 889  615 
9571 945  789 
9572 160  715 
9573 525  529 
9574 216  931 
9575 910  801 
9576 346  298 
9577 510  505 
9578 392  526 
9579 172  162 
9580 513  122 
9581 555  483 
9582 593  180 
9583 48   367 
9584 410  842 
9585 323  167 
9586 363  882 
9587 324  756 
9588 661  275 
9589 869  400 
9590 427  133 
9591 671  430 
9592 293  724 
9593 646  216 
9594 962  133 
9595 526  514 
9596 142  779 
9597 199  302 
9598 860  740 
9599 455  192 
9600 848  36  
9601 593  487 
9602 316  522 
9603 557  580 
9604 648  908 
9605 941  805 
9606 527  412 
9607 293  310 
9608 496  142 
9609 60   519 
9610 743  770 
9611 193  98  
9612 584  589 
9613 969  961 
9614 436  258 
9615 890  325 
9616 691  268 
9617 195  957 
9618 731  543 
9619 531  183 
9620 5    676 
9621 522  542 
9622 321  887 
9623 30   777 
9624 715  3   
9625 473  940 
9626 592  470 
9627 458  56  
9628 776  157 
9629 408  877 
9630 377  72  
9631 514  561 
9632 908  793 
9633 984  463 
9634 586  399 
9635 473  590 
9636 93   141 
9637 114  872 
9638 282  108 
9639 743  343 
9640 211  190 
9641 887  551 
9642 785  371 
9643 166  682 
9644 595  292 
9645 266  568 
9646 269  691 
9647 384  419 
9648 45   972 
9649 276  352 
9650 993  210 
9651 923  523 
9652 853  838 
9653 927  67  
9654 716  790 
9655 825  521 
9656 224  896 
9657 504  368 
9658 353  605 
9659 822  89  
9660 327  917 
9661 660  300 
9662 72   419 
9663 292  680 
9664 849  157 
9665 43   354 
9666 993  557 
9667 745  92  
9668 176  321 
9669 986  350 
9670 15   712 
9671 785  985 
9672 769  508 
9673 587  865 
9674 293  918 
9675 310  796 
9676 350  729 
9677 313  40  
9678 497  827 
9679 560  39  
9680 601  701 
9681 711  704 
9682 485  298 
9683 733  596 
9684 772  580 
9685 298  975 
9686 924  911 
9687 194  236 
9688 963  947 
9689 929  103 
9690 637  184 
9691 786  936 
9692 5    196 
9693 8    376 
9694 483  214 
9695 160  147 
9696 983  285 
9697 437  681 
9698 834  47  
9699 815  452 
9700 66   69  
9701 378  339 
9702 566  414 
9703 198  590 
9704 476  804 
9705 313  484 
9706 96   980 
9707 95   978 
9708 355  97  
9709 412  488 
9710 985  474 
9711 351  245 
9712 959  970 
9713 156  997 
9714 51   201 
9715 490  555 
9716 87   671 
9717 970  273 
9718 394  830 
9719 304  731 
9720 636  948 
9721 598  265 
9722 584  839 
9723 587  24  
9724 511  64  
9725 866  177 
9726 65   342 
9727 834  403 
9728 190  623 
9729 931  535 
9730 550  511 
9731 593  792 
9732 211  237 
9733 398  747 
9734 323  628 
9735 33   846 
9736 175  511 
9737 808  8   
9738 19   867 
9739 3    294 
9740 559  357 
9741 837  131 
9742 150  186 
9743 672  934 
9744 803  156 
9745 989  249 
9746 862  633 
9747 590  756 
9748 500  986 
9749 950  204 
9750 976  599 
9751 722  103 
9752 44   127 
9753 888  131 
9754 196  66  
9755 327  1000
9756 521  653 
9757 901  553 
9758 779  69  
9759 710  607 
9760 586  601 
9761 873  243 
9762 195  27  
9763 493  290 
9764 332  864 
9765 77   35  
9766 281  742 
9767 66   276 
9768 321  465 
9769 195  424 
9770 432  598 
9771 967  574 
9772 15   349 
9773 544  567 
9774 445  944 
9775 161  505 
9776 554  368 
9777 534  954 
9778 189  459 
9779 584  679 
9780 769  619 
9781 462  880 
9782 545  204 
9783 583  652 
9784 782  275 
9785 749  164 
9786 327  82  
9787 240  380 
9788 21   831 
9789 99   51  
9790 672  201 
9791 321  29  
9792 161  692 
9793 114  748 
9794 578  191 
9795 407  203 
9796 725  444 
9797 193  219 
9798 175  95  
9799 662  583 
9800 494  675 
9801 39   572 
9802 740  671 
9803 304  711 
9804 624  944 
9805 311  412 
9806 22   849 
9807 10   953 
9808 335  266 
9809 193  485 
9810 800  331 
9811 451  777 
9812 782  847 
9813 567  719 
9814 653  994 
9815 710  221 
9816 465  630 
9817 923  292 
9818 468  399 
9819 571  470 
9820 554  520 
9821 893  735 
9822 917  319 
9823 687  421 
9824 193  801 
9825 802  625 
9826 34   487 
9827 453  511 
9828 232  436 
9829 174  443 
9830 504  313 
9831 864  41  
9832 480  290 
9833 530  918 
9834 16   964 
9835 348  489 
9836 500  732 
9837 603  357 
9838 785  784 
9839 238  456 
9840 759  638 
9841 778  171 
9842 375  881 
9843 102  651 
9844 849  118 
9845 427  152 
9846 447  213 
9847 327  643 
9848 114  76  
9849 890  733 
9850 927  748 
9851 859  298 
9852 109  455 
9853 55   801 
9854 114  479 
9855 178  576 
9856 490  830 
9857 605  935 
9858 688  609 
9859 53   433 
9860 937  262 
9861 207  620 
9862 958  492 
9863 501  335 
9864 191  519 
9865 700  547 
9866 900  45  
9867 8    253 
9868 535  723 
9869 147  530 
9870 4    137 
9871 459  804 
9872 939  606 
9873 316  171 
9874 10   970 
9875 667  475 
9876 122  118 
9877 781  367 
9878 782  952 
9879 931  606 
9880 35   533 
9881 511  24  
9882 801  642 
9883 605  412 
9884 142  394 
9885 573  126 
9886 296  982 
9887 459  514 
9888 409  281 
9889 245  29  
9890 67   789 
9891 524  678 
9892 140  95  
9893 112  366 
9894 944  561 
9895 999  21  
9896 478  540 
9897 767  158 
9898 275  926 
9899 167  596 
9900 926  643 
9901 675  385 
9902 269  624 
9903 241  725 
9904 519  272 
9905 520  690 
9906 941  446 
9907 564  911 
9908 563  628 
9909 819  926 
9910 548  224 
9911 676  829 
9912 993  919 
9913 569  608 
9914 555  597 
9915 591  307 
9916 522  278 
9917 152  96  
9918 73   546 
9919 424  864 
9920 369  331 
9921 685  859 
9922 246  947 
9923 707  191 
9924 122  645 
9925 142  750 
9926 489  690 
9927 773  456 
9928 893  265 
9929 806  384 
9930 590  283 
9931 260  300 
9932 171  251 
9933 925  14  
9934 929  971 
9935 114  451 
9936 367  535 
9937 830  405 
9938 208  900 
9939 498  866 
9940 356  260 
9941 928  141 
9942 484  721 
9943 514  970 
9944 166  13  
9945 976  377 
9946 692  77  
9947 899  941 
9948 700  592 
9949 522  652 
9950 479  495 
9951 359  645 
9952 950  828 
9953 347  873 
9954 97   638 
9955 991  64  
9956 499  830 
9957 190  737 
9958 869  932 
9959 457  278 
9960 338  531 
9961 65   329 
9962 724  419 
9963 84   66  
9964 69   274 
9965 123  556 
9966 793  750 
9967 349  34  
9968 691  203 
9969 272  75  
9970 844  987 
9971 482  628 
9972 407  695 
9973 201  196 
9974 974  969 
9975 439  70  
9976 370  580 
9977 284  820 
9978 875  789 
9979 418  974 
9980 537  444 
9981 457  908 
9982 684  309 
9983 996  615 
9984 577  899 
9985 923  699 
9986 339  432 
9987 840  203 
9988 427  949 
9989 500  741 
9990 447  446 
9991 547  964 
9992 789  911 
9993 440  328 
9994 45   399 
9995 245  855 
9996 822  201 
9997 551  901 
9998 453  890 
9999 100  481 
10000 446  205 
10001 484  0   
DEMAND_SECTION
1    0   
2    5   
3    6   
4    1   
5    5   
6    100 
7    1   
8    7   
9    2   
10   94  
11   3   
12   2   
13   5   
14   2   
15   4   
16   10  
17   4   
18   5   
19   2   
20   81  
21   2   
22   3   
23   9   
24   5   
25   5   
26   7   
27   10  
28   86  
29   2   
30   88  
31   6   
32   10  
33   6   
34   10  
35   1   
36   3   
37   1   
38   7   
39   67  
40   1   
41   4   
42   5   
43   5   
44   10  
45   5   
46   8   
47   4   
48   5   
49   5   
50   3   
51   5   
52   7   
53   5   
54   4   
55   4   
56   8   
57   4   
58   61  
59   1   
60   10  
61   9   
62   7   
63   4   
64   2   
65   6   
66   6   
67   10  
68   7   
69   3   
70   6   
71   7   
72   3   
73   9   
74   3   
75   8   
76   2   
77   3   
78   10  
79   6   
80   7   
81   5   
82   5   
83   9   
84   4   
85   8   
86   8   
87   1   
88   3   
89   78  
90   8   
91   2   
92   1   
93   7   
94   4   
95   8   
96   2   
97   3   
98   5   
99   8   
100  9   
101  3   
102  87  
103  9   
104  9   
105  7   
106  9   
107  2   
108  4   
109  6   
110  6   
111  7   
112  10  
113  1   
114  10  
115  10  
116  4   
117  2   
118  1   
119  7   
120  2   
121  9   
122  2   
123  4   
124  9   
125  8   
126  3   
127  5   
128  5   
129  10  
130  5   
131  5   
132  1   
133  3   
134  7   
135  7   
136  3   
137  1   
138  10  
139  8   
140  1   
141  8   
142  8   
143  7   
144  1   
145  8   
146  1   
147  4   
148  4   
149  6   
150  10  
151  9   
152  1   
153  8   
154  4   
155  3   
156  2   
157  1   
158  9   
159  4   
160  4   
161  10  
162  4   
163  8   
164  2   
165  5   
166  7   
167  4   
168  3   
169  72  
170  2   
171  7   
172  3   
173  3   
174  9   
175  9   
176  1   
177  1   
178  6   
179  3   
180  10  
181  10  
182  9   
183  90  
184  4   
185  3   
186  10  
187  8   
188  84  
189  5   
190  2   
191  83  
192  1   
193  1   
194  2   
195  6   
196  3   
197  8   
198  8   
199  3   
200  10  
201  2   
202  4   
203  8   
204  5   
205  9   
206  10  
207  8   
208  3   
209  3   
210  6   
211  8   
212  1   
213  73  
214  5   
215  7   
216  5   
217  8   
218  7   
219  7   
220  6   
221  4   
222  1   
223  5   
224  2   
225  8   
226  1   
227  3   
228  5   
229  3   
230  81  
231  2   
232  5   
233  4   
234  1   
235  9   
236  7   
237  1   
238  2   
239  6   
240  10  
241  9   
242  7   
243  7   
244  7   
245  3   
246  5   
247  6   
248  9   
249  3   
250  10  
251  4   
252  3   
253  9   
254  6   
255  2   
256  10  
257  6   
258  5   
259  1   
260  7   
261  2   
262  6   
263  1   
264  5   
265  2   
266  2   
267  3   
268  1   
269  7   
270  9   
271  2   
272  9   
273  4   
274  8   
275  8   
276  10  
277  8   
278  8   
279  4   
280  8   
281  4   
282  2   
283  4   
284  2   
285  62  
286  7   
287  5   
288  88  
289  5   
290  5   
291  4   
292  7   
293  2   
294  9   
295  1   
296  8   
297  5   
298  3   
299  2   
300  2   
301  6   
302  76  
303  4   
304  1   
305  6   
306  91  
307  3   
308  2   
309  10  
310  4   
311  7   
312  9   
313  4   
314  7   
315  6   
316  4   
317  6   
318  2   
319  3   
320  3   
321  7   
322  4   
323  4   
324  6   
325  8   
326  2   
327  1   
328  2   
329  1   
330  9   
331  96  
332  9   
333  4   
334  8   
335  8   
336  5   
337  1   
338  5   
339  2   
340  10  
341  2   
342  8   
343  10  
344  1   
345  1   
346  9   
347  3   
348  10  
349  10  
350  3   
351  2   
352  10  
353  2   
354  3   
355  4   
356  8   
357  8   
358  8   
359  10  
360  8   
361  8   
362  9   
363  6   
364  8   
365  5   
366  2   
367  7   
368  9   
369  4   
370  10  
371  96  
372  3   
373  95  
374  8   
375  80  
376  3   
377  9   
378  9   
379  7   
380  7   
381  6   
382  5   
383  9   
384  6   
385  8   
386  3   
387  3   
388  7   
389  7   
390  91  
391  8   
392  10  
393  9   
394  3   
395  75  
396  1   
397  6   
398  2   
399  3   
400  3   
401  1   
402  10  
403  2   
404  4   
405  3   
406  10  
407  2   
408  2   
409  8   
410  8   
411  7   
412  5   
413  1   
414  3   
415  9   
416  3   
417  69  
418  8   
419  7   
420  6   
421  9   
422  5   
423  9   
424  10  
425  2   
426  9   
427  8   
428  5   
429  10  
430  8   
431  3   
432  6   
433  2   
434  2   
435  10  
436  9   
437  10  
438  9   
439  10  
440  5   
441  76  
442  7   
443  10  
444  1   
445  2   
446  8   
447  8   
448  9   
449  2   
450  7   
451  9   
452  8   
453  7   
454  4   
455  1   
456  9   
457  5   
458  3   
459  10  
460  9   
461  1   
462  6   
463  5   
464  3   
465  59  
466  7   
467  9   
468  85  
469  7   
470  2   
471  5   
472  6   
473  10  
474  5   
475  3   
476  8   
477  2   
478  3   
479  10  
480  1   
481  3   
482  7   
483  4   
484  10  
485  7   
486  9   
487  5   
488  3   
489  2   
490  8   
491  9   
492  10  
493  8   
494  1   
495  5   
496  9   
497  7   
498  7   
499  7   
500  9   
501  8   
502  6   
503  6   
504  73  
505  8   
506  10  
507  4   
508  3   
509  1   
510  5   
511  4   
512  5   
513  10  
514  9   
515  10  
516  10  
517  10  
518  6   
519  2   
520  6   
521  6   
522  7   
523  7   
524  4   
525  3   
526  4   
527  5   
528  79  
529  68  
530  3   
531  8   
532  5   
533  8   
534  3   
535  6   
536  6   
537  10  
538  10  
539  10  
540  2   
541  2   
542  9   
543  4   
544  6   
545  5   
546  3   
547  5   
548  10  
549  5   
550  2   
551  1   
552  9   
553  9   
554  4   
555  7   
556  3   
557  7   
558  7   
559  6   
560  9   
561  9   
562  9   
563  9   
564  6   
565  2   
566  6   
567  4   
568  10  
569  10  
570  10  
571  4   
572  4   
573  9   
574  10  
575  10  
576  8   
577  5   
578  2   
579  5   
580  8   
581  4   
582  5   
583  7   
584  3   
585  3   
586  6   
587  7   
588  9   
589  2   
590  4   
591  8   
592  9   
593  10  
594  53  
595  8   
596  4   
597  7   
598  8   
599  7   
600  4   
601  1   
602  8   
603  5   
604  4   
605  6   
606  1   
607  7   
608  3   
609  3   
610  1   
611  7   
612  5   
613  3   
614  2   
615  1   
616  3   
617  6   
618  3   
619  10  
620  8   
621  8   
622  10  
623  4   
624  9   
625  6   
626  4   
627  4   
628  8   
629  1   
630  58  
631  9   
632  96  
633  7   
634  10  
635  7   
636  2   
637  8   
638  7   
639  53  
640  82  
641  10  
642  4   
643  7   
644  4   
645  9   
646  9   
647  9   
648  1   
649  4   
650  4   
651  1   
652  2   
653  10  
654  10  
655  3   
656  4   
657  10  
658  2   
659  10  
660  10  
661  5   
662  8   
663  8   
664  8   
665  4   
666  3   
667  4   
668  7   
669  4   
670  90  
671  3   
672  8   
673  7   
674  4   
675  5   
676  2   
677  6   
678  7   
679  54  
680  4   
681  9   
682  9   
683  4   
684  3   
685  3   
686  8   
687  9   
688  1   
689  8   
690  65  
691  6   
692  2   
693  3   
694  7   
695  90  
696  5   
697  3   
698  9   
699  6   
700  6   
701  10  
702  3   
703  2   
704  1   
705  6   
706  9   
707  6   
708  3   
709  2   
710  9   
711  5   
712  9   
713  5   
714  6   
715  9   
716  7   
717  6   
718  5   
719  5   
720  9   
721  6   
722  2   
723  8   
724  5   
725  9   
726  5   
727  5   
728  5   
729  4   
730  7   
731  1   
732  1   
733  10  
734  1   
735  52  
736  8   
737  1   
738  8   
739  6   
740  6   
741  2   
742  3   
743  4   
744  4   
745  5   
746  9   
747  5   
748  2   
749  2   
750  9   
751  2   
752  5   
753  5   
754  2   
755  5   
756  8   
757  9   
758  9   
759  3   
760  8   
761  1   
762  92  
763  3   
764  8   
765  3   
766  2   
767  10  
768  9   
769  6   
770  8   
771  5   
772  1   
773  73  
774  3   
775  9   
776  10  
777  4   
778  8   
779  1   
780  4   
781  1   
782  64  
783  10  
784  7   
785  1   
786  4   
787  4   
788  6   
789  9   
790  73  
791  4   
792  5   
793  6   
794  9   
795  9   
796  4   
797  8   
798  2   
799  6   
800  7   
801  6   
802  6   
803  3   
804  4   
805  9   
806  3   
807  9   
808  3   
809  9   
810  9   
811  1   
812  10  
813  9   
814  5   
815  10  
816  1   
817  89  
818  5   
819  84  
820  1   
821  1   
822  1   
823  6   
824  3   
825  2   
826  4   
827  3   
828  4   
829  10  
830  6   
831  7   
832  10  
833  1   
834  9   
835  5   
836  1   
837  7   
838  5   
839  2   
840  1   
841  7   
842  10  
843  95  
844  2   
845  9   
846  5   
847  6   
848  3   
849  4   
850  2   
851  9   
852  53  
853  7   
854  7   
855  8   
856  3   
857  8   
858  6   
859  73  
860  7   
861  10  
862  9   
863  3   
864  1   
865  9   
866  1   
867  5   
868  8   
869  5   
870  70  
871  4   
872  60  
873  6   
874  1   
875  3   
876  6   
877  5   
878  9   
879  3   
880  1   
881  9   
882  10  
883  2   
884  9   
885  6   
886  5   
887  67  
888  10  
889  5   
890  9   
891  10  
892  6   
893  1   
894  10  
895  8   
896  9   
897  74  
898  6   
899  9   
900  10  
901  9   
902  2   
903  1   
904  8   
905  1   
906  4   
907  2   
908  5   
909  4   
910  7   
911  1   
912  70  
913  6   
914  10  
915  5   
916  8   
917  56  
918  5   
919  2   
920  4   
921  1   
922  3   
923  6   
924  2   
925  5   
926  7   
927  10  
928  10  
929  7   
930  7   
931  6   
932  3   
933  7   
934  9   
935  9   
936  3   
937  8   
938  2   
939  1   
940  9   
941  3   
942  3   
943  10  
944  3   
945  9   
946  2   
947  6   
948  9   
949  10  
950  1   
951  6   
952  10  
953  10  
954  3   
955  2   
956  2   
957  9   
958  7   
959  7   
960  1   
961  3   
962  3   
963  1   
964  7   
965  1   
966  8   
967  2   
968  9   
969  6   
970  5   
971  1   
972  6   
973  5   
974  2   
975  4   
976  6   
977  5   
978  9   
979  1   
980  3   
981  2   
982  6   
983  7   
984  3   
985  7   
986  2   
987  4   
988  10  
989  9   
990  82  
991  9   
992  3   
993  5   
994  1   
995  4   
996  9   
997  4   
998  1   
999  4   
1000 2   
1001 2   
1002 8   
1003 2   
1004 3   
1005 6   
1006 4   
1007 6   
1008 1   
1009 10  
1010 2   
1011 5   
1012 2   
1013 8   
1014 10  
1015 10  
1016 9   
1017 4   
1018 5   
1019 9   
1020 10  
1021 81  
1022 5   
1023 9   
1024 1   
1025 10  
1026 10  
1027 5   
1028 6   
1029 1   
1030 9   
1031 84  
1032 9   
1033 9   
1034 9   
1035 7   
1036 8   
1037 10  
1038 10  
1039 2   
1040 10  
1041 10  
1042 9   
1043 4   
1044 61  
1045 4   
1046 2   
1047 5   
1048 4   
1049 7   
1050 8   
1051 8   
1052 89  
1053 8   
1054 6   
1055 1   
1056 62  
1057 4   
1058 52  
1059 3   
1060 7   
1061 4   
1062 10  
1063 3   
1064 3   
1065 10  
1066 1   
1067 5   
1068 10  
1069 3   
1070 52  
1071 6   
1072 7   
1073 2   
1074 5   
1075 4   
1076 10  
1077 56  
1078 4   
1079 7   
1080 5   
1081 6   
1082 8   
1083 10  
1084 10  
1085 4   
1086 7   
1087 7   
1088 6   
1089 4   
1090 8   
1091 1   
1092 8   
1093 2   
1094 5   
1095 82  
1096 84  
1097 5   
1098 7   
1099 7   
1100 10  
1101 9   
1102 83  
1103 7   
1104 5   
1105 10  
1106 4   
1107 1   
1108 8   
1109 8   
1110 9   
1111 2   
1112 3   
1113 9   
1114 97  
1115 10  
1116 6   
1117 4   
1118 10  
1119 2   
1120 9   
1121 1   
1122 7   
1123 4   
1124 1   
1125 7   
1126 7   
1127 3   
1128 65  
1129 9   
1130 7   
1131 5   
1132 4   
1133 1   
1134 10  
1135 5   
1136 6   
1137 66  
1138 3   
1139 6   
1140 3   
1141 69  
1142 7   
1143 5   
1144 79  
1145 10  
1146 3   
1147 3   
1148 4   
1149 7   
1150 2   
1151 9   
1152 7   
1153 4   
1154 4   
1155 9   
1156 7   
1157 1   
1158 4   
1159 3   
1160 86  
1161 6   
1162 1   
1163 1   
1164 1   
1165 10  
1166 6   
1167 7   
1168 1   
1169 5   
1170 1   
1171 9   
1172 6   
1173 4   
1174 5   
1175 3   
1176 88  
1177 50  
1178 4   
1179 5   
1180 1   
1181 3   
1182 4   
1183 6   
1184 2   
1185 2   
1186 5   
1187 3   
1188 8   
1189 7   
1190 2   
1191 2   
1192 4   
1193 4   
1194 1   
1195 9   
1196 9   
1197 1   
1198 8   
1199 2   
1200 8   
1201 6   
1202 4   
1203 7   
1204 10  
1205 1   
1206 7   
1207 1   
1208 7   
1209 8   
1210 8   
1211 1   
1212 5   
1213 10  
1214 1   
1215 5   
1216 9   
1217 6   
1218 8   
1219 6   
1220 6   
1221 8   
1222 6   
1223 2   
1224 54  
1225 3   
1226 9   
1227 2   
1228 6   
1229 8   
1230 3   
1231 4   
1232 8   
1233 8   
1234 1   
1235 8   
1236 2   
1237 10  
1238 8   
1239 95  
1240 10  
1241 7   
1242 10  
1243 8   
1244 3   
1245 5   
1246 4   
1247 70  
1248 5   
1249 5   
1250 2   
1251 3   
1252 89  
1253 5   
1254 5   
1255 10  
1256 9   
1257 6   
1258 9   
1259 10  
1260 4   
1261 85  
1262 8   
1263 9   
1264 4   
1265 3   
1266 9   
1267 1   
1268 7   
1269 9   
1270 5   
1271 10  
1272 2   
1273 6   
1274 10  
1275 1   
1276 5   
1277 55  
1278 5   
1279 3   
1280 5   
1281 9   
1282 3   
1283 2   
1284 6   
1285 8   
1286 2   
1287 5   
1288 9   
1289 8   
1290 1   
1291 5   
1292 8   
1293 10  
1294 8   
1295 7   
1296 3   
1297 5   
1298 5   
1299 1   
1300 5   
1301 1   
1302 1   
1303 10  
1304 2   
1305 2   
1306 7   
1307 9   
1308 3   
1309 9   
1310 8   
1311 3   
1312 9   
1313 3   
1314 3   
1315 7   
1316 1   
1317 7   
1318 5   
1319 5   
1320 66  
1321 4   
1322 1   
1323 1   
1324 2   
1325 2   
1326 10  
1327 4   
1328 4   
1329 3   
1330 4   
1331 5   
1332 3   
1333 1   
1334 4   
1335 6   
1336 4   
1337 2   
1338 2   
1339 6   
1340 10  
1341 1   
1342 3   
1343 2   
1344 1   
1345 6   
1346 60  
1347 3   
1348 1   
1349 3   
1350 6   
1351 2   
1352 8   
1353 1   
1354 9   
1355 1   
1356 5   
1357 4   
1358 1   
1359 2   
1360 1   
1361 7   
1362 5   
1363 6   
1364 8   
1365 9   
1366 8   
1367 5   
1368 4   
1369 9   
1370 7   
1371 3   
1372 10  
1373 10  
1374 6   
1375 7   
1376 2   
1377 5   
1378 7   
1379 2   
1380 2   
1381 55  
1382 2   
1383 6   
1384 10  
1385 9   
1386 5   
1387 4   
1388 2   
1389 7   
1390 4   
1391 9   
1392 9   
1393 9   
1394 5   
1395 5   
1396 8   
1397 10  
1398 6   
1399 7   
1400 10  
1401 9   
1402 2   
1403 8   
1404 88  
1405 6   
1406 10  
1407 2   
1408 8   
1409 6   
1410 8   
1411 1   
1412 2   
1413 64  
1414 8   
1415 3   
1416 3   
1417 5   
1418 9   
1419 6   
1420 8   
1421 2   
1422 4   
1423 10  
1424 4   
1425 7   
1426 1   
1427 1   
1428 83  
1429 2   
1430 10  
1431 72  
1432 5   
1433 5   
1434 3   
1435 8   
1436 4   
1437 5   
1438 9   
1439 78  
1440 9   
1441 10  
1442 3   
1443 7   
1444 6   
1445 2   
1446 10  
1447 8   
1448 7   
1449 10  
1450 5   
1451 8   
1452 3   
1453 9   
1454 3   
1455 9   
1456 9   
1457 1   
1458 1   
1459 6   
1460 10  
1461 3   
1462 3   
1463 4   
1464 8   
1465 5   
1466 98  
1467 10  
1468 8   
1469 1   
1470 9   
1471 3   
1472 5   
1473 7   
1474 9   
1475 10  
1476 91  
1477 9   
1478 1   
1479 6   
1480 2   
1481 5   
1482 9   
1483 10  
1484 6   
1485 6   
1486 99  
1487 10  
1488 4   
1489 1   
1490 5   
1491 8   
1492 10  
1493 1   
1494 8   
1495 1   
1496 8   
1497 10  
1498 7   
1499 8   
1500 9   
1501 2   
1502 2   
1503 5   
1504 2   
1505 7   
1506 8   
1507 5   
1508 3   
1509 10  
1510 3   
1511 8   
1512 4   
1513 7   
1514 7   
1515 5   
1516 4   
1517 6   
1518 3   
1519 9   
1520 2   
1521 7   
1522 8   
1523 9   
1524 6   
1525 10  
1526 9   
1527 6   
1528 7   
1529 5   
1530 1   
1531 9   
1532 4   
1533 8   
1534 1   
1535 10  
1536 5   
1537 7   
1538 6   
1539 2   
1540 100 
1541 4   
1542 8   
1543 3   
1544 4   
1545 3   
1546 10  
1547 5   
1548 7   
1549 4   
1550 93  
1551 10  
1552 10  
1553 10  
1554 3   
1555 7   
1556 6   
1557 6   
1558 3   
1559 10  
1560 6   
1561 2   
1562 84  
1563 78  
1564 10  
1565 10  
1566 3   
1567 5   
1568 8   
1569 6   
1570 5   
1571 8   
1572 10  
1573 3   
1574 7   
1575 6   
1576 4   
1577 5   
1578 9   
1579 4   
1580 5   
1581 1   
1582 99  
1583 7   
1584 7   
1585 6   
1586 8   
1587 10  
1588 3   
1589 7   
1590 4   
1591 3   
1592 10  
1593 8   
1594 3   
1595 4   
1596 10  
1597 9   
1598 1   
1599 7   
1600 1   
1601 2   
1602 2   
1603 5   
1604 7   
1605 5   
1606 8   
1607 6   
1608 9   
1609 2   
1610 5   
1611 9   
1612 9   
1613 9   
1614 98  
1615 5   
1616 7   
1617 6   
1618 6   
1619 1   
1620 7   
1621 5   
1622 7   
1623 6   
1624 7   
1625 2   
1626 57  
1627 9   
1628 7   
1629 7   
1630 2   
1631 7   
1632 5   
1633 4   
1634 4   
1635 5   
1636 2   
1637 1   
1638 8   
1639 1   
1640 3   
1641 10  
1642 3   
1643 5   
1644 7   
1645 1   
1646 4   
1647 5   
1648 8   
1649 8   
1650 6   
1651 5   
1652 59  
1653 10  
1654 4   
1655 8   
1656 7   
1657 6   
1658 9   
1659 1   
1660 7   
1661 5   
1662 65  
1663 1   
1664 6   
1665 3   
1666 7   
1667 8   
1668 3   
1669 6   
1670 4   
1671 10  
1672 9   
1673 2   
1674 1   
1675 7   
1676 5   
1677 4   
1678 72  
1679 7   
1680 5   
1681 10  
1682 7   
1683 10  
1684 9   
1685 2   
1686 2   
1687 3   
1688 5   
1689 1   
1690 7   
1691 4   
1692 2   
1693 51  
1694 8   
1695 4   
1696 1   
1697 6   
1698 1   
1699 1   
1700 10  
1701 8   
1702 1   
1703 2   
1704 5   
1705 7   
1706 10  
1707 2   
1708 3   
1709 4   
1710 5   
1711 7   
1712 51  
1713 5   
1714 4   
1715 5   
1716 2   
1717 4   
1718 4   
1719 7   
1720 8   
1721 1   
1722 9   
1723 4   
1724 8   
1725 7   
1726 4   
1727 6   
1728 4   
1729 4   
1730 1   
1731 2   
1732 88  
1733 1   
1734 80  
1735 10  
1736 9   
1737 3   
1738 3   
1739 1   
1740 3   
1741 8   
1742 4   
1743 3   
1744 1   
1745 6   
1746 10  
1747 10  
1748 2   
1749 9   
1750 4   
1751 9   
1752 10  
1753 6   
1754 8   
1755 3   
1756 6   
1757 2   
1758 10  
1759 6   
1760 10  
1761 1   
1762 10  
1763 4   
1764 8   
1765 2   
1766 5   
1767 1   
1768 7   
1769 4   
1770 8   
1771 3   
1772 2   
1773 92  
1774 5   
1775 5   
1776 9   
1777 96  
1778 4   
1779 2   
1780 1   
1781 5   
1782 83  
1783 8   
1784 3   
1785 8   
1786 96  
1787 2   
1788 9   
1789 9   
1790 4   
1791 9   
1792 8   
1793 9   
1794 10  
1795 2   
1796 10  
1797 10  
1798 3   
1799 8   
1800 96  
1801 8   
1802 5   
1803 7   
1804 4   
1805 1   
1806 6   
1807 10  
1808 6   
1809 10  
1810 4   
1811 8   
1812 10  
1813 3   
1814 8   
1815 8   
1816 2   
1817 5   
1818 4   
1819 10  
1820 4   
1821 4   
1822 1   
1823 4   
1824 9   
1825 8   
1826 5   
1827 4   
1828 6   
1829 5   
1830 1   
1831 3   
1832 5   
1833 2   
1834 10  
1835 10  
1836 8   
1837 1   
1838 1   
1839 93  
1840 6   
1841 5   
1842 3   
1843 1   
1844 2   
1845 2   
1846 7   
1847 10  
1848 10  
1849 4   
1850 2   
1851 6   
1852 1   
1853 9   
1854 9   
1855 6   
1856 65  
1857 7   
1858 7   
1859 9   
1860 4   
1861 1   
1862 3   
1863 8   
1864 2   
1865 1   
1866 8   
1867 5   
1868 10  
1869 4   
1870 5   
1871 3   
1872 91  
1873 5   
1874 8   
1875 5   
1876 1   
1877 90  
1878 1   
1879 9   
1880 2   
1881 8   
1882 9   
1883 5   
1884 3   
1885 4   
1886 5   
1887 3   
1888 2   
1889 3   
1890 7   
1891 7   
1892 51  
1893 9   
1894 10  
1895 2   
1896 5   
1897 4   
1898 2   
1899 4   
1900 98  
1901 10  
1902 7   
1903 1   
1904 6   
1905 3   
1906 2   
1907 8   
1908 8   
1909 3   
1910 2   
1911 1   
1912 63  
1913 4   
1914 6   
1915 10  
1916 5   
1917 7   
1918 2   
1919 86  
1920 3   
1921 9   
1922 1   
1923 6   
1924 4   
1925 3   
1926 7   
1927 6   
1928 10  
1929 8   
1930 6   
1931 8   
1932 10  
1933 6   
1934 2   
1935 6   
1936 2   
1937 10  
1938 5   
1939 4   
1940 69  
1941 9   
1942 2   
1943 3   
1944 3   
1945 6   
1946 6   
1947 6   
1948 5   
1949 4   
1950 1   
1951 5   
1952 2   
1953 5   
1954 93  
1955 9   
1956 7   
1957 7   
1958 2   
1959 60  
1960 1   
1961 7   
1962 54  
1963 9   
1964 2   
1965 7   
1966 10  
1967 5   
1968 7   
1969 8   
1970 6   
1971 8   
1972 4   
1973 3   
1974 3   
1975 10  
1976 8   
1977 10  
1978 3   
1979 6   
1980 9   
1981 10  
1982 2   
1983 8   
1984 5   
1985 10  
1986 9   
1987 1   
1988 4   
1989 8   
1990 4   
1991 5   
1992 1   
1993 5   
1994 9   
1995 2   
1996 8   
1997 4   
1998 9   
1999 2   
2000 1   
2001 3   
2002 8   
2003 10  
2004 7   
2005 2   
2006 10  
2007 3   
2008 3   
2009 3   
2010 4   
2011 7   
2012 2   
2013 3   
2014 4   
2015 9   
2016 7   
2017 8   
2018 8   
2019 8   
2020 1   
2021 7   
2022 3   
2023 8   
2024 88  
2025 2   
2026 2   
2027 1   
2028 7   
2029 1   
2030 9   
2031 5   
2032 9   
2033 4   
2034 3   
2035 8   
2036 3   
2037 3   
2038 54  
2039 5   
2040 3   
2041 4   
2042 6   
2043 3   
2044 97  
2045 6   
2046 6   
2047 5   
2048 10  
2049 10  
2050 7   
2051 3   
2052 8   
2053 75  
2054 9   
2055 3   
2056 2   
2057 1   
2058 4   
2059 50  
2060 8   
2061 4   
2062 8   
2063 5   
2064 2   
2065 7   
2066 1   
2067 10  
2068 7   
2069 3   
2070 4   
2071 51  
2072 9   
2073 6   
2074 8   
2075 4   
2076 6   
2077 6   
2078 4   
2079 7   
2080 6   
2081 1   
2082 10  
2083 4   
2084 6   
2085 9   
2086 4   
2087 9   
2088 5   
2089 1   
2090 10  
2091 3   
2092 3   
2093 1   
2094 10  
2095 4   
2096 3   
2097 2   
2098 7   
2099 5   
2100 8   
2101 6   
2102 5   
2103 100 
2104 7   
2105 2   
2106 9   
2107 7   
2108 7   
2109 8   
2110 8   
2111 2   
2112 6   
2113 6   
2114 7   
2115 3   
2116 3   
2117 8   
2118 10  
2119 6   
2120 1   
2121 4   
2122 4   
2123 65  
2124 9   
2125 7   
2126 6   
2127 3   
2128 7   
2129 10  
2130 6   
2131 3   
2132 9   
2133 1   
2134 3   
2135 6   
2136 5   
2137 3   
2138 9   
2139 5   
2140 2   
2141 5   
2142 9   
2143 6   
2144 4   
2145 7   
2146 4   
2147 9   
2148 3   
2149 7   
2150 8   
2151 10  
2152 1   
2153 10  
2154 3   
2155 2   
2156 2   
2157 6   
2158 3   
2159 8   
2160 2   
2161 9   
2162 6   
2163 10  
2164 3   
2165 9   
2166 3   
2167 59  
2168 2   
2169 3   
2170 5   
2171 10  
2172 1   
2173 9   
2174 7   
2175 7   
2176 2   
2177 9   
2178 9   
2179 4   
2180 5   
2181 4   
2182 4   
2183 1   
2184 9   
2185 7   
2186 2   
2187 10  
2188 3   
2189 9   
2190 6   
2191 58  
2192 2   
2193 9   
2194 9   
2195 8   
2196 6   
2197 8   
2198 10  
2199 7   
2200 9   
2201 10  
2202 10  
2203 2   
2204 6   
2205 10  
2206 2   
2207 6   
2208 7   
2209 7   
2210 9   
2211 8   
2212 4   
2213 7   
2214 8   
2215 3   
2216 7   
2217 10  
2218 7   
2219 4   
2220 57  
2221 6   
2222 7   
2223 9   
2224 9   
2225 3   
2226 8   
2227 9   
2228 7   
2229 2   
2230 7   
2231 5   
2232 1   
2233 8   
2234 73  
2235 10  
2236 5   
2237 98  
2238 8   
2239 3   
2240 10  
2241 4   
2242 3   
2243 7   
2244 2   
2245 9   
2246 3   
2247 1   
2248 3   
2249 2   
2250 2   
2251 2   
2252 9   
2253 3   
2254 2   
2255 10  
2256 10  
2257 4   
2258 8   
2259 2   
2260 4   
2261 7   
2262 7   
2263 9   
2264 75  
2265 7   
2266 73  
2267 1   
2268 6   
2269 7   
2270 4   
2271 2   
2272 2   
2273 6   
2274 6   
2275 2   
2276 6   
2277 3   
2278 2   
2279 4   
2280 5   
2281 9   
2282 5   
2283 9   
2284 90  
2285 5   
2286 5   
2287 6   
2288 4   
2289 76  
2290 9   
2291 3   
2292 2   
2293 4   
2294 6   
2295 7   
2296 5   
2297 5   
2298 5   
2299 3   
2300 1   
2301 9   
2302 3   
2303 5   
2304 1   
2305 2   
2306 3   
2307 10  
2308 7   
2309 3   
2310 72  
2311 3   
2312 1   
2313 7   
2314 1   
2315 6   
2316 9   
2317 8   
2318 2   
2319 69  
2320 51  
2321 6   
2322 6   
2323 5   
2324 10  
2325 6   
2326 1   
2327 52  
2328 9   
2329 9   
2330 10  
2331 5   
2332 2   
2333 6   
2334 4   
2335 9   
2336 4   
2337 6   
2338 9   
2339 8   
2340 77  
2341 3   
2342 5   
2343 6   
2344 3   
2345 2   
2346 1   
2347 4   
2348 8   
2349 10  
2350 10  
2351 8   
2352 6   
2353 8   
2354 5   
2355 2   
2356 8   
2357 2   
2358 2   
2359 10  
2360 7   
2361 3   
2362 4   
2363 4   
2364 82  
2365 4   
2366 4   
2367 53  
2368 3   
2369 6   
2370 3   
2371 4   
2372 8   
2373 2   
2374 10  
2375 6   
2376 6   
2377 10  
2378 74  
2379 4   
2380 2   
2381 4   
2382 81  
2383 8   
2384 6   
2385 62  
2386 7   
2387 1   
2388 2   
2389 7   
2390 6   
2391 1   
2392 6   
2393 10  
2394 97  
2395 7   
2396 3   
2397 8   
2398 4   
2399 9   
2400 3   
2401 9   
2402 8   
2403 100 
2404 1   
2405 70  
2406 2   
2407 3   
2408 5   
2409 2   
2410 4   
2411 2   
2412 7   
2413 6   
2414 7   
2415 10  
2416 5   
2417 6   
2418 4   
2419 4   
2420 8   
2421 4   
2422 8   
2423 4   
2424 8   
2425 76  
2426 1   
2427 9   
2428 9   
2429 1   
2430 8   
2431 5   
2432 3   
2433 5   
2434 3   
2435 1   
2436 1   
2437 5   
2438 9   
2439 6   
2440 7   
2441 6   
2442 9   
2443 4   
2444 6   
2445 96  
2446 7   
2447 1   
2448 8   
2449 2   
2450 7   
2451 9   
2452 2   
2453 7   
2454 7   
2455 1   
2456 5   
2457 8   
2458 5   
2459 9   
2460 67  
2461 3   
2462 8   
2463 10  
2464 5   
2465 2   
2466 4   
2467 10  
2468 60  
2469 4   
2470 9   
2471 8   
2472 100 
2473 7   
2474 4   
2475 7   
2476 6   
2477 7   
2478 1   
2479 1   
2480 6   
2481 10  
2482 1   
2483 9   
2484 58  
2485 8   
2486 10  
2487 5   
2488 8   
2489 3   
2490 59  
2491 9   
2492 7   
2493 7   
2494 7   
2495 2   
2496 6   
2497 10  
2498 5   
2499 3   
2500 10  
2501 8   
2502 2   
2503 9   
2504 7   
2505 2   
2506 3   
2507 8   
2508 1   
2509 10  
2510 10  
2511 8   
2512 8   
2513 5   
2514 7   
2515 9   
2516 58  
2517 4   
2518 96  
2519 3   
2520 3   
2521 5   
2522 4   
2523 1   
2524 9   
2525 1   
2526 3   
2527 10  
2528 4   
2529 2   
2530 9   
2531 1   
2532 4   
2533 4   
2534 10  
2535 7   
2536 9   
2537 6   
2538 8   
2539 4   
2540 7   
2541 5   
2542 9   
2543 9   
2544 3   
2545 10  
2546 9   
2547 8   
2548 10  
2549 2   
2550 9   
2551 5   
2552 1   
2553 9   
2554 7   
2555 6   
2556 8   
2557 3   
2558 10  
2559 9   
2560 3   
2561 9   
2562 7   
2563 1   
2564 1   
2565 9   
2566 6   
2567 8   
2568 5   
2569 2   
2570 7   
2571 8   
2572 7   
2573 10  
2574 6   
2575 93  
2576 86  
2577 1   
2578 3   
2579 6   
2580 8   
2581 10  
2582 5   
2583 9   
2584 2   
2585 9   
2586 1   
2587 6   
2588 4   
2589 6   
2590 2   
2591 8   
2592 5   
2593 10  
2594 8   
2595 2   
2596 10  
2597 7   
2598 2   
2599 1   
2600 4   
2601 2   
2602 1   
2603 2   
2604 3   
2605 2   
2606 100 
2607 1   
2608 10  
2609 95  
2610 3   
2611 9   
2612 10  
2613 4   
2614 10  
2615 10  
2616 6   
2617 3   
2618 10  
2619 1   
2620 2   
2621 9   
2622 2   
2623 4   
2624 9   
2625 3   
2626 10  
2627 10  
2628 10  
2629 9   
2630 1   
2631 10  
2632 10  
2633 8   
2634 10  
2635 9   
2636 8   
2637 8   
2638 1   
2639 4   
2640 5   
2641 8   
2642 5   
2643 9   
2644 3   
2645 9   
2646 9   
2647 10  
2648 5   
2649 8   
2650 9   
2651 86  
2652 9   
2653 9   
2654 4   
2655 2   
2656 5   
2657 80  
2658 2   
2659 5   
2660 9   
2661 79  
2662 3   
2663 7   
2664 8   
2665 1   
2666 9   
2667 4   
2668 10  
2669 2   
2670 8   
2671 8   
2672 9   
2673 57  
2674 3   
2675 8   
2676 7   
2677 2   
2678 8   
2679 2   
2680 7   
2681 2   
2682 1   
2683 3   
2684 4   
2685 10  
2686 3   
2687 6   
2688 2   
2689 2   
2690 3   
2691 1   
2692 7   
2693 4   
2694 2   
2695 1   
2696 4   
2697 9   
2698 10  
2699 9   
2700 9   
2701 3   
2702 2   
2703 6   
2704 4   
2705 6   
2706 100 
2707 2   
2708 4   
2709 4   
2710 1   
2711 10  
2712 7   
2713 1   
2714 4   
2715 2   
2716 5   
2717 6   
2718 3   
2719 8   
2720 5   
2721 7   
2722 2   
2723 9   
2724 7   
2725 10  
2726 9   
2727 4   
2728 1   
2729 1   
2730 2   
2731 3   
2732 3   
2733 9   
2734 2   
2735 4   
2736 6   
2737 5   
2738 3   
2739 52  
2740 10  
2741 1   
2742 8   
2743 6   
2744 5   
2745 10  
2746 8   
2747 5   
2748 10  
2749 7   
2750 8   
2751 3   
2752 10  
2753 6   
2754 93  
2755 6   
2756 9   
2757 7   
2758 6   
2759 5   
2760 9   
2761 6   
2762 3   
2763 4   
2764 6   
2765 9   
2766 4   
2767 5   
2768 2   
2769 6   
2770 3   
2771 2   
2772 6   
2773 4   
2774 8   
2775 93  
2776 1   
2777 2   
2778 2   
2779 3   
2780 3   
2781 4   
2782 5   
2783 4   
2784 2   
2785 3   
2786 1   
2787 5   
2788 52  
2789 8   
2790 5   
2791 1   
2792 3   
2793 7   
2794 4   
2795 3   
2796 10  
2797 4   
2798 8   
2799 6   
2800 4   
2801 3   
2802 6   
2803 6   
2804 85  
2805 8   
2806 2   
2807 10  
2808 2   
2809 10  
2810 5   
2811 7   
2812 5   
2813 10  
2814 8   
2815 1   
2816 84  
2817 1   
2818 2   
2819 6   
2820 7   
2821 5   
2822 10  
2823 4   
2824 1   
2825 2   
2826 6   
2827 6   
2828 2   
2829 2   
2830 5   
2831 8   
2832 3   
2833 10  
2834 5   
2835 82  
2836 8   
2837 9   
2838 4   
2839 5   
2840 1   
2841 10  
2842 4   
2843 2   
2844 5   
2845 7   
2846 3   
2847 6   
2848 2   
2849 5   
2850 8   
2851 7   
2852 1   
2853 1   
2854 4   
2855 10  
2856 7   
2857 10  
2858 9   
2859 4   
2860 7   
2861 10  
2862 2   
2863 4   
2864 8   
2865 5   
2866 10  
2867 3   
2868 7   
2869 9   
2870 6   
2871 5   
2872 10  
2873 2   
2874 10  
2875 10  
2876 10  
2877 7   
2878 5   
2879 7   
2880 4   
2881 2   
2882 10  
2883 3   
2884 9   
2885 1   
2886 10  
2887 7   
2888 10  
2889 6   
2890 8   
2891 3   
2892 75  
2893 9   
2894 9   
2895 5   
2896 5   
2897 3   
2898 4   
2899 2   
2900 3   
2901 7   
2902 2   
2903 3   
2904 2   
2905 3   
2906 2   
2907 4   
2908 6   
2909 1   
2910 4   
2911 9   
2912 8   
2913 8   
2914 3   
2915 6   
2916 2   
2917 7   
2918 6   
2919 8   
2920 1   
2921 3   
2922 8   
2923 4   
2924 10  
2925 5   
2926 7   
2927 5   
2928 3   
2929 4   
2930 6   
2931 5   
2932 5   
2933 10  
2934 7   
2935 9   
2936 8   
2937 91  
2938 9   
2939 7   
2940 5   
2941 9   
2942 6   
2943 7   
2944 10  
2945 6   
2946 56  
2947 6   
2948 3   
2949 8   
2950 10  
2951 6   
2952 10  
2953 2   
2954 4   
2955 3   
2956 9   
2957 7   
2958 4   
2959 5   
2960 2   
2961 6   
2962 6   
2963 7   
2964 2   
2965 5   
2966 10  
2967 4   
2968 10  
2969 90  
2970 4   
2971 8   
2972 10  
2973 80  
2974 9   
2975 2   
2976 7   
2977 89  
2978 8   
2979 9   
2980 1   
2981 10  
2982 6   
2983 5   
2984 1   
2985 3   
2986 5   
2987 6   
2988 8   
2989 1   
2990 9   
2991 6   
2992 10  
2993 9   
2994 7   
2995 2   
2996 6   
2997 6   
2998 8   
2999 9   
3000 6   
3001 9   
3002 87  
3003 5   
3004 9   
3005 10  
3006 7   
3007 6   
3008 9   
3009 5   
3010 4   
3011 8   
3012 4   
3013 8   
3014 6   
3015 3   
3016 10  
3017 7   
3018 8   
3019 7   
3020 9   
3021 10  
3022 3   
3023 6   
3024 2   
3025 6   
3026 1   
3027 4   
3028 9   
3029 2   
3030 1   
3031 4   
3032 85  
3033 7   
3034 9   
3035 7   
3036 7   
3037 92  
3038 3   
3039 8   
3040 1   
3041 8   
3042 6   
3043 7   
3044 5   
3045 10  
3046 1   
3047 2   
3048 10  
3049 5   
3050 6   
3051 1   
3052 7   
3053 2   
3054 4   
3055 98  
3056 8   
3057 8   
3058 70  
3059 6   
3060 5   
3061 6   
3062 9   
3063 4   
3064 7   
3065 1   
3066 5   
3067 5   
3068 8   
3069 1   
3070 9   
3071 3   
3072 8   
3073 7   
3074 7   
3075 4   
3076 6   
3077 7   
3078 9   
3079 10  
3080 1   
3081 5   
3082 10  
3083 7   
3084 9   
3085 5   
3086 1   
3087 8   
3088 10  
3089 10  
3090 61  
3091 2   
3092 8   
3093 3   
3094 9   
3095 5   
3096 2   
3097 9   
3098 1   
3099 3   
3100 1   
3101 9   
3102 2   
3103 7   
3104 1   
3105 6   
3106 2   
3107 10  
3108 4   
3109 10  
3110 8   
3111 10  
3112 10  
3113 8   
3114 77  
3115 8   
3116 3   
3117 50  
3118 10  
3119 5   
3120 10  
3121 9   
3122 10  
3123 10  
3124 7   
3125 7   
3126 9   
3127 10  
3128 1   
3129 5   
3130 2   
3131 10  
3132 6   
3133 10  
3134 5   
3135 7   
3136 2   
3137 8   
3138 7   
3139 3   
3140 52  
3141 78  
3142 6   
3143 3   
3144 1   
3145 7   
3146 7   
3147 3   
3148 4   
3149 5   
3150 9   
3151 9   
3152 8   
3153 84  
3154 1   
3155 1   
3156 6   
3157 9   
3158 3   
3159 7   
3160 3   
3161 9   
3162 5   
3163 1   
3164 3   
3165 6   
3166 7   
3167 72  
3168 7   
3169 2   
3170 2   
3171 1   
3172 1   
3173 3   
3174 5   
3175 1   
3176 9   
3177 5   
3178 8   
3179 80  
3180 5   
3181 1   
3182 10  
3183 5   
3184 2   
3185 6   
3186 1   
3187 82  
3188 8   
3189 2   
3190 4   
3191 3   
3192 5   
3193 7   
3194 7   
3195 9   
3196 5   
3197 3   
3198 1   
3199 7   
3200 2   
3201 7   
3202 9   
3203 5   
3204 9   
3205 1   
3206 5   
3207 6   
3208 3   
3209 1   
3210 2   
3211 3   
3212 10  
3213 3   
3214 4   
3215 5   
3216 5   
3217 9   
3218 1   
3219 10  
3220 6   
3221 5   
3222 1   
3223 7   
3224 4   
3225 7   
3226 8   
3227 10  
3228 8   
3229 2   
3230 6   
3231 7   
3232 7   
3233 6   
3234 10  
3235 9   
3236 2   
3237 50  
3238 2   
3239 2   
3240 85  
3241 91  
3242 5   
3243 7   
3244 66  
3245 1   
3246 2   
3247 7   
3248 2   
3249 10  
3250 8   
3251 2   
3252 8   
3253 4   
3254 10  
3255 10  
3256 6   
3257 8   
3258 5   
3259 4   
3260 2   
3261 4   
3262 8   
3263 3   
3264 8   
3265 6   
3266 10  
3267 9   
3268 2   
3269 1   
3270 3   
3271 7   
3272 5   
3273 4   
3274 9   
3275 8   
3276 95  
3277 6   
3278 5   
3279 9   
3280 10  
3281 2   
3282 2   
3283 6   
3284 1   
3285 4   
3286 10  
3287 6   
3288 2   
3289 7   
3290 7   
3291 6   
3292 8   
3293 10  
3294 69  
3295 5   
3296 4   
3297 8   
3298 4   
3299 4   
3300 1   
3301 4   
3302 10  
3303 1   
3304 8   
3305 9   
3306 1   
3307 7   
3308 9   
3309 10  
3310 9   
3311 67  
3312 9   
3313 6   
3314 10  
3315 7   
3316 6   
3317 1   
3318 6   
3319 8   
3320 2   
3321 6   
3322 4   
3323 10  
3324 1   
3325 4   
3326 6   
3327 6   
3328 5   
3329 87  
3330 9   
3331 6   
3332 4   
3333 9   
3334 9   
3335 10  
3336 1   
3337 5   
3338 4   
3339 10  
3340 4   
3341 6   
3342 5   
3343 1   
3344 6   
3345 1   
3346 5   
3347 3   
3348 2   
3349 2   
3350 8   
3351 10  
3352 8   
3353 10  
3354 3   
3355 9   
3356 5   
3357 7   
3358 8   
3359 8   
3360 9   
3361 4   
3362 6   
3363 9   
3364 65  
3365 6   
3366 9   
3367 7   
3368 10  
3369 1   
3370 9   
3371 2   
3372 64  
3373 2   
3374 4   
3375 4   
3376 1   
3377 97  
3378 4   
3379 4   
3380 3   
3381 7   
3382 10  
3383 52  
3384 7   
3385 5   
3386 6   
3387 4   
3388 8   
3389 7   
3390 3   
3391 2   
3392 6   
3393 5   
3394 10  
3395 5   
3396 3   
3397 9   
3398 7   
3399 5   
3400 10  
3401 6   
3402 5   
3403 8   
3404 2   
3405 10  
3406 4   
3407 5   
3408 10  
3409 9   
3410 5   
3411 2   
3412 9   
3413 7   
3414 55  
3415 2   
3416 1   
3417 3   
3418 7   
3419 10  
3420 5   
3421 6   
3422 3   
3423 10  
3424 4   
3425 5   
3426 3   
3427 1   
3428 57  
3429 3   
3430 1   
3431 8   
3432 6   
3433 1   
3434 2   
3435 100 
3436 3   
3437 8   
3438 5   
3439 1   
3440 6   
3441 6   
3442 2   
3443 5   
3444 1   
3445 2   
3446 9   
3447 7   
3448 6   
3449 7   
3450 72  
3451 9   
3452 1   
3453 6   
3454 3   
3455 8   
3456 9   
3457 8   
3458 8   
3459 6   
3460 10  
3461 66  
3462 3   
3463 6   
3464 3   
3465 7   
3466 1   
3467 8   
3468 3   
3469 2   
3470 10  
3471 1   
3472 2   
3473 89  
3474 5   
3475 9   
3476 4   
3477 4   
3478 1   
3479 9   
3480 5   
3481 60  
3482 8   
3483 3   
3484 8   
3485 1   
3486 8   
3487 8   
3488 3   
3489 2   
3490 9   
3491 9   
3492 5   
3493 10  
3494 5   
3495 7   
3496 6   
3497 5   
3498 9   
3499 9   
3500 10  
3501 6   
3502 2   
3503 10  
3504 8   
3505 3   
3506 3   
3507 6   
3508 6   
3509 7   
3510 2   
3511 6   
3512 10  
3513 6   
3514 7   
3515 7   
3516 4   
3517 8   
3518 4   
3519 8   
3520 5   
3521 8   
3522 1   
3523 1   
3524 2   
3525 85  
3526 9   
3527 68  
3528 3   
3529 2   
3530 2   
3531 6   
3532 95  
3533 3   
3534 1   
3535 5   
3536 8   
3537 1   
3538 8   
3539 6   
3540 4   
3541 9   
3542 6   
3543 2   
3544 2   
3545 10  
3546 10  
3547 1   
3548 10  
3549 10  
3550 85  
3551 2   
3552 4   
3553 6   
3554 10  
3555 7   
3556 7   
3557 9   
3558 3   
3559 9   
3560 10  
3561 1   
3562 3   
3563 10  
3564 5   
3565 2   
3566 1   
3567 6   
3568 3   
3569 1   
3570 1   
3571 6   
3572 9   
3573 1   
3574 79  
3575 6   
3576 5   
3577 9   
3578 3   
3579 2   
3580 5   
3581 3   
3582 8   
3583 2   
3584 9   
3585 5   
3586 10  
3587 2   
3588 2   
3589 8   
3590 9   
3591 6   
3592 4   
3593 6   
3594 3   
3595 2   
3596 57  
3597 7   
3598 7   
3599 6   
3600 2   
3601 9   
3602 10  
3603 10  
3604 7   
3605 8   
3606 3   
3607 4   
3608 6   
3609 6   
3610 9   
3611 8   
3612 6   
3613 7   
3614 4   
3615 3   
3616 3   
3617 5   
3618 6   
3619 9   
3620 3   
3621 7   
3622 7   
3623 9   
3624 7   
3625 2   
3626 6   
3627 8   
3628 10  
3629 8   
3630 8   
3631 6   
3632 10  
3633 2   
3634 8   
3635 10  
3636 51  
3637 8   
3638 2   
3639 7   
3640 5   
3641 9   
3642 1   
3643 10  
3644 7   
3645 1   
3646 9   
3647 10  
3648 7   
3649 5   
3650 1   
3651 9   
3652 5   
3653 3   
3654 55  
3655 3   
3656 8   
3657 1   
3658 9   
3659 10  
3660 6   
3661 6   
3662 8   
3663 9   
3664 6   
3665 62  
3666 6   
3667 1   
3668 4   
3669 99  
3670 3   
3671 1   
3672 7   
3673 1   
3674 2   
3675 10  
3676 7   
3677 1   
3678 1   
3679 62  
3680 10  
3681 6   
3682 2   
3683 1   
3684 10  
3685 9   
3686 7   
3687 9   
3688 10  
3689 5   
3690 3   
3691 6   
3692 5   
3693 3   
3694 8   
3695 6   
3696 6   
3697 7   
3698 5   
3699 5   
3700 4   
3701 4   
3702 6   
3703 3   
3704 4   
3705 1   
3706 8   
3707 2   
3708 8   
3709 9   
3710 4   
3711 4   
3712 2   
3713 9   
3714 92  
3715 7   
3716 9   
3717 5   
3718 3   
3719 5   
3720 8   
3721 6   
3722 4   
3723 1   
3724 7   
3725 7   
3726 10  
3727 10  
3728 4   
3729 86  
3730 5   
3731 7   
3732 1   
3733 10  
3734 7   
3735 2   
3736 3   
3737 10  
3738 9   
3739 5   
3740 2   
3741 8   
3742 4   
3743 4   
3744 8   
3745 3   
3746 6   
3747 4   
3748 9   
3749 97  
3750 2   
3751 4   
3752 9   
3753 4   
3754 10  
3755 5   
3756 6   
3757 8   
3758 56  
3759 4   
3760 8   
3761 7   
3762 10  
3763 8   
3764 2   
3765 9   
3766 6   
3767 2   
3768 3   
3769 6   
3770 7   
3771 61  
3772 7   
3773 5   
3774 2   
3775 1   
3776 7   
3777 5   
3778 8   
3779 8   
3780 9   
3781 60  
3782 7   
3783 1   
3784 1   
3785 1   
3786 3   
3787 4   
3788 5   
3789 4   
3790 2   
3791 7   
3792 2   
3793 3   
3794 3   
3795 10  
3796 1   
3797 9   
3798 8   
3799 1   
3800 64  
3801 5   
3802 2   
3803 2   
3804 1   
3805 7   
3806 6   
3807 5   
3808 85  
3809 1   
3810 77  
3811 6   
3812 4   
3813 9   
3814 2   
3815 8   
3816 8   
3817 6   
3818 8   
3819 7   
3820 9   
3821 7   
3822 1   
3823 1   
3824 6   
3825 6   
3826 6   
3827 1   
3828 7   
3829 6   
3830 9   
3831 7   
3832 3   
3833 4   
3834 1   
3835 10  
3836 9   
3837 6   
3838 7   
3839 8   
3840 7   
3841 7   
3842 3   
3843 10  
3844 9   
3845 7   
3846 7   
3847 99  
3848 1   
3849 6   
3850 62  
3851 6   
3852 9   
3853 7   
3854 4   
3855 2   
3856 3   
3857 1   
3858 74  
3859 6   
3860 2   
3861 10  
3862 3   
3863 7   
3864 9   
3865 50  
3866 2   
3867 9   
3868 8   
3869 1   
3870 8   
3871 2   
3872 1   
3873 9   
3874 10  
3875 3   
3876 10  
3877 3   
3878 56  
3879 7   
3880 6   
3881 7   
3882 3   
3883 7   
3884 5   
3885 4   
3886 1   
3887 10  
3888 1   
3889 5   
3890 6   
3891 8   
3892 1   
3893 2   
3894 2   
3895 6   
3896 4   
3897 2   
3898 8   
3899 69  
3900 9   
3901 7   
3902 1   
3903 9   
3904 7   
3905 2   
3906 7   
3907 10  
3908 9   
3909 10  
3910 1   
3911 7   
3912 94  
3913 1   
3914 4   
3915 6   
3916 3   
3917 8   
3918 3   
3919 6   
3920 1   
3921 10  
3922 5   
3923 8   
3924 99  
3925 7   
3926 7   
3927 2   
3928 10  
3929 83  
3930 9   
3931 9   
3932 3   
3933 6   
3934 1   
3935 9   
3936 1   
3937 1   
3938 3   
3939 3   
3940 1   
3941 4   
3942 9   
3943 3   
3944 59  
3945 5   
3946 1   
3947 91  
3948 2   
3949 7   
3950 9   
3951 9   
3952 10  
3953 8   
3954 6   
3955 7   
3956 7   
3957 9   
3958 2   
3959 5   
3960 6   
3961 4   
3962 7   
3963 4   
3964 3   
3965 8   
3966 5   
3967 3   
3968 8   
3969 1   
3970 4   
3971 80  
3972 1   
3973 7   
3974 1   
3975 7   
3976 7   
3977 9   
3978 9   
3979 6   
3980 3   
3981 1   
3982 8   
3983 10  
3984 8   
3985 73  
3986 8   
3987 9   
3988 4   
3989 2   
3990 3   
3991 7   
3992 2   
3993 6   
3994 3   
3995 9   
3996 10  
3997 3   
3998 10  
3999 6   
4000 3   
4001 8   
4002 8   
4003 3   
4004 3   
4005 10  
4006 4   
4007 7   
4008 10  
4009 6   
4010 6   
4011 9   
4012 10  
4013 4   
4014 9   
4015 2   
4016 10  
4017 7   
4018 6   
4019 5   
4020 1   
4021 6   
4022 6   
4023 3   
4024 9   
4025 10  
4026 1   
4027 2   
4028 6   
4029 4   
4030 1   
4031 1   
4032 9   
4033 6   
4034 9   
4035 8   
4036 4   
4037 4   
4038 7   
4039 7   
4040 2   
4041 6   
4042 1   
4043 7   
4044 3   
4045 8   
4046 85  
4047 5   
4048 87  
4049 6   
4050 8   
4051 5   
4052 4   
4053 8   
4054 8   
4055 7   
4056 9   
4057 10  
4058 3   
4059 8   
4060 7   
4061 1   
4062 10  
4063 8   
4064 3   
4065 7   
4066 8   
4067 9   
4068 7   
4069 4   
4070 3   
4071 57  
4072 10  
4073 2   
4074 6   
4075 7   
4076 2   
4077 4   
4078 7   
4079 2   
4080 3   
4081 1   
4082 7   
4083 4   
4084 7   
4085 10  
4086 2   
4087 8   
4088 10  
4089 6   
4090 4   
4091 8   
4092 4   
4093 98  
4094 64  
4095 2   
4096 9   
4097 58  
4098 9   
4099 10  
4100 9   
4101 2   
4102 2   
4103 8   
4104 6   
4105 3   
4106 5   
4107 5   
4108 10  
4109 4   
4110 1   
4111 10  
4112 9   
4113 2   
4114 10  
4115 6   
4116 7   
4117 10  
4118 5   
4119 9   
4120 9   
4121 9   
4122 4   
4123 2   
4124 4   
4125 7   
4126 7   
4127 10  
4128 87  
4129 8   
4130 2   
4131 10  
4132 2   
4133 7   
4134 1   
4135 9   
4136 7   
4137 7   
4138 4   
4139 10  
4140 6   
4141 9   
4142 4   
4143 3   
4144 1   
4145 3   
4146 10  
4147 6   
4148 1   
4149 3   
4150 10  
4151 10  
4152 3   
4153 3   
4154 10  
4155 2   
4156 89  
4157 7   
4158 4   
4159 9   
4160 3   
4161 6   
4162 10  
4163 7   
4164 2   
4165 6   
4166 4   
4167 4   
4168 3   
4169 97  
4170 8   
4171 7   
4172 6   
4173 6   
4174 5   
4175 4   
4176 9   
4177 66  
4178 5   
4179 9   
4180 10  
4181 10  
4182 8   
4183 2   
4184 6   
4185 2   
4186 7   
4187 6   
4188 8   
4189 6   
4190 1   
4191 6   
4192 4   
4193 8   
4194 4   
4195 9   
4196 2   
4197 9   
4198 1   
4199 4   
4200 1   
4201 1   
4202 10  
4203 3   
4204 6   
4205 2   
4206 2   
4207 1   
4208 1   
4209 3   
4210 3   
4211 2   
4212 5   
4213 9   
4214 9   
4215 4   
4216 7   
4217 7   
4218 8   
4219 2   
4220 1   
4221 4   
4222 2   
4223 5   
4224 1   
4225 9   
4226 7   
4227 2   
4228 1   
4229 6   
4230 5   
4231 1   
4232 1   
4233 9   
4234 7   
4235 2   
4236 1   
4237 8   
4238 4   
4239 4   
4240 5   
4241 5   
4242 4   
4243 4   
4244 2   
4245 3   
4246 9   
4247 3   
4248 4   
4249 6   
4250 65  
4251 6   
4252 50  
4253 10  
4254 1   
4255 7   
4256 1   
4257 9   
4258 8   
4259 5   
4260 4   
4261 7   
4262 1   
4263 3   
4264 7   
4265 7   
4266 2   
4267 10  
4268 9   
4269 5   
4270 1   
4271 2   
4272 10  
4273 8   
4274 1   
4275 8   
4276 10  
4277 4   
4278 10  
4279 72  
4280 8   
4281 7   
4282 10  
4283 8   
4284 10  
4285 4   
4286 5   
4287 4   
4288 4   
4289 1   
4290 2   
4291 5   
4292 8   
4293 8   
4294 1   
4295 8   
4296 3   
4297 6   
4298 3   
4299 3   
4300 3   
4301 7   
4302 8   
4303 3   
4304 2   
4305 9   
4306 7   
4307 4   
4308 2   
4309 6   
4310 9   
4311 4   
4312 8   
4313 7   
4314 7   
4315 7   
4316 10  
4317 7   
4318 7   
4319 6   
4320 10  
4321 2   
4322 3   
4323 9   
4324 2   
4325 7   
4326 3   
4327 9   
4328 6   
4329 2   
4330 8   
4331 1   
4332 1   
4333 6   
4334 8   
4335 1   
4336 3   
4337 3   
4338 1   
4339 10  
4340 1   
4341 6   
4342 4   
4343 1   
4344 2   
4345 9   
4346 1   
4347 10  
4348 10  
4349 67  
4350 5   
4351 4   
4352 61  
4353 5   
4354 5   
4355 6   
4356 3   
4357 8   
4358 9   
4359 5   
4360 9   
4361 4   
4362 7   
4363 2   
4364 7   
4365 7   
4366 2   
4367 6   
4368 8   
4369 2   
4370 7   
4371 3   
4372 8   
4373 9   
4374 7   
4375 9   
4376 10  
4377 3   
4378 6   
4379 2   
4380 7   
4381 10  
4382 8   
4383 9   
4384 3   
4385 9   
4386 2   
4387 1   
4388 1   
4389 3   
4390 9   
4391 1   
4392 6   
4393 3   
4394 7   
4395 5   
4396 10  
4397 8   
4398 9   
4399 2   
4400 4   
4401 5   
4402 8   
4403 1   
4404 3   
4405 5   
4406 5   
4407 4   
4408 9   
4409 2   
4410 5   
4411 5   
4412 9   
4413 5   
4414 2   
4415 6   
4416 4   
4417 2   
4418 2   
4419 1   
4420 4   
4421 1   
4422 6   
4423 7   
4424 9   
4425 4   
4426 5   
4427 4   
4428 2   
4429 10  
4430 6   
4431 9   
4432 4   
4433 10  
4434 5   
4435 8   
4436 10  
4437 6   
4438 1   
4439 6   
4440 10  
4441 5   
4442 10  
4443 10  
4444 5   
4445 4   
4446 4   
4447 9   
4448 3   
4449 5   
4450 8   
4451 9   
4452 3   
4453 5   
4454 9   
4455 10  
4456 6   
4457 9   
4458 2   
4459 4   
4460 10  
4461 8   
4462 6   
4463 4   
4464 1   
4465 7   
4466 7   
4467 5   
4468 4   
4469 7   
4470 10  
4471 5   
4472 8   
4473 8   
4474 9   
4475 8   
4476 5   
4477 4   
4478 10  
4479 6   
4480 5   
4481 4   
4482 9   
4483 4   
4484 1   
4485 1   
4486 76  
4487 5   
4488 5   
4489 3   
4490 2   
4491 8   
4492 6   
4493 8   
4494 7   
4495 7   
4496 5   
4497 3   
4498 8   
4499 5   
4500 4   
4501 7   
4502 9   
4503 64  
4504 6   
4505 10  
4506 5   
4507 5   
4508 7   
4509 9   
4510 6   
4511 8   
4512 2   
4513 5   
4514 2   
4515 10  
4516 4   
4517 5   
4518 2   
4519 6   
4520 5   
4521 9   
4522 3   
4523 10  
4524 3   
4525 2   
4526 90  
4527 2   
4528 2   
4529 10  
4530 3   
4531 6   
4532 4   
4533 6   
4534 9   
4535 9   
4536 9   
4537 4   
4538 6   
4539 4   
4540 10  
4541 87  
4542 7   
4543 4   
4544 3   
4545 6   
4546 6   
4547 6   
4548 1   
4549 9   
4550 7   
4551 3   
4552 1   
4553 6   
4554 8   
4555 7   
4556 7   
4557 4   
4558 78  
4559 1   
4560 7   
4561 6   
4562 9   
4563 52  
4564 10  
4565 7   
4566 3   
4567 5   
4568 3   
4569 10  
4570 3   
4571 7   
4572 5   
4573 9   
4574 4   
4575 8   
4576 67  
4577 8   
4578 3   
4579 8   
4580 5   
4581 9   
4582 1   
4583 6   
4584 3   
4585 9   
4586 4   
4587 7   
4588 2   
4589 4   
4590 9   
4591 3   
4592 9   
4593 6   
4594 97  
4595 8   
4596 3   
4597 2   
4598 9   
4599 8   
4600 7   
4601 1   
4602 3   
4603 6   
4604 4   
4605 89  
4606 4   
4607 2   
4608 4   
4609 73  
4610 83  
4611 5   
4612 8   
4613 2   
4614 6   
4615 4   
4616 10  
4617 6   
4618 1   
4619 10  
4620 3   
4621 9   
4622 8   
4623 6   
4624 3   
4625 7   
4626 7   
4627 1   
4628 6   
4629 8   
4630 1   
4631 7   
4632 10  
4633 5   
4634 4   
4635 8   
4636 7   
4637 7   
4638 5   
4639 1   
4640 8   
4641 2   
4642 9   
4643 6   
4644 5   
4645 7   
4646 2   
4647 2   
4648 2   
4649 8   
4650 1   
4651 9   
4652 10  
4653 8   
4654 9   
4655 7   
4656 2   
4657 3   
4658 10  
4659 8   
4660 1   
4661 7   
4662 7   
4663 10  
4664 7   
4665 6   
4666 5   
4667 6   
4668 62  
4669 4   
4670 3   
4671 9   
4672 61  
4673 8   
4674 2   
4675 9   
4676 2   
4677 4   
4678 2   
4679 4   
4680 4   
4681 6   
4682 2   
4683 6   
4684 8   
4685 9   
4686 8   
4687 8   
4688 8   
4689 2   
4690 2   
4691 1   
4692 10  
4693 9   
4694 2   
4695 1   
4696 84  
4697 5   
4698 7   
4699 7   
4700 8   
4701 10  
4702 4   
4703 4   
4704 8   
4705 88  
4706 10  
4707 9   
4708 65  
4709 76  
4710 10  
4711 4   
4712 3   
4713 6   
4714 10  
4715 91  
4716 4   
4717 2   
4718 3   
4719 5   
4720 10  
4721 5   
4722 5   
4723 9   
4724 4   
4725 4   
4726 10  
4727 4   
4728 4   
4729 7   
4730 68  
4731 3   
4732 5   
4733 9   
4734 6   
4735 2   
4736 3   
4737 1   
4738 9   
4739 1   
4740 66  
4741 9   
4742 6   
4743 7   
4744 3   
4745 5   
4746 8   
4747 5   
4748 10  
4749 52  
4750 10  
4751 8   
4752 7   
4753 9   
4754 10  
4755 1   
4756 9   
4757 6   
4758 10  
4759 4   
4760 6   
4761 6   
4762 8   
4763 8   
4764 4   
4765 2   
4766 4   
4767 5   
4768 9   
4769 5   
4770 4   
4771 4   
4772 7   
4773 2   
4774 6   
4775 1   
4776 8   
4777 8   
4778 2   
4779 8   
4780 6   
4781 1   
4782 1   
4783 6   
4784 3   
4785 2   
4786 8   
4787 1   
4788 1   
4789 7   
4790 8   
4791 4   
4792 3   
4793 4   
4794 8   
4795 3   
4796 2   
4797 4   
4798 8   
4799 8   
4800 5   
4801 3   
4802 6   
4803 1   
4804 1   
4805 6   
4806 60  
4807 6   
4808 5   
4809 10  
4810 1   
4811 9   
4812 7   
4813 10  
4814 3   
4815 8   
4816 5   
4817 4   
4818 7   
4819 3   
4820 3   
4821 61  
4822 1   
4823 4   
4824 4   
4825 58  
4826 7   
4827 8   
4828 10  
4829 1   
4830 5   
4831 2   
4832 7   
4833 2   
4834 3   
4835 6   
4836 5   
4837 1   
4838 1   
4839 3   
4840 8   
4841 2   
4842 8   
4843 5   
4844 8   
4845 70  
4846 2   
4847 7   
4848 2   
4849 2   
4850 7   
4851 1   
4852 6   
4853 3   
4854 7   
4855 6   
4856 9   
4857 9   
4858 5   
4859 2   
4860 7   
4861 3   
4862 8   
4863 72  
4864 3   
4865 1   
4866 10  
4867 2   
4868 1   
4869 1   
4870 7   
4871 10  
4872 9   
4873 1   
4874 2   
4875 6   
4876 8   
4877 3   
4878 7   
4879 1   
4880 6   
4881 10  
4882 3   
4883 77  
4884 4   
4885 3   
4886 1   
4887 1   
4888 10  
4889 1   
4890 59  
4891 2   
4892 7   
4893 7   
4894 7   
4895 3   
4896 3   
4897 10  
4898 10  
4899 9   
4900 55  
4901 10  
4902 1   
4903 3   
4904 9   
4905 8   
4906 9   
4907 10  
4908 9   
4909 4   
4910 5   
4911 5   
4912 7   
4913 8   
4914 1   
4915 3   
4916 6   
4917 8   
4918 6   
4919 9   
4920 9   
4921 2   
4922 7   
4923 5   
4924 10  
4925 2   
4926 2   
4927 6   
4928 5   
4929 10  
4930 1   
4931 9   
4932 8   
4933 10  
4934 9   
4935 72  
4936 6   
4937 4   
4938 7   
4939 5   
4940 6   
4941 4   
4942 3   
4943 5   
4944 7   
4945 7   
4946 7   
4947 7   
4948 10  
4949 3   
4950 9   
4951 1   
4952 8   
4953 4   
4954 10  
4955 9   
4956 2   
4957 10  
4958 9   
4959 5   
4960 8   
4961 1   
4962 9   
4963 56  
4964 9   
4965 5   
4966 6   
4967 4   
4968 6   
4969 1   
4970 6   
4971 5   
4972 1   
4973 5   
4974 4   
4975 10  
4976 9   
4977 6   
4978 6   
4979 6   
4980 9   
4981 3   
4982 64  
4983 6   
4984 5   
4985 1   
4986 5   
4987 2   
4988 8   
4989 8   
4990 1   
4991 5   
4992 6   
4993 3   
4994 3   
4995 5   
4996 7   
4997 2   
4998 3   
4999 9   
5000 1   
5001 10  
5002 6   
5003 9   
5004 3   
5005 5   
5006 5   
5007 7   
5008 7   
5009 2   
5010 9   
5011 81  
5012 3   
5013 5   
5014 6   
5015 3   
5016 2   
5017 10  
5018 10  
5019 1   
5020 9   
5021 3   
5022 4   
5023 9   
5024 3   
5025 4   
5026 3   
5027 6   
5028 10  
5029 2   
5030 2   
5031 9   
5032 6   
5033 5   
5034 4   
5035 1   
5036 2   
5037 6   
5038 10  
5039 3   
5040 10  
5041 4   
5042 6   
5043 6   
5044 4   
5045 6   
5046 10  
5047 9   
5048 96  
5049 2   
5050 2   
5051 57  
5052 65  
5053 2   
5054 10  
5055 9   
5056 10  
5057 8   
5058 9   
5059 2   
5060 1   
5061 61  
5062 1   
5063 8   
5064 4   
5065 2   
5066 7   
5067 70  
5068 1   
5069 5   
5070 87  
5071 6   
5072 10  
5073 7   
5074 6   
5075 3   
5076 9   
5077 2   
5078 4   
5079 9   
5080 2   
5081 84  
5082 6   
5083 5   
5084 6   
5085 6   
5086 4   
5087 2   
5088 1   
5089 3   
5090 8   
5091 10  
5092 7   
5093 63  
5094 9   
5095 3   
5096 7   
5097 3   
5098 5   
5099 5   
5100 5   
5101 1   
5102 3   
5103 6   
5104 7   
5105 10  
5106 100 
5107 4   
5108 6   
5109 7   
5110 1   
5111 8   
5112 5   
5113 2   
5114 8   
5115 10  
5116 6   
5117 3   
5118 6   
5119 1   
5120 8   
5121 4   
5122 6   
5123 1   
5124 4   
5125 9   
5126 5   
5127 7   
5128 2   
5129 9   
5130 8   
5131 4   
5132 7   
5133 2   
5134 9   
5135 3   
5136 7   
5137 9   
5138 9   
5139 5   
5140 3   
5141 3   
5142 2   
5143 3   
5144 5   
5145 4   
5146 5   
5147 2   
5148 53  
5149 6   
5150 2   
5151 2   
5152 2   
5153 8   
5154 6   
5155 1   
5156 3   
5157 9   
5158 5   
5159 4   
5160 1   
5161 1   
5162 9   
5163 9   
5164 7   
5165 5   
5166 5   
5167 10  
5168 5   
5169 6   
5170 7   
5171 5   
5172 7   
5173 10  
5174 9   
5175 1   
5176 5   
5177 1   
5178 9   
5179 4   
5180 9   
5181 10  
5182 4   
5183 6   
5184 3   
5185 9   
5186 5   
5187 8   
5188 1   
5189 9   
5190 1   
5191 8   
5192 6   
5193 1   
5194 10  
5195 76  
5196 4   
5197 10  
5198 8   
5199 10  
5200 6   
5201 2   
5202 1   
5203 6   
5204 7   
5205 2   
5206 7   
5207 8   
5208 9   
5209 6   
5210 8   
5211 5   
5212 9   
5213 2   
5214 6   
5215 10  
5216 1   
5217 6   
5218 6   
5219 3   
5220 2   
5221 1   
5222 4   
5223 9   
5224 4   
5225 4   
5226 64  
5227 4   
5228 2   
5229 10  
5230 8   
5231 4   
5232 6   
5233 6   
5234 10  
5235 2   
5236 3   
5237 10  
5238 8   
5239 10  
5240 10  
5241 8   
5242 7   
5243 4   
5244 7   
5245 3   
5246 9   
5247 5   
5248 7   
5249 8   
5250 6   
5251 4   
5252 8   
5253 9   
5254 63  
5255 4   
5256 100 
5257 4   
5258 7   
5259 3   
5260 4   
5261 3   
5262 6   
5263 63  
5264 5   
5265 53  
5266 2   
5267 3   
5268 4   
5269 7   
5270 4   
5271 5   
5272 5   
5273 95  
5274 5   
5275 9   
5276 10  
5277 7   
5278 2   
5279 8   
5280 3   
5281 8   
5282 2   
5283 5   
5284 5   
5285 6   
5286 1   
5287 9   
5288 7   
5289 6   
5290 7   
5291 2   
5292 1   
5293 1   
5294 7   
5295 1   
5296 1   
5297 4   
5298 3   
5299 2   
5300 6   
5301 2   
5302 10  
5303 10  
5304 9   
5305 6   
5306 4   
5307 3   
5308 97  
5309 8   
5310 6   
5311 4   
5312 7   
5313 8   
5314 9   
5315 7   
5316 10  
5317 6   
5318 8   
5319 9   
5320 7   
5321 4   
5322 10  
5323 1   
5324 1   
5325 3   
5326 4   
5327 7   
5328 3   
5329 8   
5330 2   
5331 3   
5332 3   
5333 4   
5334 3   
5335 5   
5336 1   
5337 52  
5338 7   
5339 1   
5340 8   
5341 7   
5342 2   
5343 5   
5344 2   
5345 67  
5346 8   
5347 9   
5348 8   
5349 3   
5350 2   
5351 3   
5352 4   
5353 7   
5354 3   
5355 7   
5356 10  
5357 6   
5358 3   
5359 3   
5360 53  
5361 7   
5362 5   
5363 1   
5364 5   
5365 9   
5366 5   
5367 9   
5368 4   
5369 4   
5370 1   
5371 1   
5372 9   
5373 1   
5374 5   
5375 3   
5376 10  
5377 7   
5378 9   
5379 3   
5380 10  
5381 9   
5382 4   
5383 2   
5384 7   
5385 9   
5386 5   
5387 6   
5388 4   
5389 5   
5390 10  
5391 8   
5392 9   
5393 4   
5394 4   
5395 9   
5396 6   
5397 10  
5398 6   
5399 3   
5400 8   
5401 5   
5402 9   
5403 1   
5404 8   
5405 6   
5406 9   
5407 9   
5408 4   
5409 9   
5410 6   
5411 10  
5412 6   
5413 7   
5414 4   
5415 74  
5416 72  
5417 7   
5418 9   
5419 3   
5420 9   
5421 4   
5422 7   
5423 1   
5424 7   
5425 5   
5426 90  
5427 6   
5428 3   
5429 9   
5430 7   
5431 7   
5432 4   
5433 10  
5434 69  
5435 8   
5436 8   
5437 8   
5438 10  
5439 1   
5440 3   
5441 85  
5442 3   
5443 7   
5444 1   
5445 2   
5446 10  
5447 5   
5448 6   
5449 6   
5450 5   
5451 8   
5452 7   
5453 10  
5454 7   
5455 3   
5456 6   
5457 7   
5458 7   
5459 9   
5460 8   
5461 10  
5462 3   
5463 5   
5464 5   
5465 51  
5466 7   
5467 7   
5468 5   
5469 2   
5470 9   
5471 4   
5472 93  
5473 3   
5474 1   
5475 5   
5476 3   
5477 6   
5478 8   
5479 2   
5480 2   
5481 9   
5482 5   
5483 4   
5484 1   
5485 1   
5486 83  
5487 8   
5488 7   
5489 3   
5490 8   
5491 3   
5492 4   
5493 10  
5494 50  
5495 1   
5496 10  
5497 3   
5498 10  
5499 10  
5500 4   
5501 6   
5502 60  
5503 4   
5504 6   
5505 7   
5506 2   
5507 9   
5508 10  
5509 5   
5510 4   
5511 2   
5512 7   
5513 1   
5514 10  
5515 7   
5516 2   
5517 4   
5518 8   
5519 4   
5520 2   
5521 9   
5522 7   
5523 7   
5524 7   
5525 10  
5526 3   
5527 5   
5528 5   
5529 10  
5530 4   
5531 6   
5532 4   
5533 2   
5534 4   
5535 7   
5536 8   
5537 2   
5538 6   
5539 4   
5540 2   
5541 7   
5542 10  
5543 9   
5544 9   
5545 6   
5546 4   
5547 7   
5548 1   
5549 9   
5550 1   
5551 3   
5552 4   
5553 5   
5554 10  
5555 2   
5556 10  
5557 3   
5558 4   
5559 10  
5560 8   
5561 2   
5562 10  
5563 6   
5564 2   
5565 8   
5566 4   
5567 1   
5568 1   
5569 58  
5570 9   
5571 10  
5572 6   
5573 93  
5574 100 
5575 5   
5576 8   
5577 6   
5578 100 
5579 4   
5580 9   
5581 8   
5582 5   
5583 8   
5584 5   
5585 3   
5586 3   
5587 1   
5588 2   
5589 6   
5590 62  
5591 10  
5592 3   
5593 4   
5594 3   
5595 5   
5596 3   
5597 2   
5598 8   
5599 8   
5600 4   
5601 6   
5602 3   
5603 1   
5604 1   
5605 10  
5606 9   
5607 3   
5608 3   
5609 10  
5610 4   
5611 8   
5612 7   
5613 10  
5614 51  
5615 10  
5616 6   
5617 2   
5618 9   
5619 6   
5620 2   
5621 9   
5622 8   
5623 8   
5624 8   
5625 2   
5626 2   
5627 3   
5628 5   
5629 10  
5630 8   
5631 8   
5632 3   
5633 9   
5634 6   
5635 7   
5636 10  
5637 98  
5638 6   
5639 7   
5640 6   
5641 4   
5642 2   
5643 2   
5644 9   
5645 3   
5646 72  
5647 1   
5648 8   
5649 3   
5650 4   
5651 9   
5652 1   
5653 10  
5654 3   
5655 2   
5656 10  
5657 10  
5658 1   
5659 10  
5660 6   
5661 4   
5662 1   
5663 4   
5664 4   
5665 10  
5666 2   
5667 6   
5668 4   
5669 6   
5670 3   
5671 6   
5672 7   
5673 9   
5674 1   
5675 9   
5676 3   
5677 6   
5678 88  
5679 8   
5680 10  
5681 4   
5682 97  
5683 10  
5684 5   
5685 6   
5686 6   
5687 86  
5688 8   
5689 4   
5690 10  
5691 5   
5692 7   
5693 7   
5694 6   
5695 10  
5696 9   
5697 1   
5698 9   
5699 5   
5700 4   
5701 70  
5702 3   
5703 6   
5704 5   
5705 1   
5706 7   
5707 7   
5708 7   
5709 10  
5710 6   
5711 8   
5712 5   
5713 6   
5714 3   
5715 7   
5716 2   
5717 8   
5718 9   
5719 9   
5720 6   
5721 4   
5722 3   
5723 8   
5724 3   
5725 4   
5726 7   
5727 5   
5728 7   
5729 2   
5730 2   
5731 10  
5732 2   
5733 9   
5734 2   
5735 5   
5736 7   
5737 3   
5738 10  
5739 10  
5740 8   
5741 9   
5742 3   
5743 3   
5744 53  
5745 9   
5746 3   
5747 1   
5748 8   
5749 10  
5750 9   
5751 2   
5752 5   
5753 4   
5754 8   
5755 10  
5756 3   
5757 50  
5758 92  
5759 2   
5760 7   
5761 3   
5762 5   
5763 6   
5764 3   
5765 6   
5766 5   
5767 3   
5768 93  
5769 5   
5770 3   
5771 7   
5772 10  
5773 8   
5774 6   
5775 2   
5776 3   
5777 6   
5778 9   
5779 4   
5780 3   
5781 8   
5782 3   
5783 3   
5784 1   
5785 7   
5786 7   
5787 10  
5788 7   
5789 1   
5790 7   
5791 7   
5792 2   
5793 1   
5794 9   
5795 2   
5796 7   
5797 10  
5798 7   
5799 10  
5800 4   
5801 6   
5802 8   
5803 88  
5804 1   
5805 10  
5806 2   
5807 1   
5808 4   
5809 5   
5810 6   
5811 3   
5812 7   
5813 8   
5814 98  
5815 4   
5816 4   
5817 5   
5818 1   
5819 83  
5820 2   
5821 2   
5822 5   
5823 7   
5824 10  
5825 2   
5826 2   
5827 6   
5828 8   
5829 7   
5830 9   
5831 10  
5832 6   
5833 3   
5834 67  
5835 5   
5836 10  
5837 10  
5838 5   
5839 2   
5840 3   
5841 6   
5842 8   
5843 8   
5844 2   
5845 10  
5846 9   
5847 7   
5848 1   
5849 1   
5850 6   
5851 6   
5852 7   
5853 10  
5854 2   
5855 2   
5856 5   
5857 100 
5858 51  
5859 3   
5860 4   
5861 7   
5862 8   
5863 62  
5864 3   
5865 3   
5866 1   
5867 58  
5868 5   
5869 1   
5870 4   
5871 6   
5872 7   
5873 2   
5874 6   
5875 83  
5876 9   
5877 5   
5878 2   
5879 4   
5880 4   
5881 3   
5882 1   
5883 2   
5884 10  
5885 4   
5886 3   
5887 7   
5888 3   
5889 8   
5890 1   
5891 9   
5892 6   
5893 2   
5894 8   
5895 7   
5896 4   
5897 8   
5898 80  
5899 7   
5900 4   
5901 9   
5902 4   
5903 2   
5904 10  
5905 3   
5906 65  
5907 4   
5908 3   
5909 96  
5910 2   
5911 8   
5912 8   
5913 3   
5914 2   
5915 1   
5916 4   
5917 10  
5918 5   
5919 10  
5920 96  
5921 2   
5922 8   
5923 4   
5924 52  
5925 4   
5926 10  
5927 1   
5928 4   
5929 7   
5930 6   
5931 6   
5932 5   
5933 10  
5934 3   
5935 7   
5936 9   
5937 2   
5938 7   
5939 10  
5940 73  
5941 6   
5942 7   
5943 6   
5944 5   
5945 1   
5946 1   
5947 1   
5948 1   
5949 1   
5950 3   
5951 6   
5952 1   
5953 4   
5954 4   
5955 4   
5956 60  
5957 10  
5958 7   
5959 10  
5960 2   
5961 8   
5962 9   
5963 7   
5964 2   
5965 5   
5966 1   
5967 3   
5968 56  
5969 7   
5970 7   
5971 7   
5972 6   
5973 1   
5974 10  
5975 2   
5976 1   
5977 4   
5978 10  
5979 8   
5980 1   
5981 5   
5982 8   
5983 4   
5984 4   
5985 6   
5986 1   
5987 1   
5988 6   
5989 4   
5990 10  
5991 10  
5992 9   
5993 3   
5994 1   
5995 9   
5996 5   
5997 90  
5998 3   
5999 5   
6000 8   
6001 6   
6002 4   
6003 3   
6004 9   
6005 8   
6006 7   
6007 10  
6008 1   
6009 1   
6010 9   
6011 3   
6012 8   
6013 4   
6014 10  
6015 4   
6016 2   
6017 5   
6018 5   
6019 2   
6020 62  
6021 3   
6022 6   
6023 77  
6024 8   
6025 1   
6026 3   
6027 9   
6028 8   
6029 6   
6030 6   
6031 3   
6032 4   
6033 7   
6034 7   
6035 3   
6036 1   
6037 3   
6038 4   
6039 3   
6040 5   
6041 10  
6042 9   
6043 9   
6044 4   
6045 5   
6046 7   
6047 6   
6048 2   
6049 9   
6050 10  
6051 3   
6052 5   
6053 1   
6054 4   
6055 7   
6056 9   
6057 54  
6058 10  
6059 8   
6060 4   
6061 3   
6062 94  
6063 8   
6064 5   
6065 3   
6066 1   
6067 1   
6068 2   
6069 7   
6070 9   
6071 3   
6072 6   
6073 9   
6074 4   
6075 2   
6076 3   
6077 4   
6078 76  
6079 4   
6080 5   
6081 10  
6082 9   
6083 6   
6084 76  
6085 4   
6086 6   
6087 10  
6088 3   
6089 8   
6090 3   
6091 3   
6092 8   
6093 5   
6094 57  
6095 4   
6096 4   
6097 1   
6098 5   
6099 8   
6100 7   
6101 3   
6102 9   
6103 10  
6104 7   
6105 2   
6106 4   
6107 71  
6108 5   
6109 2   
6110 1   
6111 6   
6112 4   
6113 9   
6114 7   
6115 89  
6116 9   
6117 1   
6118 10  
6119 5   
6120 4   
6121 7   
6122 10  
6123 1   
6124 2   
6125 3   
6126 1   
6127 10  
6128 1   
6129 1   
6130 10  
6131 78  
6132 5   
6133 2   
6134 3   
6135 8   
6136 5   
6137 9   
6138 4   
6139 2   
6140 5   
6141 9   
6142 9   
6143 59  
6144 9   
6145 9   
6146 9   
6147 62  
6148 8   
6149 71  
6150 7   
6151 8   
6152 7   
6153 6   
6154 10  
6155 4   
6156 8   
6157 9   
6158 10  
6159 5   
6160 4   
6161 7   
6162 4   
6163 7   
6164 6   
6165 3   
6166 1   
6167 9   
6168 3   
6169 6   
6170 4   
6171 2   
6172 9   
6173 3   
6174 2   
6175 60  
6176 6   
6177 3   
6178 5   
6179 4   
6180 8   
6181 4   
6182 5   
6183 9   
6184 1   
6185 2   
6186 10  
6187 8   
6188 9   
6189 89  
6190 10  
6191 4   
6192 7   
6193 8   
6194 9   
6195 4   
6196 10  
6197 9   
6198 9   
6199 6   
6200 8   
6201 9   
6202 7   
6203 9   
6204 4   
6205 2   
6206 10  
6207 84  
6208 2   
6209 7   
6210 8   
6211 1   
6212 10  
6213 9   
6214 4   
6215 3   
6216 7   
6217 10  
6218 4   
6219 5   
6220 4   
6221 6   
6222 1   
6223 6   
6224 4   
6225 2   
6226 10  
6227 6   
6228 8   
6229 4   
6230 5   
6231 10  
6232 54  
6233 1   
6234 7   
6235 5   
6236 6   
6237 6   
6238 3   
6239 9   
6240 5   
6241 7   
6242 3   
6243 8   
6244 10  
6245 10  
6246 2   
6247 9   
6248 9   
6249 1   
6250 5   
6251 6   
6252 9   
6253 3   
6254 5   
6255 5   
6256 3   
6257 5   
6258 2   
6259 5   
6260 5   
6261 9   
6262 9   
6263 10  
6264 7   
6265 7   
6266 1   
6267 4   
6268 9   
6269 5   
6270 4   
6271 6   
6272 10  
6273 9   
6274 6   
6275 7   
6276 1   
6277 5   
6278 3   
6279 6   
6280 9   
6281 3   
6282 4   
6283 3   
6284 10  
6285 6   
6286 97  
6287 5   
6288 5   
6289 1   
6290 10  
6291 7   
6292 8   
6293 2   
6294 5   
6295 5   
6296 72  
6297 8   
6298 9   
6299 10  
6300 5   
6301 1   
6302 5   
6303 90  
6304 4   
6305 1   
6306 2   
6307 7   
6308 87  
6309 4   
6310 10  
6311 7   
6312 3   
6313 3   
6314 8   
6315 99  
6316 52  
6317 1   
6318 7   
6319 9   
6320 5   
6321 7   
6322 7   
6323 7   
6324 9   
6325 2   
6326 9   
6327 6   
6328 10  
6329 9   
6330 5   
6331 8   
6332 5   
6333 1   
6334 1   
6335 10  
6336 10  
6337 2   
6338 59  
6339 9   
6340 8   
6341 4   
6342 69  
6343 8   
6344 3   
6345 1   
6346 6   
6347 6   
6348 7   
6349 9   
6350 5   
6351 2   
6352 1   
6353 5   
6354 8   
6355 8   
6356 80  
6357 9   
6358 8   
6359 2   
6360 5   
6361 3   
6362 1   
6363 2   
6364 2   
6365 3   
6366 10  
6367 9   
6368 3   
6369 3   
6370 8   
6371 5   
6372 2   
6373 10  
6374 10  
6375 10  
6376 10  
6377 5   
6378 8   
6379 1   
6380 8   
6381 5   
6382 9   
6383 8   
6384 3   
6385 2   
6386 4   
6387 9   
6388 1   
6389 1   
6390 6   
6391 2   
6392 3   
6393 1   
6394 8   
6395 10  
6396 8   
6397 9   
6398 1   
6399 8   
6400 2   
6401 3   
6402 7   
6403 6   
6404 5   
6405 2   
6406 9   
6407 10  
6408 9   
6409 4   
6410 1   
6411 4   
6412 55  
6413 3   
6414 1   
6415 8   
6416 4   
6417 3   
6418 3   
6419 3   
6420 4   
6421 3   
6422 7   
6423 2   
6424 8   
6425 3   
6426 3   
6427 10  
6428 1   
6429 6   
6430 1   
6431 10  
6432 10  
6433 3   
6434 7   
6435 8   
6436 7   
6437 3   
6438 3   
6439 1   
6440 8   
6441 4   
6442 10  
6443 5   
6444 8   
6445 2   
6446 4   
6447 4   
6448 75  
6449 2   
6450 7   
6451 7   
6452 6   
6453 5   
6454 74  
6455 5   
6456 8   
6457 2   
6458 6   
6459 2   
6460 6   
6461 6   
6462 8   
6463 8   
6464 4   
6465 7   
6466 10  
6467 1   
6468 1   
6469 10  
6470 4   
6471 10  
6472 8   
6473 3   
6474 10  
6475 3   
6476 1   
6477 3   
6478 8   
6479 8   
6480 7   
6481 9   
6482 5   
6483 60  
6484 9   
6485 9   
6486 3   
6487 4   
6488 5   
6489 5   
6490 4   
6491 5   
6492 4   
6493 6   
6494 8   
6495 1   
6496 9   
6497 1   
6498 3   
6499 10  
6500 3   
6501 8   
6502 1   
6503 9   
6504 2   
6505 10  
6506 3   
6507 2   
6508 5   
6509 4   
6510 10  
6511 8   
6512 8   
6513 4   
6514 3   
6515 10  
6516 5   
6517 3   
6518 5   
6519 1   
6520 10  
6521 10  
6522 4   
6523 10  
6524 3   
6525 9   
6526 2   
6527 5   
6528 6   
6529 3   
6530 87  
6531 8   
6532 8   
6533 1   
6534 2   
6535 10  
6536 6   
6537 4   
6538 3   
6539 9   
6540 9   
6541 6   
6542 10  
6543 8   
6544 7   
6545 5   
6546 2   
6547 73  
6548 1   
6549 3   
6550 2   
6551 6   
6552 7   
6553 8   
6554 2   
6555 4   
6556 10  
6557 5   
6558 4   
6559 8   
6560 8   
6561 6   
6562 9   
6563 6   
6564 8   
6565 5   
6566 5   
6567 8   
6568 6   
6569 6   
6570 9   
6571 6   
6572 3   
6573 2   
6574 7   
6575 9   
6576 10  
6577 7   
6578 5   
6579 2   
6580 8   
6581 9   
6582 8   
6583 3   
6584 10  
6585 6   
6586 8   
6587 7   
6588 10  
6589 3   
6590 4   
6591 1   
6592 4   
6593 1   
6594 6   
6595 2   
6596 8   
6597 5   
6598 9   
6599 9   
6600 5   
6601 9   
6602 7   
6603 9   
6604 3   
6605 1   
6606 6   
6607 8   
6608 2   
6609 5   
6610 5   
6611 4   
6612 4   
6613 8   
6614 5   
6615 10  
6616 2   
6617 2   
6618 5   
6619 92  
6620 10  
6621 2   
6622 7   
6623 1   
6624 6   
6625 7   
6626 8   
6627 6   
6628 9   
6629 1   
6630 2   
6631 10  
6632 73  
6633 8   
6634 10  
6635 4   
6636 1   
6637 2   
6638 4   
6639 10  
6640 5   
6641 2   
6642 9   
6643 4   
6644 3   
6645 5   
6646 10  
6647 5   
6648 8   
6649 4   
6650 3   
6651 1   
6652 9   
6653 2   
6654 80  
6655 97  
6656 7   
6657 10  
6658 2   
6659 3   
6660 7   
6661 10  
6662 6   
6663 1   
6664 9   
6665 2   
6666 8   
6667 10  
6668 6   
6669 6   
6670 61  
6671 3   
6672 4   
6673 4   
6674 4   
6675 1   
6676 2   
6677 5   
6678 1   
6679 1   
6680 5   
6681 2   
6682 2   
6683 6   
6684 10  
6685 8   
6686 9   
6687 4   
6688 3   
6689 4   
6690 9   
6691 6   
6692 4   
6693 3   
6694 3   
6695 9   
6696 9   
6697 4   
6698 2   
6699 10  
6700 8   
6701 10  
6702 4   
6703 7   
6704 7   
6705 3   
6706 10  
6707 1   
6708 6   
6709 6   
6710 1   
6711 4   
6712 9   
6713 5   
6714 3   
6715 5   
6716 4   
6717 2   
6718 1   
6719 1   
6720 8   
6721 1   
6722 10  
6723 2   
6724 8   
6725 3   
6726 6   
6727 3   
6728 4   
6729 4   
6730 9   
6731 4   
6732 8   
6733 4   
6734 9   
6735 1   
6736 5   
6737 6   
6738 1   
6739 8   
6740 56  
6741 9   
6742 3   
6743 1   
6744 5   
6745 9   
6746 5   
6747 6   
6748 4   
6749 10  
6750 8   
6751 9   
6752 8   
6753 1   
6754 4   
6755 4   
6756 7   
6757 4   
6758 8   
6759 1   
6760 100 
6761 3   
6762 3   
6763 8   
6764 6   
6765 10  
6766 6   
6767 9   
6768 4   
6769 76  
6770 3   
6771 1   
6772 1   
6773 94  
6774 6   
6775 2   
6776 9   
6777 6   
6778 3   
6779 4   
6780 3   
6781 3   
6782 8   
6783 2   
6784 7   
6785 3   
6786 92  
6787 2   
6788 10  
6789 93  
6790 6   
6791 4   
6792 3   
6793 1   
6794 1   
6795 6   
6796 6   
6797 1   
6798 3   
6799 3   
6800 8   
6801 8   
6802 77  
6803 6   
6804 6   
6805 10  
6806 2   
6807 1   
6808 10  
6809 8   
6810 6   
6811 7   
6812 1   
6813 4   
6814 1   
6815 3   
6816 5   
6817 1   
6818 7   
6819 3   
6820 2   
6821 3   
6822 4   
6823 10  
6824 6   
6825 78  
6826 1   
6827 1   
6828 4   
6829 1   
6830 10  
6831 9   
6832 7   
6833 1   
6834 8   
6835 8   
6836 3   
6837 5   
6838 1   
6839 7   
6840 6   
6841 3   
6842 5   
6843 7   
6844 4   
6845 5   
6846 4   
6847 5   
6848 1   
6849 9   
6850 9   
6851 86  
6852 3   
6853 5   
6854 10  
6855 1   
6856 1   
6857 3   
6858 3   
6859 6   
6860 5   
6861 9   
6862 3   
6863 9   
6864 2   
6865 6   
6866 4   
6867 6   
6868 3   
6869 1   
6870 8   
6871 6   
6872 69  
6873 3   
6874 2   
6875 6   
6876 3   
6877 9   
6878 60  
6879 5   
6880 10  
6881 9   
6882 2   
6883 10  
6884 3   
6885 3   
6886 1   
6887 8   
6888 8   
6889 4   
6890 5   
6891 4   
6892 1   
6893 10  
6894 9   
6895 51  
6896 4   
6897 9   
6898 2   
6899 4   
6900 7   
6901 3   
6902 6   
6903 4   
6904 6   
6905 3   
6906 4   
6907 6   
6908 4   
6909 4   
6910 9   
6911 5   
6912 3   
6913 8   
6914 1   
6915 10  
6916 1   
6917 3   
6918 3   
6919 3   
6920 9   
6921 10  
6922 8   
6923 7   
6924 8   
6925 10  
6926 5   
6927 10  
6928 59  
6929 7   
6930 7   
6931 1   
6932 2   
6933 2   
6934 2   
6935 2   
6936 5   
6937 10  
6938 4   
6939 6   
6940 94  
6941 82  
6942 5   
6943 8   
6944 5   
6945 7   
6946 9   
6947 6   
6948 3   
6949 4   
6950 2   
6951 1   
6952 5   
6953 10  
6954 2   
6955 2   
6956 9   
6957 1   
6958 7   
6959 10  
6960 8   
6961 7   
6962 6   
6963 2   
6964 7   
6965 61  
6966 2   
6967 9   
6968 10  
6969 7   
6970 10  
6971 7   
6972 10  
6973 3   
6974 4   
6975 8   
6976 9   
6977 6   
6978 2   
6979 10  
6980 2   
6981 4   
6982 3   
6983 8   
6984 4   
6985 2   
6986 2   
6987 9   
6988 6   
6989 5   
6990 99  
6991 5   
6992 3   
6993 4   
6994 5   
6995 8   
6996 9   
6997 10  
6998 9   
6999 8   
7000 4   
7001 9   
7002 10  
7003 1   
7004 7   
7005 5   
7006 3   
7007 2   
7008 7   
7009 9   
7010 9   
7011 6   
7012 1   
7013 6   
7014 10  
7015 2   
7016 7   
7017 3   
7018 2   
7019 5   
7020 3   
7021 10  
7022 1   
7023 10  
7024 9   
7025 1   
7026 8   
7027 9   
7028 3   
7029 1   
7030 4   
7031 5   
7032 8   
7033 9   
7034 64  
7035 10  
7036 6   
7037 4   
7038 4   
7039 7   
7040 10  
7041 2   
7042 5   
7043 1   
7044 5   
7045 8   
7046 4   
7047 9   
7048 5   
7049 7   
7050 9   
7051 10  
7052 3   
7053 2   
7054 1   
7055 1   
7056 3   
7057 5   
7058 6   
7059 2   
7060 4   
7061 9   
7062 10  
7063 4   
7064 10  
7065 10  
7066 3   
7067 5   
7068 8   
7069 10  
7070 9   
7071 6   
7072 2   
7073 7   
7074 1   
7075 3   
7076 7   
7077 1   
7078 4   
7079 6   
7080 1   
7081 56  
7082 2   
7083 6   
7084 3   
7085 10  
7086 4   
7087 5   
7088 2   
7089 5   
7090 4   
7091 8   
7092 7   
7093 7   
7094 5   
7095 8   
7096 6   
7097 97  
7098 9   
7099 7   
7100 1   
7101 6   
7102 6   
7103 10  
7104 1   
7105 10  
7106 9   
7107 6   
7108 50  
7109 4   
7110 7   
7111 1   
7112 4   
7113 4   
7114 8   
7115 5   
7116 7   
7117 1   
7118 5   
7119 8   
7120 8   
7121 10  
7122 10  
7123 4   
7124 1   
7125 10  
7126 4   
7127 3   
7128 6   
7129 7   
7130 8   
7131 8   
7132 2   
7133 7   
7134 8   
7135 77  
7136 3   
7137 8   
7138 8   
7139 4   
7140 3   
7141 6   
7142 8   
7143 3   
7144 2   
7145 6   
7146 4   
7147 7   
7148 3   
7149 8   
7150 7   
7151 3   
7152 6   
7153 5   
7154 2   
7155 3   
7156 1   
7157 8   
7158 5   
7159 99  
7160 6   
7161 4   
7162 2   
7163 8   
7164 9   
7165 10  
7166 2   
7167 3   
7168 7   
7169 10  
7170 3   
7171 9   
7172 4   
7173 1   
7174 9   
7175 1   
7176 7   
7177 1   
7178 5   
7179 4   
7180 8   
7181 7   
7182 2   
7183 9   
7184 4   
7185 5   
7186 7   
7187 7   
7188 5   
7189 9   
7190 84  
7191 7   
7192 10  
7193 10  
7194 10  
7195 7   
7196 9   
7197 4   
7198 82  
7199 4   
7200 50  
7201 5   
7202 56  
7203 7   
7204 3   
7205 7   
7206 2   
7207 9   
7208 9   
7209 57  
7210 3   
7211 7   
7212 2   
7213 2   
7214 90  
7215 9   
7216 10  
7217 7   
7218 1   
7219 73  
7220 4   
7221 7   
7222 6   
7223 6   
7224 2   
7225 83  
7226 4   
7227 7   
7228 1   
7229 2   
7230 9   
7231 5   
7232 5   
7233 1   
7234 2   
7235 6   
7236 5   
7237 2   
7238 8   
7239 10  
7240 79  
7241 5   
7242 7   
7243 7   
7244 10  
7245 7   
7246 3   
7247 1   
7248 5   
7249 10  
7250 2   
7251 2   
7252 10  
7253 3   
7254 2   
7255 1   
7256 8   
7257 8   
7258 1   
7259 3   
7260 8   
7261 9   
7262 10  
7263 9   
7264 4   
7265 2   
7266 1   
7267 1   
7268 81  
7269 90  
7270 6   
7271 8   
7272 9   
7273 3   
7274 8   
7275 2   
7276 5   
7277 9   
7278 4   
7279 5   
7280 9   
7281 8   
7282 10  
7283 8   
7284 8   
7285 62  
7286 4   
7287 2   
7288 3   
7289 1   
7290 10  
7291 2   
7292 7   
7293 7   
7294 2   
7295 7   
7296 7   
7297 5   
7298 7   
7299 8   
7300 3   
7301 8   
7302 9   
7303 59  
7304 6   
7305 6   
7306 1   
7307 2   
7308 1   
7309 8   
7310 9   
7311 4   
7312 7   
7313 10  
7314 1   
7315 10  
7316 8   
7317 8   
7318 7   
7319 10  
7320 9   
7321 8   
7322 6   
7323 4   
7324 10  
7325 10  
7326 5   
7327 86  
7328 1   
7329 7   
7330 5   
7331 2   
7332 6   
7333 5   
7334 3   
7335 7   
7336 94  
7337 6   
7338 8   
7339 6   
7340 6   
7341 9   
7342 6   
7343 6   
7344 64  
7345 54  
7346 10  
7347 8   
7348 3   
7349 6   
7350 8   
7351 9   
7352 9   
7353 8   
7354 9   
7355 3   
7356 3   
7357 6   
7358 2   
7359 10  
7360 2   
7361 5   
7362 5   
7363 5   
7364 3   
7365 7   
7366 4   
7367 98  
7368 4   
7369 7   
7370 3   
7371 2   
7372 3   
7373 4   
7374 7   
7375 8   
7376 3   
7377 6   
7378 6   
7379 2   
7380 64  
7381 5   
7382 3   
7383 4   
7384 4   
7385 3   
7386 7   
7387 10  
7388 10  
7389 2   
7390 2   
7391 10  
7392 7   
7393 6   
7394 3   
7395 6   
7396 4   
7397 9   
7398 3   
7399 6   
7400 8   
7401 9   
7402 5   
7403 6   
7404 4   
7405 10  
7406 6   
7407 6   
7408 4   
7409 93  
7410 6   
7411 10  
7412 7   
7413 7   
7414 9   
7415 9   
7416 9   
7417 4   
7418 3   
7419 6   
7420 3   
7421 99  
7422 6   
7423 10  
7424 1   
7425 9   
7426 7   
7427 9   
7428 8   
7429 55  
7430 4   
7431 9   
7432 3   
7433 7   
7434 6   
7435 9   
7436 10  
7437 4   
7438 9   
7439 5   
7440 10  
7441 3   
7442 3   
7443 4   
7444 7   
7445 4   
7446 6   
7447 10  
7448 1   
7449 8   
7450 1   
7451 7   
7452 2   
7453 6   
7454 8   
7455 10  
7456 5   
7457 10  
7458 8   
7459 3   
7460 10  
7461 7   
7462 6   
7463 8   
7464 10  
7465 2   
7466 10  
7467 4   
7468 5   
7469 6   
7470 3   
7471 5   
7472 8   
7473 10  
7474 6   
7475 7   
7476 6   
7477 9   
7478 2   
7479 4   
7480 2   
7481 2   
7482 9   
7483 2   
7484 5   
7485 10  
7486 7   
7487 8   
7488 3   
7489 8   
7490 7   
7491 3   
7492 5   
7493 5   
7494 7   
7495 2   
7496 6   
7497 6   
7498 7   
7499 1   
7500 4   
7501 8   
7502 9   
7503 7   
7504 5   
7505 6   
7506 9   
7507 7   
7508 4   
7509 7   
7510 69  
7511 3   
7512 2   
7513 2   
7514 9   
7515 2   
7516 8   
7517 6   
7518 6   
7519 5   
7520 1   
7521 9   
7522 2   
7523 8   
7524 9   
7525 8   
7526 4   
7527 10  
7528 7   
7529 8   
7530 4   
7531 4   
7532 7   
7533 3   
7534 7   
7535 6   
7536 9   
7537 10  
7538 5   
7539 9   
7540 10  
7541 2   
7542 4   
7543 1   
7544 6   
7545 10  
7546 2   
7547 4   
7548 3   
7549 5   
7550 8   
7551 8   
7552 2   
7553 7   
7554 4   
7555 7   
7556 7   
7557 3   
7558 4   
7559 10  
7560 9   
7561 8   
7562 7   
7563 7   
7564 5   
7565 1   
7566 3   
7567 4   
7568 6   
7569 7   
7570 5   
7571 9   
7572 3   
7573 4   
7574 8   
7575 1   
7576 8   
7577 1   
7578 2   
7579 7   
7580 5   
7581 6   
7582 4   
7583 80  
7584 4   
7585 1   
7586 5   
7587 10  
7588 10  
7589 9   
7590 1   
7591 99  
7592 100 
7593 3   
7594 2   
7595 6   
7596 9   
7597 10  
7598 1   
7599 10  
7600 10  
7601 7   
7602 5   
7603 90  
7604 3   
7605 4   
7606 1   
7607 7   
7608 9   
7609 86  
7610 4   
7611 7   
7612 7   
7613 5   
7614 1   
7615 1   
7616 8   
7617 3   
7618 10  
7619 1   
7620 64  
7621 9   
7622 10  
7623 9   
7624 9   
7625 10  
7626 1   
7627 8   
7628 9   
7629 3   
7630 9   
7631 7   
7632 1   
7633 6   
7634 8   
7635 2   
7636 7   
7637 7   
7638 3   
7639 5   
7640 7   
7641 6   
7642 4   
7643 1   
7644 10  
7645 1   
7646 2   
7647 5   
7648 2   
7649 9   
7650 7   
7651 8   
7652 8   
7653 3   
7654 9   
7655 5   
7656 8   
7657 1   
7658 2   
7659 3   
7660 4   
7661 1   
7662 1   
7663 5   
7664 55  
7665 6   
7666 8   
7667 5   
7668 4   
7669 9   
7670 4   
7671 1   
7672 8   
7673 2   
7674 6   
7675 10  
7676 10  
7677 4   
7678 4   
7679 5   
7680 5   
7681 8   
7682 2   
7683 2   
7684 94  
7685 3   
7686 2   
7687 2   
7688 8   
7689 6   
7690 5   
7691 4   
7692 3   
7693 10  
7694 8   
7695 10  
7696 1   
7697 10  
7698 10  
7699 6   
7700 4   
7701 2   
7702 6   
7703 8   
7704 2   
7705 6   
7706 9   
7707 3   
7708 92  
7709 9   
7710 6   
7711 71  
7712 4   
7713 3   
7714 5   
7715 8   
7716 5   
7717 3   
7718 9   
7719 5   
7720 9   
7721 4   
7722 4   
7723 7   
7724 7   
7725 3   
7726 7   
7727 9   
7728 9   
7729 4   
7730 9   
7731 9   
7732 76  
7733 6   
7734 1   
7735 7   
7736 6   
7737 10  
7738 2   
7739 76  
7740 3   
7741 5   
7742 1   
7743 9   
7744 1   
7745 4   
7746 8   
7747 2   
7748 10  
7749 5   
7750 89  
7751 94  
7752 1   
7753 3   
7754 70  
7755 9   
7756 4   
7757 7   
7758 8   
7759 8   
7760 5   
7761 1   
7762 2   
7763 6   
7764 8   
7765 8   
7766 2   
7767 10  
7768 10  
7769 2   
7770 10  
7771 5   
7772 2   
7773 1   
7774 1   
7775 100 
7776 6   
7777 9   
7778 8   
7779 10  
7780 3   
7781 7   
7782 2   
7783 10  
7784 8   
7785 3   
7786 5   
7787 6   
7788 5   
7789 6   
7790 9   
7791 10  
7792 6   
7793 2   
7794 3   
7795 73  
7796 3   
7797 2   
7798 5   
7799 7   
7800 1   
7801 3   
7802 2   
7803 3   
7804 1   
7805 4   
7806 4   
7807 4   
7808 4   
7809 2   
7810 4   
7811 9   
7812 4   
7813 79  
7814 7   
7815 10  
7816 3   
7817 7   
7818 6   
7819 4   
7820 4   
7821 3   
7822 7   
7823 5   
7824 5   
7825 3   
7826 1   
7827 2   
7828 5   
7829 1   
7830 9   
7831 3   
7832 8   
7833 5   
7834 9   
7835 9   
7836 7   
7837 8   
7838 9   
7839 2   
7840 2   
7841 5   
7842 3   
7843 5   
7844 5   
7845 9   
7846 2   
7847 3   
7848 2   
7849 8   
7850 6   
7851 3   
7852 3   
7853 6   
7854 5   
7855 5   
7856 3   
7857 8   
7858 10  
7859 1   
7860 6   
7861 5   
7862 8   
7863 2   
7864 9   
7865 3   
7866 1   
7867 9   
7868 7   
7869 5   
7870 10  
7871 2   
7872 4   
7873 6   
7874 2   
7875 10  
7876 7   
7877 8   
7878 4   
7879 8   
7880 6   
7881 10  
7882 9   
7883 5   
7884 9   
7885 10  
7886 4   
7887 9   
7888 3   
7889 8   
7890 10  
7891 52  
7892 3   
7893 9   
7894 10  
7895 6   
7896 7   
7897 9   
7898 50  
7899 10  
7900 1   
7901 8   
7902 9   
7903 5   
7904 6   
7905 1   
7906 4   
7907 6   
7908 10  
7909 4   
7910 4   
7911 8   
7912 7   
7913 8   
7914 7   
7915 10  
7916 9   
7917 3   
7918 6   
7919 6   
7920 1   
7921 9   
7922 8   
7923 3   
7924 3   
7925 9   
7926 6   
7927 3   
7928 8   
7929 2   
7930 10  
7931 9   
7932 4   
7933 7   
7934 50  
7935 4   
7936 7   
7937 10  
7938 4   
7939 4   
7940 5   
7941 4   
7942 3   
7943 3   
7944 1   
7945 3   
7946 8   
7947 58  
7948 1   
7949 1   
7950 1   
7951 8   
7952 4   
7953 7   
7954 2   
7955 9   
7956 9   
7957 9   
7958 10  
7959 7   
7960 4   
7961 10  
7962 5   
7963 9   
7964 7   
7965 7   
7966 2   
7967 10  
7968 3   
7969 8   
7970 5   
7971 5   
7972 1   
7973 6   
7974 5   
7975 8   
7976 8   
7977 4   
7978 6   
7979 9   
7980 7   
7981 3   
7982 4   
7983 3   
7984 6   
7985 3   
7986 6   
7987 9   
7988 9   
7989 66  
7990 96  
7991 10  
7992 9   
7993 7   
7994 10  
7995 8   
7996 6   
7997 5   
7998 9   
7999 9   
8000 8   
8001 2   
8002 6   
8003 9   
8004 10  
8005 9   
8006 2   
8007 1   
8008 10  
8009 6   
8010 5   
8011 1   
8012 2   
8013 6   
8014 6   
8015 7   
8016 3   
8017 8   
8018 8   
8019 6   
8020 2   
8021 3   
8022 7   
8023 10  
8024 9   
8025 1   
8026 7   
8027 4   
8028 3   
8029 3   
8030 10  
8031 1   
8032 7   
8033 2   
8034 1   
8035 3   
8036 7   
8037 5   
8038 4   
8039 3   
8040 5   
8041 10  
8042 9   
8043 1   
8044 2   
8045 5   
8046 7   
8047 1   
8048 9   
8049 10  
8050 9   
8051 6   
8052 10  
8053 86  
8054 4   
8055 9   
8056 1   
8057 85  
8058 10  
8059 2   
8060 10  
8061 1   
8062 7   
8063 2   
8064 10  
8065 1   
8066 1   
8067 4   
8068 7   
8069 6   
8070 3   
8071 8   
8072 1   
8073 1   
8074 6   
8075 5   
8076 1   
8077 3   
8078 5   
8079 2   
8080 1   
8081 58  
8082 3   
8083 10  
8084 4   
8085 100 
8086 2   
8087 8   
8088 9   
8089 3   
8090 3   
8091 1   
8092 88  
8093 3   
8094 10  
8095 2   
8096 6   
8097 10  
8098 6   
8099 10  
8100 1   
8101 1   
8102 4   
8103 6   
8104 10  
8105 8   
8106 1   
8107 10  
8108 6   
8109 10  
8110 2   
8111 8   
8112 7   
8113 2   
8114 8   
8115 3   
8116 5   
8117 7   
8118 9   
8119 3   
8120 6   
8121 8   
8122 3   
8123 2   
8124 6   
8125 5   
8126 1   
8127 79  
8128 10  
8129 89  
8130 9   
8131 2   
8132 6   
8133 8   
8134 4   
8135 1   
8136 5   
8137 10  
8138 1   
8139 1   
8140 2   
8141 75  
8142 4   
8143 5   
8144 4   
8145 2   
8146 6   
8147 9   
8148 6   
8149 1   
8150 2   
8151 4   
8152 1   
8153 6   
8154 7   
8155 6   
8156 4   
8157 4   
8158 7   
8159 4   
8160 8   
8161 5   
8162 4   
8163 1   
8164 7   
8165 5   
8166 2   
8167 6   
8168 1   
8169 5   
8170 4   
8171 8   
8172 10  
8173 2   
8174 4   
8175 7   
8176 4   
8177 10  
8178 2   
8179 7   
8180 5   
8181 3   
8182 5   
8183 6   
8184 1   
8185 1   
8186 2   
8187 7   
8188 4   
8189 8   
8190 4   
8191 7   
8192 6   
8193 5   
8194 6   
8195 8   
8196 10  
8197 5   
8198 3   
8199 4   
8200 9   
8201 8   
8202 6   
8203 10  
8204 8   
8205 6   
8206 3   
8207 7   
8208 59  
8209 8   
8210 1   
8211 4   
8212 9   
8213 1   
8214 6   
8215 10  
8216 5   
8217 9   
8218 5   
8219 1   
8220 8   
8221 1   
8222 4   
8223 9   
8224 4   
8225 2   
8226 4   
8227 6   
8228 6   
8229 8   
8230 7   
8231 1   
8232 2   
8233 4   
8234 10  
8235 8   
8236 57  
8237 8   
8238 4   
8239 9   
8240 5   
8241 1   
8242 4   
8243 7   
8244 57  
8245 3   
8246 92  
8247 4   
8248 1   
8249 6   
8250 2   
8251 5   
8252 68  
8253 9   
8254 4   
8255 8   
8256 2   
8257 3   
8258 10  
8259 6   
8260 5   
8261 4   
8262 6   
8263 2   
8264 9   
8265 6   
8266 8   
8267 1   
8268 77  
8269 4   
8270 9   
8271 3   
8272 2   
8273 9   
8274 8   
8275 5   
8276 4   
8277 6   
8278 9   
8279 4   
8280 5   
8281 3   
8282 4   
8283 9   
8284 5   
8285 9   
8286 2   
8287 1   
8288 9   
8289 10  
8290 6   
8291 8   
8292 1   
8293 9   
8294 7   
8295 1   
8296 10  
8297 69  
8298 6   
8299 2   
8300 6   
8301 6   
8302 3   
8303 3   
8304 3   
8305 5   
8306 2   
8307 9   
8308 5   
8309 4   
8310 9   
8311 8   
8312 9   
8313 9   
8314 10  
8315 8   
8316 6   
8317 6   
8318 1   
8319 10  
8320 10  
8321 8   
8322 10  
8323 2   
8324 3   
8325 6   
8326 1   
8327 10  
8328 1   
8329 7   
8330 1   
8331 10  
8332 2   
8333 1   
8334 8   
8335 4   
8336 4   
8337 8   
8338 60  
8339 6   
8340 8   
8341 9   
8342 4   
8343 9   
8344 4   
8345 7   
8346 7   
8347 6   
8348 6   
8349 7   
8350 5   
8351 3   
8352 5   
8353 10  
8354 7   
8355 9   
8356 1   
8357 6   
8358 7   
8359 9   
8360 1   
8361 10  
8362 6   
8363 9   
8364 5   
8365 5   
8366 7   
8367 72  
8368 10  
8369 6   
8370 10  
8371 9   
8372 9   
8373 9   
8374 6   
8375 1   
8376 1   
8377 4   
8378 2   
8379 2   
8380 6   
8381 1   
8382 5   
8383 9   
8384 4   
8385 10  
8386 2   
8387 10  
8388 8   
8389 9   
8390 8   
8391 2   
8392 10  
8393 8   
8394 1   
8395 10  
8396 10  
8397 3   
8398 2   
8399 7   
8400 9   
8401 4   
8402 7   
8403 6   
8404 10  
8405 9   
8406 7   
8407 4   
8408 5   
8409 8   
8410 3   
8411 61  
8412 10  
8413 2   
8414 7   
8415 4   
8416 10  
8417 3   
8418 4   
8419 10  
8420 2   
8421 91  
8422 6   
8423 6   
8424 5   
8425 3   
8426 5   
8427 8   
8428 9   
8429 6   
8430 8   
8431 3   
8432 1   
8433 1   
8434 2   
8435 5   
8436 9   
8437 7   
8438 2   
8439 9   
8440 3   
8441 9   
8442 4   
8443 9   
8444 2   
8445 1   
8446 10  
8447 3   
8448 4   
8449 6   
8450 1   
8451 1   
8452 6   
8453 6   
8454 3   
8455 73  
8456 1   
8457 8   
8458 9   
8459 6   
8460 6   
8461 1   
8462 7   
8463 8   
8464 2   
8465 5   
8466 8   
8467 10  
8468 2   
8469 3   
8470 2   
8471 2   
8472 7   
8473 73  
8474 6   
8475 9   
8476 10  
8477 5   
8478 1   
8479 2   
8480 7   
8481 10  
8482 2   
8483 5   
8484 1   
8485 5   
8486 3   
8487 4   
8488 9   
8489 7   
8490 8   
8491 1   
8492 10  
8493 9   
8494 5   
8495 1   
8496 10  
8497 99  
8498 92  
8499 10  
8500 7   
8501 8   
8502 4   
8503 2   
8504 9   
8505 10  
8506 10  
8507 1   
8508 1   
8509 3   
8510 2   
8511 10  
8512 8   
8513 4   
8514 9   
8515 6   
8516 8   
8517 2   
8518 4   
8519 98  
8520 8   
8521 2   
8522 4   
8523 6   
8524 3   
8525 2   
8526 8   
8527 68  
8528 1   
8529 10  
8530 5   
8531 1   
8532 1   
8533 5   
8534 4   
8535 76  
8536 2   
8537 4   
8538 4   
8539 5   
8540 2   
8541 2   
8542 2   
8543 8   
8544 9   
8545 7   
8546 9   
8547 1   
8548 3   
8549 8   
8550 7   
8551 10  
8552 2   
8553 10  
8554 8   
8555 2   
8556 80  
8557 3   
8558 6   
8559 8   
8560 7   
8561 64  
8562 10  
8563 2   
8564 4   
8565 6   
8566 8   
8567 2   
8568 6   
8569 6   
8570 4   
8571 6   
8572 8   
8573 6   
8574 4   
8575 1   
8576 10  
8577 81  
8578 9   
8579 7   
8580 2   
8581 2   
8582 3   
8583 7   
8584 8   
8585 6   
8586 1   
8587 7   
8588 9   
8589 54  
8590 3   
8591 4   
8592 62  
8593 10  
8594 6   
8595 6   
8596 2   
8597 5   
8598 2   
8599 1   
8600 7   
8601 10  
8602 10  
8603 2   
8604 10  
8605 8   
8606 2   
8607 3   
8608 6   
8609 2   
8610 90  
8611 10  
8612 10  
8613 7   
8614 1   
8615 3   
8616 10  
8617 4   
8618 7   
8619 1   
8620 5   
8621 3   
8622 1   
8623 3   
8624 3   
8625 4   
8626 4   
8627 3   
8628 1   
8629 7   
8630 5   
8631 3   
8632 5   
8633 9   
8634 1   
8635 4   
8636 5   
8637 6   
8638 3   
8639 6   
8640 1   
8641 81  
8642 9   
8643 1   
8644 69  
8645 6   
8646 6   
8647 5   
8648 10  
8649 1   
8650 10  
8651 5   
8652 4   
8653 8   
8654 3   
8655 7   
8656 10  
8657 5   
8658 6   
8659 8   
8660 5   
8661 5   
8662 2   
8663 7   
8664 5   
8665 10  
8666 67  
8667 4   
8668 5   
8669 5   
8670 81  
8671 61  
8672 7   
8673 7   
8674 10  
8675 6   
8676 2   
8677 6   
8678 1   
8679 7   
8680 2   
8681 2   
8682 6   
8683 2   
8684 2   
8685 2   
8686 3   
8687 3   
8688 1   
8689 5   
8690 73  
8691 2   
8692 2   
8693 5   
8694 5   
8695 9   
8696 9   
8697 97  
8698 2   
8699 8   
8700 7   
8701 10  
8702 9   
8703 10  
8704 3   
8705 5   
8706 6   
8707 3   
8708 85  
8709 2   
8710 4   
8711 4   
8712 4   
8713 8   
8714 2   
8715 1   
8716 70  
8717 7   
8718 62  
8719 4   
8720 92  
8721 9   
8722 2   
8723 10  
8724 1   
8725 1   
8726 7   
8727 10  
8728 3   
8729 7   
8730 3   
8731 6   
8732 9   
8733 6   
8734 56  
8735 10  
8736 1   
8737 5   
8738 7   
8739 4   
8740 8   
8741 5   
8742 2   
8743 6   
8744 8   
8745 2   
8746 5   
8747 87  
8748 8   
8749 4   
8750 4   
8751 4   
8752 5   
8753 2   
8754 7   
8755 9   
8756 10  
8757 2   
8758 2   
8759 3   
8760 87  
8761 7   
8762 5   
8763 10  
8764 7   
8765 10  
8766 1   
8767 5   
8768 10  
8769 2   
8770 7   
8771 8   
8772 9   
8773 9   
8774 8   
8775 8   
8776 4   
8777 5   
8778 3   
8779 9   
8780 3   
8781 10  
8782 9   
8783 7   
8784 3   
8785 4   
8786 2   
8787 1   
8788 9   
8789 7   
8790 3   
8791 4   
8792 6   
8793 7   
8794 6   
8795 6   
8796 2   
8797 2   
8798 3   
8799 8   
8800 9   
8801 1   
8802 7   
8803 6   
8804 3   
8805 8   
8806 3   
8807 9   
8808 5   
8809 8   
8810 6   
8811 7   
8812 9   
8813 7   
8814 4   
8815 7   
8816 5   
8817 7   
8818 2   
8819 3   
8820 9   
8821 2   
8822 8   
8823 7   
8824 9   
8825 9   
8826 4   
8827 9   
8828 9   
8829 6   
8830 8   
8831 1   
8832 9   
8833 3   
8834 5   
8835 2   
8836 10  
8837 6   
8838 4   
8839 4   
8840 50  
8841 6   
8842 4   
8843 10  
8844 7   
8845 3   
8846 6   
8847 7   
8848 6   
8849 10  
8850 6   
8851 6   
8852 9   
8853 10  
8854 10  
8855 4   
8856 6   
8857 80  
8858 8   
8859 9   
8860 6   
8861 5   
8862 66  
8863 9   
8864 4   
8865 9   
8866 2   
8867 7   
8868 4   
8869 10  
8870 1   
8871 1   
8872 7   
8873 9   
8874 7   
8875 9   
8876 4   
8877 9   
8878 51  
8879 9   
8880 54  
8881 65  
8882 6   
8883 2   
8884 7   
8885 7   
8886 1   
8887 6   
8888 2   
8889 1   
8890 10  
8891 1   
8892 10  
8893 7   
8894 10  
8895 9   
8896 10  
8897 3   
8898 9   
8899 3   
8900 8   
8901 5   
8902 7   
8903 6   
8904 7   
8905 10  
8906 59  
8907 7   
8908 10  
8909 1   
8910 1   
8911 70  
8912 4   
8913 3   
8914 4   
8915 3   
8916 7   
8917 3   
8918 10  
8919 61  
8920 83  
8921 10  
8922 3   
8923 5   
8924 4   
8925 7   
8926 3   
8927 1   
8928 10  
8929 6   
8930 1   
8931 62  
8932 8   
8933 2   
8934 6   
8935 2   
8936 5   
8937 8   
8938 1   
8939 9   
8940 10  
8941 4   
8942 10  
8943 5   
8944 9   
8945 3   
8946 77  
8947 7   
8948 5   
8949 6   
8950 7   
8951 10  
8952 9   
8953 8   
8954 8   
8955 5   
8956 9   
8957 9   
8958 1   
8959 2   
8960 4   
8961 9   
8962 2   
8963 2   
8964 3   
8965 10  
8966 72  
8967 1   
8968 3   
8969 100 
8970 9   
8971 4   
8972 2   
8973 4   
8974 9   
8975 7   
8976 5   
8977 4   
8978 6   
8979 1   
8980 4   
8981 2   
8982 5   
8983 10  
8984 7   
8985 10  
8986 10  
8987 86  
8988 9   
8989 7   
8990 4   
8991 3   
8992 10  
8993 9   
8994 6   
8995 3   
8996 6   
8997 2   
8998 6   
8999 1   
9000 10  
9001 4   
9002 10  
9003 7   
9004 9   
9005 6   
9006 6   
9007 5   
9008 8   
9009 3   
9010 7   
9011 10  
9012 4   
9013 1   
9014 7   
9015 8   
9016 8   
9017 6   
9018 6   
9019 3   
9020 8   
9021 6   
9022 10  
9023 3   
9024 5   
9025 8   
9026 6   
9027 1   
9028 7   
9029 2   
9030 4   
9031 3   
9032 5   
9033 1   
9034 6   
9035 4   
9036 6   
9037 1   
9038 8   
9039 1   
9040 10  
9041 9   
9042 2   
9043 77  
9044 2   
9045 7   
9046 1   
9047 8   
9048 5   
9049 4   
9050 4   
9051 6   
9052 7   
9053 8   
9054 10  
9055 9   
9056 8   
9057 9   
9058 88  
9059 1   
9060 63  
9061 6   
9062 83  
9063 10  
9064 10  
9065 7   
9066 6   
9067 3   
9068 10  
9069 4   
9070 5   
9071 5   
9072 7   
9073 6   
9074 5   
9075 6   
9076 3   
9077 8   
9078 1   
9079 3   
9080 4   
9081 5   
9082 5   
9083 3   
9084 9   
9085 8   
9086 5   
9087 4   
9088 86  
9089 3   
9090 3   
9091 10  
9092 10  
9093 8   
9094 10  
9095 6   
9096 5   
9097 5   
9098 10  
9099 2   
9100 2   
9101 6   
9102 2   
9103 9   
9104 8   
9105 9   
9106 5   
9107 10  
9108 1   
9109 10  
9110 1   
9111 8   
9112 5   
9113 10  
9114 5   
9115 3   
9116 5   
9117 8   
9118 4   
9119 2   
9120 6   
9121 10  
9122 4   
9123 2   
9124 9   
9125 8   
9126 1   
9127 9   
9128 1   
9129 8   
9130 7   
9131 1   
9132 4   
9133 6   
9134 2   
9135 99  
9136 2   
9137 5   
9138 2   
9139 9   
9140 8   
9141 9   
9142 9   
9143 2   
9144 8   
9145 10  
9146 4   
9147 9   
9148 68  
9149 2   
9150 2   
9151 2   
9152 78  
9153 8   
9154 1   
9155 8   
9156 7   
9157 2   
9158 10  
9159 3   
9160 6   
9161 4   
9162 9   
9163 7   
9164 5   
9165 7   
9166 3   
9167 5   
9168 4   
9169 10  
9170 4   
9171 7   
9172 5   
9173 5   
9174 9   
9175 4   
9176 5   
9177 7   
9178 1   
9179 8   
9180 9   
9181 9   
9182 9   
9183 4   
9184 2   
9185 7   
9186 2   
9187 5   
9188 6   
9189 10  
9190 10  
9191 5   
9192 2   
9193 10  
9194 3   
9195 6   
9196 1   
9197 8   
9198 8   
9199 3   
9200 4   
9201 1   
9202 5   
9203 1   
9204 3   
9205 8   
9206 7   
9207 5   
9208 2   
9209 4   
9210 10  
9211 9   
9212 3   
9213 9   
9214 98  
9215 10  
9216 1   
9217 4   
9218 98  
9219 10  
9220 2   
9221 1   
9222 5   
9223 5   
9224 2   
9225 6   
9226 85  
9227 7   
9228 6   
9229 4   
9230 1   
9231 5   
9232 9   
9233 5   
9234 3   
9235 1   
9236 5   
9237 7   
9238 5   
9239 7   
9240 10  
9241 9   
9242 7   
9243 9   
9244 6   
9245 7   
9246 6   
9247 4   
9248 6   
9249 3   
9250 5   
9251 5   
9252 5   
9253 2   
9254 5   
9255 7   
9256 6   
9257 9   
9258 8   
9259 8   
9260 3   
9261 1   
9262 1   
9263 6   
9264 6   
9265 7   
9266 8   
9267 8   
9268 2   
9269 8   
9270 10  
9271 5   
9272 5   
9273 5   
9274 5   
9275 9   
9276 8   
9277 4   
9278 1   
9279 6   
9280 10  
9281 10  
9282 1   
9283 8   
9284 7   
9285 7   
9286 9   
9287 5   
9288 9   
9289 2   
9290 2   
9291 1   
9292 9   
9293 7   
9294 4   
9295 7   
9296 2   
9297 1   
9298 8   
9299 8   
9300 7   
9301 2   
9302 90  
9303 2   
9304 9   
9305 6   
9306 1   
9307 1   
9308 1   
9309 9   
9310 10  
9311 1   
9312 1   
9313 2   
9314 3   
9315 62  
9316 4   
9317 3   
9318 2   
9319 2   
9320 73  
9321 6   
9322 2   
9323 7   
9324 9   
9325 8   
9326 9   
9327 10  
9328 6   
9329 8   
9330 2   
9331 7   
9332 5   
9333 4   
9334 10  
9335 3   
9336 6   
9337 3   
9338 10  
9339 7   
9340 3   
9341 4   
9342 10  
9343 7   
9344 5   
9345 10  
9346 8   
9347 6   
9348 1   
9349 1   
9350 8   
9351 7   
9352 5   
9353 6   
9354 4   
9355 1   
9356 10  
9357 70  
9358 5   
9359 9   
9360 5   
9361 8   
9362 10  
9363 9   
9364 4   
9365 8   
9366 8   
9367 9   
9368 7   
9369 7   
9370 10  
9371 9   
9372 5   
9373 6   
9374 4   
9375 1   
9376 10  
9377 8   
9378 5   
9379 9   
9380 92  
9381 5   
9382 4   
9383 7   
9384 7   
9385 8   
9386 89  
9387 2   
9388 1   
9389 9   
9390 9   
9391 6   
9392 6   
9393 2   
9394 6   
9395 6   
9396 4   
9397 5   
9398 9   
9399 1   
9400 10  
9401 5   
9402 4   
9403 9   
9404 1   
9405 3   
9406 5   
9407 8   
9408 3   
9409 3   
9410 3   
9411 9   
9412 8   
9413 9   
9414 7   
9415 2   
9416 6   
9417 8   
9418 10  
9419 7   
9420 8   
9421 6   
9422 5   
9423 3   
9424 1   
9425 2   
9426 9   
9427 4   
9428 7   
9429 2   
9430 6   
9431 1   
9432 10  
9433 7   
9434 3   
9435 4   
9436 10  
9437 4   
9438 9   
9439 5   
9440 3   
9441 62  
9442 4   
9443 8   
9444 6   
9445 2   
9446 74  
9447 10  
9448 4   
9449 4   
9450 3   
9451 2   
9452 1   
9453 4   
9454 4   
9455 1   
9456 5   
9457 7   
9458 3   
9459 4   
9460 10  
9461 7   
9462 4   
9463 8   
9464 6   
9465 2   
9466 8   
9467 4   
9468 2   
9469 9   
9470 4   
9471 6   
9472 7   
9473 88  
9474 2   
9475 7   
9476 5   
9477 7   
9478 4   
9479 7   
9480 4   
9481 6   
9482 8   
9483 3   
9484 2   
9485 1   
9486 2   
9487 5   
9488 8   
9489 3   
9490 6   
9491 4   
9492 4   
9493 8   
9494 1   
9495 7   
9496 2   
9497 8   
9498 4   
9499 7   
9500 4   
9501 6   
9502 10  
9503 3   
9504 8   
9505 93  
9506 7   
9507 5   
9508 9   
9509 7   
9510 6   
9511 1   
9512 8   
9513 7   
9514 4   
9515 9   
9516 72  
9517 8   
9518 3   
9519 3   
9520 9   
9521 2   
9522 6   
9523 3   
9524 3   
9525 10  
9526 3   
9527 5   
9528 50  
9529 62  
9530 9   
9531 10  
9532 96  
9533 2   
9534 8   
9535 10  
9536 8   
9537 9   
9538 2   
9539 3   
9540 4   
9541 1   
9542 1   
9543 7   
9544 6   
9545 7   
9546 9   
9547 9   
9548 7   
9549 10  
9550 10  
9551 5   
9552 3   
9553 10  
9554 6   
9555 6   
9556 10  
9557 1   
9558 8   
9559 5   
9560 7   
9561 4   
9562 7   
9563 4   
9564 4   
9565 5   
9566 6   
9567 3   
9568 4   
9569 3   
9570 9   
9571 3   
9572 1   
9573 6   
9574 7   
9575 73  
9576 6   
9577 3   
9578 7   
9579 2   
9580 4   
9581 9   
9582 9   
9583 9   
9584 2   
9585 6   
9586 3   
9587 2   
9588 4   
9589 10  
9590 10  
9591 3   
9592 94  
9593 3   
9594 5   
9595 5   
9596 5   
9597 65  
9598 6   
9599 6   
9600 7   
9601 2   
9602 8   
9603 5   
9604 8   
9605 4   
9606 3   
9607 10  
9608 4   
9609 6   
9610 4   
9611 2   
9612 5   
9613 10  
9614 5   
9615 6   
9616 8   
9617 1   
9618 7   
9619 90  
9620 5   
9621 4   
9622 9   
9623 8   
9624 9   
9625 8   
9626 6   
9627 1   
9628 3   
9629 1   
9630 5   
9631 7   
9632 7   
9633 2   
9634 6   
9635 1   
9636 3   
9637 10  
9638 3   
9639 1   
9640 2   
9641 4   
9642 6   
9643 3   
9644 8   
9645 10  
9646 3   
9647 1   
9648 2   
9649 9   
9650 3   
9651 3   
9652 1   
9653 5   
9654 3   
9655 6   
9656 8   
9657 4   
9658 9   
9659 5   
9660 7   
9661 9   
9662 1   
9663 7   
9664 7   
9665 2   
9666 1   
9667 6   
9668 10  
9669 6   
9670 3   
9671 7   
9672 6   
9673 9   
9674 2   
9675 10  
9676 5   
9677 4   
9678 4   
9679 6   
9680 7   
9681 9   
9682 7   
9683 4   
9684 5   
9685 10  
9686 7   
9687 3   
9688 2   
9689 6   
9690 1   
9691 6   
9692 7   
9693 5   
9694 2   
9695 2   
9696 3   
9697 8   
9698 10  
9699 8   
9700 5   
9701 10  
9702 3   
9703 99  
9704 9   
9705 3   
9706 90  
9707 2   
9708 9   
9709 4   
9710 4   
9711 7   
9712 2   
9713 10  
9714 73  
9715 7   
9716 7   
9717 6   
9718 10  
9719 3   
9720 9   
9721 3   
9722 6   
9723 10  
9724 1   
9725 7   
9726 2   
9727 9   
9728 6   
9729 5   
9730 10  
9731 9   
9732 2   
9733 9   
9734 1   
9735 7   
9736 1   
9737 5   
9738 3   
9739 10  
9740 3   
9741 67  
9742 3   
9743 8   
9744 10  
9745 9   
9746 10  
9747 1   
9748 8   
9749 5   
9750 87  
9751 2   
9752 6   
9753 2   
9754 9   
9755 10  
9756 2   
9757 3   
9758 4   
9759 6   
9760 10  
9761 7   
9762 6   
9763 7   
9764 7   
9765 4   
9766 7   
9767 6   
9768 2   
9769 2   
9770 4   
9771 5   
9772 85  
9773 3   
9774 2   
9775 8   
9776 80  
9777 1   
9778 3   
9779 1   
9780 3   
9781 8   
9782 2   
9783 1   
9784 3   
9785 2   
9786 6   
9787 60  
9788 51  
9789 2   
9790 7   
9791 5   
9792 3   
9793 1   
9794 5   
9795 5   
9796 7   
9797 1   
9798 5   
9799 10  
9800 7   
9801 7   
9802 6   
9803 4   
9804 1   
9805 5   
9806 1   
9807 5   
9808 1   
9809 2   
9810 8   
9811 8   
9812 2   
9813 1   
9814 8   
9815 3   
9816 4   
9817 4   
9818 10  
9819 4   
9820 2   
9821 9   
9822 10  
9823 3   
9824 8   
9825 4   
9826 7   
9827 5   
9828 7   
9829 10  
9830 7   
9831 59  
9832 6   
9833 4   
9834 3   
9835 2   
9836 7   
9837 10  
9838 8   
9839 4   
9840 7   
9841 3   
9842 9   
9843 6   
9844 10  
9845 3   
9846 3   
9847 5   
9848 1   
9849 6   
9850 10  
9851 6   
9852 4   
9853 2   
9854 3   
9855 10  
9856 9   
9857 4   
9858 10  
9859 1   
9860 4   
9861 3   
9862 4   
9863 4   
9864 3   
9865 5   
9866 10  
9867 3   
9868 7   
9869 5   
9870 8   
9871 4   
9872 2   
9873 9   
9874 10  
9875 2   
9876 9   
9877 6   
9878 2   
9879 4   
9880 9   
9881 1   
9882 9   
9883 9   
9884 7   
9885 6   
9886 5   
9887 2   
9888 6   
9889 1   
9890 78  
9891 2   
9892 10  
9893 10  
9894 5   
9895 92  
9896 2   
9897 4   
9898 2   
9899 8   
9900 5   
9901 7   
9902 7   
9903 1   
9904 10  
9905 4   
9906 1   
9907 8   
9908 4   
9909 3   
9910 1   
9911 4   
9912 1   
9913 1   
9914 5   
9915 10  
9916 7   
9917 1   
9918 2   
9919 1   
9920 10  
9921 5   
9922 4   
9923 3   
9924 10  
9925 4   
9926 10  
9927 1   
9928 6   
9929 1   
9930 9   
9931 8   
9932 6   
9933 6   
9934 2   
9935 10  
9936 4   
9937 68  
9938 6   
9939 7   
9940 86  
9941 8   
9942 3   
9943 2   
9944 10  
9945 7   
9946 10  
9947 5   
9948 5   
9949 1   
9950 61  
9951 3   
9952 9   
9953 7   
9954 3   
9955 9   
9956 5   
9957 1   
9958 5   
9959 3   
9960 7   
9961 7   
9962 9   
9963 8   
9964 4   
9965 9   
9966 6   
9967 7   
9968 8   
9969 72  
9970 80  
9971 10  
9972 4   
9973 9   
9974 4   
9975 4   
9976 7   
9977 8   
9978 66  
9979 2   
9980 9   
9981 3   
9982 4   
9983 3   
9984 2   
9985 8   
9986 8   
9987 4   
9988 9   
9989 7   
9990 9   
9991 7   
9992 8   
9993 2   
9994 4   
9995 8   
9996 9   
9997 6   
9998 5   
9999 9   
10000 2   
10001 2   
DEPOT_SECTION
1
-1
EOF
