NAME : XML10000_1173_01
COMMENT : Generated as the XML100 dataset from the CVRPLIB
TYPE : CVRP
DIMENSION : 10001
EDGE_WEIGHT_TYPE : EUC_2D
CAPACITY : 148
NODE_COORD_SECTION
1    494  591 
2    945  530 
3    836  317 
4    971  542 
5    682  967 
6    190  246 
7    391  581 
8    458  566 
9    846  925 
10   484  870 
11   892  107 
12   449  473 
13   983  284 
14   599  255 
15   695  648 
16   221  885 
17   440  132 
18   498  902 
19   293  297 
20   536  862 
21   42   235 
22   61   861 
23   616  140 
24   635  184 
25   820  30  
26   518  685 
27   773  992 
28   652  759 
29   368  68  
30   187  536 
31   353  496 
32   957  244 
33   498  763 
34   83   731 
35   799  753 
36   784  598 
37   624  917 
38   537  770 
39   19   535 
40   226  209 
41   705  244 
42   335  305 
43   84   247 
44   784  741 
45   861  969 
46   348  700 
47   663  183 
48   114  826 
49   122  273 
50   710  246 
51   75   941 
52   956  18  
53   939  836 
54   201  23  
55   364  453 
56   239  555 
57   75   570 
58   165  692 
59   709  439 
60   638  487 
61   50   884 
62   801  916 
63   841  71  
64   572  977 
65   978  472 
66   447  623 
67   853  1000
68   34   448 
69   14   858 
70   179  665 
71   880  570 
72   419  134 
73   281  169 
74   927  38  
75   626  697 
76   491  744 
77   935  539 
78   561  34  
79   245  521 
80   907  58  
81   836  236 
82   766  101 
83   750  622 
84   168  676 
85   81   133 
86   335  568 
87   693  406 
88   659  538 
89   756  298 
90   885  714 
91   10   26  
92   817  410 
93   301  521 
94   285  388 
95   46   948 
96   980  818 
97   223  584 
98   976  773 
99   159  524 
100  38   983 
101  369  492 
102  741  156 
103  393  76  
104  677  740 
105  345  331 
106  17   584 
107  881  410 
108  38   177 
109  384  520 
110  43   781 
111  561  712 
112  414  756 
113  915  433 
114  94   360 
115  203  67  
116  798  542 
117  910  116 
118  549  668 
119  807  724 
120  78   944 
121  902  744 
122  887  426 
123  977  681 
124  838  746 
125  416  871 
126  986  905 
127  329  394 
128  348  610 
129  844  351 
130  990  945 
131  680  724 
132  400  284 
133  634  135 
134  250  140 
135  108  98  
136  273  179 
137  536  711 
138  583  211 
139  107  154 
140  197  276 
141  748  18  
142  678  301 
143  516  152 
144  295  907 
145  867  356 
146  575  959 
147  743  265 
148  653  993 
149  156  543 
150  624  159 
151  399  921 
152  623  931 
153  850  465 
154  923  295 
155  488  658 
156  306  287 
157  325  1   
158  785  314 
159  550  762 
160  684  584 
161  28   752 
162  233  354 
163  70   351 
164  129  431 
165  737  50  
166  408  354 
167  529  974 
168  713  57  
169  586  777 
170  418  903 
171  571  183 
172  992  96  
173  612  777 
174  314  84  
175  618  230 
176  42   954 
177  81   848 
178  427  876 
179  251  608 
180  859  865 
181  362  843 
182  589  440 
183  384  57  
184  63   849 
185  807  342 
186  898  558 
187  38   529 
188  152  436 
189  661  253 
190  521  394 
191  828  770 
192  722  509 
193  24   238 
194  561  953 
195  907  661 
196  138  858 
197  436  923 
198  128  348 
199  368  625 
200  5    138 
201  869  459 
202  765  298 
203  555  52  
204  350  944 
205  665  532 
206  260  472 
207  282  688 
208  963  795 
209  360  868 
210  173  826 
211  27   364 
212  195  562 
213  565  228 
214  507  868 
215  749  135 
216  713  945 
217  716  80  
218  455  508 
219  994  366 
220  886  800 
221  170  380 
222  191  518 
223  66   829 
224  235  670 
225  882  699 
226  795  784 
227  886  851 
228  959  525 
229  726  776 
230  819  150 
231  412  320 
232  731  930 
233  41   122 
234  188  511 
235  580  937 
236  874  650 
237  339  893 
238  785  107 
239  658  251 
240  183  692 
241  349  172 
242  495  646 
243  408  642 
244  654  375 
245  416  609 
246  456  654 
247  2    230 
248  615  742 
249  27   857 
250  528  290 
251  321  548 
252  359  36  
253  109  701 
254  331  719 
255  443  9   
256  852  411 
257  266  514 
258  177  165 
259  417  662 
260  72   973 
261  58   672 
262  934  641 
263  34   409 
264  804  149 
265  71   662 
266  419  241 
267  297  749 
268  172  495 
269  979  905 
270  853  928 
271  439  771 
272  81   803 
273  98   899 
274  962  684 
275  157  462 
276  641  385 
277  400  625 
278  755  799 
279  606  571 
280  44   64  
281  779  63  
282  909  688 
283  0    422 
284  717  359 
285  2    588 
286  167  778 
287  613  342 
288  483  625 
289  195  69  
290  107  881 
291  350  739 
292  800  524 
293  73   946 
294  665  726 
295  688  337 
296  67   172 
297  621  749 
298  824  369 
299  642  702 
300  185  441 
301  635  945 
302  962  131 
303  317  317 
304  744  87  
305  144  669 
306  790  868 
307  369  150 
308  591  999 
309  848  181 
310  27   328 
311  616  145 
312  321  43  
313  674  977 
314  125  689 
315  454  777 
316  623  438 
317  18   13  
318  726  933 
319  468  925 
320  911  797 
321  619  528 
322  321  885 
323  485  938 
324  490  580 
325  753  842 
326  292  338 
327  536  656 
328  299  794 
329  875  315 
330  857  980 
331  896  964 
332  839  156 
333  585  529 
334  681  6   
335  918  341 
336  149  536 
337  4    509 
338  95   444 
339  36   942 
340  454  469 
341  294  610 
342  62   670 
343  945  282 
344  516  487 
345  97   57  
346  73   48  
347  663  481 
348  386  335 
349  46   477 
350  514  115 
351  58   311 
352  998  67  
353  138  335 
354  181  427 
355  491  527 
356  516  660 
357  702  839 
358  495  207 
359  974  232 
360  719  943 
361  763  955 
362  31   425 
363  550  895 
364  845  837 
365  185  793 
366  591  353 
367  150  617 
368  751  367 
369  825  745 
370  916  144 
371  864  833 
372  920  211 
373  632  221 
374  484  178 
375  216  816 
376  966  798 
377  474  104 
378  555  449 
379  459  500 
380  295  74  
381  243  301 
382  371  736 
383  564  561 
384  466  756 
385  473  304 
386  846  883 
387  26   928 
388  225  891 
389  65   974 
390  800  647 
391  621  721 
392  432  571 
393  143  39  
394  553  945 
395  864  542 
396  989  889 
397  811  121 
398  61   634 
399  243  587 
400  795  668 
401  838  850 
402  748  724 
403  18   335 
404  561  675 
405  735  383 
406  938  31  
407  242  384 
408  459  48  
409  902  626 
410  925  307 
411  433  733 
412  437  585 
413  204  836 
414  248  684 
415  246  459 
416  688  697 
417  652  752 
418  322  411 
419  877  171 
420  199  963 
421  471  830 
422  143  667 
423  973  664 
424  868  434 
425  763  332 
426  672  397 
427  875  406 
428  394  911 
429  566  809 
430  361  941 
431  801  728 
432  931  537 
433  352  696 
434  317  886 
435  948  520 
436  316  434 
437  615  814 
438  528  362 
439  841  245 
440  567  907 
441  222  956 
442  480  75  
443  357  923 
444  871  17  
445  653  222 
446  179  619 
447  331  868 
448  486  192 
449  474  520 
450  823  195 
451  241  771 
452  721  633 
453  353  669 
454  871  247 
455  306  557 
456  936  908 
457  153  358 
458  487  639 
459  381  216 
460  77   255 
461  298  764 
462  129  782 
463  689  342 
464  950  415 
465  664  52  
466  129  552 
467  575  183 
468  560  340 
469  194  206 
470  214  245 
471  643  815 
472  164  778 
473  437  282 
474  458  555 
475  574  885 
476  995  256 
477  685  580 
478  271  231 
479  934  365 
480  682  218 
481  241  58  
482  661  555 
483  56   2   
484  749  162 
485  557  795 
486  504  707 
487  584  903 
488  515  519 
489  914  8   
490  856  263 
491  643  491 
492  572  451 
493  60   303 
494  373  976 
495  191  707 
496  378  966 
497  341  306 
498  160  381 
499  911  762 
500  424  34  
501  294  712 
502  425  783 
503  870  683 
504  905  565 
505  691  100 
506  247  552 
507  325  238 
508  967  307 
509  112  245 
510  774  941 
511  738  25  
512  689  635 
513  875  144 
514  308  835 
515  662  790 
516  588  571 
517  918  396 
518  885  87  
519  480  248 
520  761  89  
521  780  485 
522  193  517 
523  802  685 
524  766  714 
525  305  963 
526  49   373 
527  633  23  
528  230  391 
529  876  397 
530  624  382 
531  555  828 
532  149  931 
533  831  667 
534  760  142 
535  634  683 
536  11   910 
537  968  379 
538  510  230 
539  874  13  
540  237  699 
541  851  279 
542  357  226 
543  819  821 
544  662  461 
545  976  964 
546  370  367 
547  722  216 
548  812  90  
549  77   227 
550  115  16  
551  684  397 
552  677  980 
553  896  133 
554  823  890 
555  73   516 
556  385  384 
557  573  879 
558  264  559 
559  870  307 
560  500  589 
561  581  676 
562  72   332 
563  534  634 
564  394  289 
565  897  414 
566  110  119 
567  61   561 
568  868  935 
569  815  664 
570  462  944 
571  411  686 
572  428  512 
573  527  276 
574  17   555 
575  894  919 
576  865  943 
577  886  519 
578  27   510 
579  686  899 
580  545  125 
581  144  690 
582  899  546 
583  61   787 
584  467  612 
585  857  172 
586  566  580 
587  380  495 
588  169  146 
589  739  176 
590  139  966 
591  435  115 
592  308  739 
593  169  35  
594  204  908 
595  5    333 
596  959  524 
597  982  359 
598  217  303 
599  776  228 
600  830  827 
601  984  71  
602  35   535 
603  865  452 
604  259  95  
605  353  168 
606  299  846 
607  981  294 
608  212  101 
609  433  336 
610  966  58  
611  69   316 
612  800  361 
613  211  167 
614  875  124 
615  378  700 
616  144  28  
617  515  63  
618  127  987 
619  918  424 
620  667  872 
621  226  504 
622  559  430 
623  568  979 
624  415  102 
625  610  338 
626  124  930 
627  31   150 
628  624  410 
629  783  935 
630  810  771 
631  900  897 
632  131  708 
633  154  879 
634  770  437 
635  629  840 
636  349  640 
637  414  452 
638  396  631 
639  825  611 
640  276  429 
641  479  742 
642  194  626 
643  985  869 
644  177  352 
645  366  812 
646  607  918 
647  55   323 
648  828  961 
649  261  448 
650  595  822 
651  713  391 
652  841  602 
653  769  405 
654  402  662 
655  708  142 
656  750  257 
657  732  276 
658  660  105 
659  684  151 
660  258  773 
661  850  683 
662  600  958 
663  0    884 
664  863  691 
665  77   890 
666  133  56  
667  800  747 
668  48   576 
669  108  592 
670  551  86  
671  773  232 
672  539  694 
673  5    126 
674  133  73  
675  351  508 
676  445  871 
677  228  329 
678  51   464 
679  277  926 
680  761  763 
681  84   392 
682  891  8   
683  378  173 
684  804  897 
685  441  625 
686  373  886 
687  429  708 
688  359  647 
689  368  90  
690  350  94  
691  47   90  
692  731  897 
693  257  748 
694  493  590 
695  477  841 
696  978  942 
697  903  877 
698  667  441 
699  83   686 
700  676  441 
701  487  176 
702  970  218 
703  934  881 
704  370  958 
705  331  396 
706  201  1000
707  680  971 
708  145  320 
709  139  430 
710  891  549 
711  784  921 
712  71   599 
713  571  419 
714  849  837 
715  170  804 
716  135  826 
717  690  47  
718  799  339 
719  49   445 
720  178  283 
721  490  25  
722  864  262 
723  519  592 
724  315  94  
725  780  60  
726  569  823 
727  715  977 
728  111  696 
729  898  211 
730  499  410 
731  409  902 
732  428  102 
733  768  715 
734  200  29  
735  976  622 
736  849  496 
737  702  836 
738  958  722 
739  542  941 
740  270  752 
741  608  121 
742  71   923 
743  457  515 
744  385  302 
745  776  905 
746  634  965 
747  12   587 
748  471  38  
749  831  262 
750  500  534 
751  682  562 
752  848  342 
753  295  69  
754  377  866 
755  52   334 
756  56   777 
757  57   48  
758  100  114 
759  959  51  
760  358  958 
761  52   253 
762  717  253 
763  403  397 
764  820  250 
765  327  474 
766  972  13  
767  782  314 
768  565  170 
769  514  940 
770  820  105 
771  587  686 
772  743  803 
773  320  475 
774  249  491 
775  213  0   
776  327  248 
777  347  710 
778  386  714 
779  8    40  
780  243  793 
781  321  935 
782  381  955 
783  535  676 
784  882  704 
785  277  660 
786  333  824 
787  136  332 
788  529  267 
789  450  628 
790  485  973 
791  397  91  
792  74   440 
793  131  51  
794  45   617 
795  27   994 
796  213  979 
797  343  772 
798  753  710 
799  535  394 
800  934  925 
801  838  57  
802  434  947 
803  53   939 
804  274  584 
805  791  109 
806  371  500 
807  266  584 
808  12   84  
809  72   951 
810  767  114 
811  288  724 
812  126  334 
813  14   574 
814  165  690 
815  19   868 
816  417  605 
817  72   774 
818  390  360 
819  600  284 
820  71   857 
821  41   670 
822  745  370 
823  125  496 
824  931  37  
825  73   269 
826  555  753 
827  793  4   
828  578  818 
829  779  489 
830  727  407 
831  466  804 
832  147  387 
833  385  266 
834  774  300 
835  564  752 
836  357  94  
837  693  404 
838  385  443 
839  423  423 
840  263  446 
841  51   844 
842  324  696 
843  487  860 
844  147  353 
845  522  191 
846  356  105 
847  599  959 
848  708  198 
849  416  334 
850  327  664 
851  916  395 
852  241  223 
853  471  665 
854  458  552 
855  437  281 
856  845  428 
857  775  449 
858  688  489 
859  797  9   
860  798  866 
861  639  848 
862  378  259 
863  919  538 
864  333  617 
865  449  84  
866  32   508 
867  87   606 
868  763  13  
869  891  48  
870  411  1   
871  251  462 
872  382  564 
873  862  226 
874  209  854 
875  246  71  
876  951  568 
877  536  713 
878  627  776 
879  888  520 
880  705  214 
881  649  942 
882  260  969 
883  72   757 
884  126  392 
885  550  286 
886  466  309 
887  948  749 
888  326  201 
889  477  83  
890  575  782 
891  504  239 
892  656  156 
893  140  5   
894  322  928 
895  715  699 
896  866  805 
897  908  2   
898  140  916 
899  107  331 
900  487  303 
901  236  621 
902  899  321 
903  480  455 
904  547  211 
905  624  462 
906  399  558 
907  110  585 
908  20   689 
909  24   308 
910  340  930 
911  414  489 
912  510  374 
913  149  132 
914  629  996 
915  447  355 
916  431  878 
917  909  650 
918  0    476 
919  436  720 
920  241  520 
921  721  774 
922  280  124 
923  327  606 
924  879  477 
925  608  144 
926  721  919 
927  96   484 
928  902  108 
929  389  439 
930  686  567 
931  765  454 
932  91   187 
933  238  446 
934  565  863 
935  786  604 
936  821  453 
937  699  553 
938  795  726 
939  837  875 
940  15   35  
941  894  916 
942  510  925 
943  789  520 
944  60   648 
945  906  468 
946  48   564 
947  385  835 
948  962  95  
949  7    716 
950  123  473 
951  621  442 
952  795  869 
953  744  795 
954  212  273 
955  655  401 
956  761  568 
957  631  22  
958  299  931 
959  925  619 
960  752  149 
961  491  443 
962  236  126 
963  217  302 
964  627  887 
965  331  274 
966  316  166 
967  31   605 
968  952  934 
969  202  13  
970  809  99  
971  370  923 
972  973  816 
973  260  941 
974  231  138 
975  365  704 
976  31   883 
977  625  596 
978  793  640 
979  830  741 
980  905  818 
981  619  114 
982  430  247 
983  931  782 
984  435  607 
985  704  148 
986  903  460 
987  727  648 
988  215  468 
989  269  540 
990  699  427 
991  681  740 
992  607  610 
993  97   509 
994  654  689 
995  159  253 
996  568  818 
997  609  410 
998  55   444 
999  12   465 
1000 197  987 
1001 628  17  
1002 242  756 
1003 998  135 
1004 257  271 
1005 484  152 
1006 474  402 
1007 864  790 
1008 561  842 
1009 377  837 
1010 47   707 
1011 1000 182 
1012 547  779 
1013 508  117 
1014 60   846 
1015 519  209 
1016 315  991 
1017 837  958 
1018 294  363 
1019 303  395 
1020 470  424 
1021 170  60  
1022 78   605 
1023 192  540 
1024 834  967 
1025 215  604 
1026 53   353 
1027 865  827 
1028 846  678 
1029 632  750 
1030 463  582 
1031 284  91  
1032 375  410 
1033 550  154 
1034 364  905 
1035 753  110 
1036 222  507 
1037 223  70  
1038 406  738 
1039 133  362 
1040 887  511 
1041 982  273 
1042 806  67  
1043 790  580 
1044 915  344 
1045 290  855 
1046 522  538 
1047 827  705 
1048 227  353 
1049 819  101 
1050 752  0   
1051 718  789 
1052 41   229 
1053 46   150 
1054 818  919 
1055 966  39  
1056 917  545 
1057 130  437 
1058 292  50  
1059 499  718 
1060 260  528 
1061 524  837 
1062 117  3   
1063 139  417 
1064 892  859 
1065 73   165 
1066 145  720 
1067 843  441 
1068 383  320 
1069 202  259 
1070 594  513 
1071 130  36  
1072 775  596 
1073 44   482 
1074 476  166 
1075 231  908 
1076 639  19  
1077 895  485 
1078 168  286 
1079 562  242 
1080 374  956 
1081 90   723 
1082 698  914 
1083 571  128 
1084 457  800 
1085 410  502 
1086 585  60  
1087 859  653 
1088 186  81  
1089 741  673 
1090 261  513 
1091 390  431 
1092 319  287 
1093 840  206 
1094 827  472 
1095 811  959 
1096 205  484 
1097 667  691 
1098 137  668 
1099 85   830 
1100 100  285 
1101 68   819 
1102 345  594 
1103 99   607 
1104 9    299 
1105 156  398 
1106 812  321 
1107 650  36  
1108 501  704 
1109 727  54  
1110 416  146 
1111 843  733 
1112 989  887 
1113 298  90  
1114 461  446 
1115 869  257 
1116 195  750 
1117 878  49  
1118 790  919 
1119 717  845 
1120 94   480 
1121 555  126 
1122 955  824 
1123 811  392 
1124 848  4   
1125 372  926 
1126 215  608 
1127 513  518 
1128 899  637 
1129 259  730 
1130 504  681 
1131 144  522 
1132 127  457 
1133 40   971 
1134 38   106 
1135 596  576 
1136 740  272 
1137 179  0   
1138 364  124 
1139 950  799 
1140 420  830 
1141 903  963 
1142 351  774 
1143 134  808 
1144 283  494 
1145 883  901 
1146 863  251 
1147 131  50  
1148 444  27  
1149 688  921 
1150 782  887 
1151 748  41  
1152 787  543 
1153 376  304 
1154 235  23  
1155 236  356 
1156 843  468 
1157 473  686 
1158 116  306 
1159 596  4   
1160 979  244 
1161 102  325 
1162 818  10  
1163 525  0   
1164 162  550 
1165 35   268 
1166 219  571 
1167 254  384 
1168 199  513 
1169 605  370 
1170 40   406 
1171 734  142 
1172 624  197 
1173 201  229 
1174 130  187 
1175 439  167 
1176 330  451 
1177 408  265 
1178 318  780 
1179 266  939 
1180 457  988 
1181 314  959 
1182 206  193 
1183 673  764 
1184 806  944 
1185 979  816 
1186 870  43  
1187 431  853 
1188 712  981 
1189 980  718 
1190 67   443 
1191 68   896 
1192 493  397 
1193 555  414 
1194 884  354 
1195 301  518 
1196 342  338 
1197 789  785 
1198 392  345 
1199 450  243 
1200 878  243 
1201 327  667 
1202 702  445 
1203 975  875 
1204 892  27  
1205 547  592 
1206 161  509 
1207 252  442 
1208 364  668 
1209 647  757 
1210 636  16  
1211 431  382 
1212 342  175 
1213 471  521 
1214 237  59  
1215 937  413 
1216 186  907 
1217 242  339 
1218 816  526 
1219 66   165 
1220 502  929 
1221 142  118 
1222 891  51  
1223 393  444 
1224 179  495 
1225 0    714 
1226 293  91  
1227 834  209 
1228 283  93  
1229 982  345 
1230 394  990 
1231 14   479 
1232 17   393 
1233 917  790 
1234 184  390 
1235 960  359 
1236 796  149 
1237 98   455 
1238 425  781 
1239 571  524 
1240 199  711 
1241 257  580 
1242 165  883 
1243 549  221 
1244 571  637 
1245 862  428 
1246 761  95  
1247 136  982 
1248 107  445 
1249 453  217 
1250 37   410 
1251 956  160 
1252 318  857 
1253 337  432 
1254 600  330 
1255 875  944 
1256 857  605 
1257 630  204 
1258 605  199 
1259 969  59  
1260 343  367 
1261 515  368 
1262 555  847 
1263 59   924 
1264 176  80  
1265 659  861 
1266 664  965 
1267 708  502 
1268 655  649 
1269 894  473 
1270 343  77  
1271 803  410 
1272 368  775 
1273 462  357 
1274 234  396 
1275 713  489 
1276 971  765 
1277 556  81  
1278 168  786 
1279 725  966 
1280 300  279 
1281 428  476 
1282 972  737 
1283 854  261 
1284 547  767 
1285 786  605 
1286 986  389 
1287 113  823 
1288 575  213 
1289 873  781 
1290 582  935 
1291 609  795 
1292 60   649 
1293 20   468 
1294 725  649 
1295 981  895 
1296 877  958 
1297 333  524 
1298 578  509 
1299 977  1000
1300 734  744 
1301 679  345 
1302 735  177 
1303 260  249 
1304 246  390 
1305 356  578 
1306 963  570 
1307 602  358 
1308 30   903 
1309 394  867 
1310 218  623 
1311 551  355 
1312 237  321 
1313 576  629 
1314 645  234 
1315 740  296 
1316 248  742 
1317 448  504 
1318 878  698 
1319 494  835 
1320 524  636 
1321 622  703 
1322 930  883 
1323 576  787 
1324 773  711 
1325 994  62  
1326 701  52  
1327 870  597 
1328 338  442 
1329 361  619 
1330 213  906 
1331 658  777 
1332 827  898 
1333 829  208 
1334 481  66  
1335 653  2   
1336 692  600 
1337 641  986 
1338 918  430 
1339 776  595 
1340 170  846 
1341 282  388 
1342 62   880 
1343 966  474 
1344 76   936 
1345 130  240 
1346 760  317 
1347 98   700 
1348 813  333 
1349 432  488 
1350 713  73  
1351 73   490 
1352 404  774 
1353 205  669 
1354 343  371 
1355 987  407 
1356 167  545 
1357 663  700 
1358 756  216 
1359 79   309 
1360 746  18  
1361 504  345 
1362 401  921 
1363 254  773 
1364 148  242 
1365 923  832 
1366 582  455 
1367 349  928 
1368 168  895 
1369 280  89  
1370 834  512 
1371 890  936 
1372 413  131 
1373 87   108 
1374 52   453 
1375 555  486 
1376 132  573 
1377 133  772 
1378 190  335 
1379 251  879 
1380 752  776 
1381 306  932 
1382 879  97  
1383 475  871 
1384 557  413 
1385 195  356 
1386 717  215 
1387 901  400 
1388 63   421 
1389 47   544 
1390 446  55  
1391 837  846 
1392 986  8   
1393 950  615 
1394 271  168 
1395 9    121 
1396 377  535 
1397 913  467 
1398 948  76  
1399 90   372 
1400 644  325 
1401 187  786 
1402 97   656 
1403 388  27  
1404 647  594 
1405 51   323 
1406 454  780 
1407 734  708 
1408 703  331 
1409 905  256 
1410 227  386 
1411 874  971 
1412 786  5   
1413 53   514 
1414 536  612 
1415 847  924 
1416 304  820 
1417 377  482 
1418 175  19  
1419 213  844 
1420 910  162 
1421 930  804 
1422 397  53  
1423 226  201 
1424 463  788 
1425 857  985 
1426 274  723 
1427 795  31  
1428 306  192 
1429 164  230 
1430 883  710 
1431 994  181 
1432 848  643 
1433 226  299 
1434 169  328 
1435 27   806 
1436 525  27  
1437 736  484 
1438 236  656 
1439 942  60  
1440 343  561 
1441 222  598 
1442 978  496 
1443 337  504 
1444 63   726 
1445 168  430 
1446 478  655 
1447 653  409 
1448 505  563 
1449 736  177 
1450 510  316 
1451 935  627 
1452 475  135 
1453 940  971 
1454 760  55  
1455 853  818 
1456 529  548 
1457 841  794 
1458 56   702 
1459 915  767 
1460 115  93  
1461 779  92  
1462 34   13  
1463 664  172 
1464 557  223 
1465 299  243 
1466 281  412 
1467 445  709 
1468 930  51  
1469 994  894 
1470 24   186 
1471 233  772 
1472 367  849 
1473 996  167 
1474 691  947 
1475 808  885 
1476 38   830 
1477 129  626 
1478 207  925 
1479 960  848 
1480 998  748 
1481 507  195 
1482 217  937 
1483 812  608 
1484 911  92  
1485 130  931 
1486 791  570 
1487 757  577 
1488 207  544 
1489 759  23  
1490 705  942 
1491 265  733 
1492 716  234 
1493 806  108 
1494 695  987 
1495 187  540 
1496 411  212 
1497 654  16  
1498 179  176 
1499 986  544 
1500 382  617 
1501 914  197 
1502 52   674 
1503 109  975 
1504 255  485 
1505 95   268 
1506 350  459 
1507 818  809 
1508 545  615 
1509 731  796 
1510 36   894 
1511 992  540 
1512 438  574 
1513 573  49  
1514 192  84  
1515 729  371 
1516 36   973 
1517 473  685 
1518 202  469 
1519 165  815 
1520 993  422 
1521 222  784 
1522 136  571 
1523 818  11  
1524 505  380 
1525 822  579 
1526 948  698 
1527 292  166 
1528 166  715 
1529 154  131 
1530 559  352 
1531 466  113 
1532 374  622 
1533 412  847 
1534 70   375 
1535 235  308 
1536 662  107 
1537 373  430 
1538 418  895 
1539 555  866 
1540 77   410 
1541 774  512 
1542 442  105 
1543 831  753 
1544 334  59  
1545 261  723 
1546 182  127 
1547 475  227 
1548 326  687 
1549 63   936 
1550 694  218 
1551 362  851 
1552 276  103 
1553 262  86  
1554 690  533 
1555 50   692 
1556 578  978 
1557 194  811 
1558 581  717 
1559 565  712 
1560 12   760 
1561 162  205 
1562 197  692 
1563 988  705 
1564 39   145 
1565 756  677 
1566 811  184 
1567 43   210 
1568 392  346 
1569 872  442 
1570 820  954 
1571 587  913 
1572 273  585 
1573 590  292 
1574 648  619 
1575 39   102 
1576 60   887 
1577 82   519 
1578 151  537 
1579 152  745 
1580 298  63  
1581 66   51  
1582 322  169 
1583 910  350 
1584 747  904 
1585 256  583 
1586 170  501 
1587 398  29  
1588 653  601 
1589 178  955 
1590 731  557 
1591 236  133 
1592 532  426 
1593 0    715 
1594 635  457 
1595 286  941 
1596 965  616 
1597 681  161 
1598 493  643 
1599 297  168 
1600 728  196 
1601 601  122 
1602 431  189 
1603 288  421 
1604 739  452 
1605 762  47  
1606 445  337 
1607 601  491 
1608 946  150 
1609 657  73  
1610 822  781 
1611 205  773 
1612 633  826 
1613 670  901 
1614 808  90  
1615 809  295 
1616 330  258 
1617 222  780 
1618 975  214 
1619 443  993 
1620 794  149 
1621 466  450 
1622 943  820 
1623 512  846 
1624 875  34  
1625 488  662 
1626 849  643 
1627 59   177 
1628 651  405 
1629 140  918 
1630 490  95  
1631 883  476 
1632 261  678 
1633 996  709 
1634 941  196 
1635 466  228 
1636 799  186 
1637 693  675 
1638 585  106 
1639 197  852 
1640 749  807 
1641 89   891 
1642 542  600 
1643 135  34  
1644 907  205 
1645 927  6   
1646 287  871 
1647 508  286 
1648 453  395 
1649 665  51  
1650 24   421 
1651 385  251 
1652 94   978 
1653 58   204 
1654 591  346 
1655 209  40  
1656 483  601 
1657 677  977 
1658 513  16  
1659 896  152 
1660 659  570 
1661 441  45  
1662 461  146 
1663 559  809 
1664 690  904 
1665 431  590 
1666 241  360 
1667 846  831 
1668 707  87  
1669 564  500 
1670 932  812 
1671 608  496 
1672 441  783 
1673 80   57  
1674 298  896 
1675 696  787 
1676 809  532 
1677 955  754 
1678 905  9   
1679 579  190 
1680 872  180 
1681 318  214 
1682 303  358 
1683 768  287 
1684 471  556 
1685 346  775 
1686 592  51  
1687 497  433 
1688 777  71  
1689 942  907 
1690 994  362 
1691 42   175 
1692 630  398 
1693 919  425 
1694 260  250 
1695 725  490 
1696 36   577 
1697 643  443 
1698 277  857 
1699 352  918 
1700 498  684 
1701 503  413 
1702 291  533 
1703 899  850 
1704 114  924 
1705 387  6   
1706 959  670 
1707 861  924 
1708 726  750 
1709 640  773 
1710 930  995 
1711 255  2   
1712 397  242 
1713 64   87  
1714 463  81  
1715 46   235 
1716 374  692 
1717 653  1   
1718 952  646 
1719 650  793 
1720 562  125 
1721 581  303 
1722 606  882 
1723 850  320 
1724 561  307 
1725 997  575 
1726 756  170 
1727 332  658 
1728 334  448 
1729 29   622 
1730 853  940 
1731 840  325 
1732 505  534 
1733 534  473 
1734 129  56  
1735 614  139 
1736 82   504 
1737 599  573 
1738 374  880 
1739 590  928 
1740 720  634 
1741 21   107 
1742 957  847 
1743 101  189 
1744 345  715 
1745 966  935 
1746 8    917 
1747 10   79  
1748 285  471 
1749 786  668 
1750 440  288 
1751 918  565 
1752 63   198 
1753 380  74  
1754 890  651 
1755 427  251 
1756 584  262 
1757 904  397 
1758 557  557 
1759 186  977 
1760 498  927 
1761 887  219 
1762 890  621 
1763 65   768 
1764 812  637 
1765 963  763 
1766 138  604 
1767 530  458 
1768 467  660 
1769 786  864 
1770 687  627 
1771 416  86  
1772 402  89  
1773 332  282 
1774 740  495 
1775 407  296 
1776 501  445 
1777 844  445 
1778 792  608 
1779 207  591 
1780 687  849 
1781 283  151 
1782 910  48  
1783 821  923 
1784 92   797 
1785 75   201 
1786 339  684 
1787 179  87  
1788 737  577 
1789 373  917 
1790 909  473 
1791 527  862 
1792 169  318 
1793 978  572 
1794 448  227 
1795 269  971 
1796 469  531 
1797 843  298 
1798 938  522 
1799 244  789 
1800 154  61  
1801 743  333 
1802 982  979 
1803 130  34  
1804 535  65  
1805 719  228 
1806 64   290 
1807 712  590 
1808 931  812 
1809 1    311 
1810 330  429 
1811 483  981 
1812 440  896 
1813 77   501 
1814 867  751 
1815 391  781 
1816 954  971 
1817 609  646 
1818 370  178 
1819 958  563 
1820 560  78  
1821 445  708 
1822 872  304 
1823 216  820 
1824 472  734 
1825 125  188 
1826 931  505 
1827 362  542 
1828 418  284 
1829 215  62  
1830 313  50  
1831 521  629 
1832 315  908 
1833 650  83  
1834 691  773 
1835 375  820 
1836 394  277 
1837 329  964 
1838 458  672 
1839 114  62  
1840 919  813 
1841 775  329 
1842 816  774 
1843 375  165 
1844 740  173 
1845 983  283 
1846 731  290 
1847 967  886 
1848 472  875 
1849 939  209 
1850 489  860 
1851 131  393 
1852 151  986 
1853 751  525 
1854 271  429 
1855 863  455 
1856 386  713 
1857 539  437 
1858 577  250 
1859 991  18  
1860 89   384 
1861 434  253 
1862 736  837 
1863 293  54  
1864 131  167 
1865 856  478 
1866 359  309 
1867 643  256 
1868 148  930 
1869 420  143 
1870 22   847 
1871 120  601 
1872 982  541 
1873 658  831 
1874 917  978 
1875 222  134 
1876 630  3   
1877 386  922 
1878 249  36  
1879 247  753 
1880 568  688 
1881 735  844 
1882 779  558 
1883 27   773 
1884 746  663 
1885 309  947 
1886 149  794 
1887 867  557 
1888 245  321 
1889 210  984 
1890 67   609 
1891 301  47  
1892 671  869 
1893 728  805 
1894 732  885 
1895 292  822 
1896 883  451 
1897 280  726 
1898 894  193 
1899 785  627 
1900 107  753 
1901 110  688 
1902 145  988 
1903 77   409 
1904 599  628 
1905 267  65  
1906 710  695 
1907 876  587 
1908 163  176 
1909 914  936 
1910 880  654 
1911 315  349 
1912 10   293 
1913 628  75  
1914 59   848 
1915 741  340 
1916 542  799 
1917 444  814 
1918 600  684 
1919 730  743 
1920 103  555 
1921 458  994 
1922 9    500 
1923 48   350 
1924 251  697 
1925 472  698 
1926 436  797 
1927 290  503 
1928 789  799 
1929 855  18  
1930 565  888 
1931 180  282 
1932 436  908 
1933 403  61  
1934 685  559 
1935 81   299 
1936 158  433 
1937 143  7   
1938 185  501 
1939 5    34  
1940 939  172 
1941 133  125 
1942 214  120 
1943 844  231 
1944 863  261 
1945 332  467 
1946 613  814 
1947 192  582 
1948 501  452 
1949 66   163 
1950 708  630 
1951 907  987 
1952 401  206 
1953 700  934 
1954 22   670 
1955 795  922 
1956 635  91  
1957 198  319 
1958 19   344 
1959 890  135 
1960 374  28  
1961 50   382 
1962 250  38  
1963 964  958 
1964 2    509 
1965 496  426 
1966 912  508 
1967 53   746 
1968 424  38  
1969 779  876 
1970 819  95  
1971 286  844 
1972 494  903 
1973 193  616 
1974 606  4   
1975 809  294 
1976 886  308 
1977 836  521 
1978 892  925 
1979 54   730 
1980 63   664 
1981 707  764 
1982 732  857 
1983 605  197 
1984 789  270 
1985 148  506 
1986 968  383 
1987 954  318 
1988 438  71  
1989 758  540 
1990 318  953 
1991 270  828 
1992 950  162 
1993 510  373 
1994 353  558 
1995 63   975 
1996 589  435 
1997 310  188 
1998 609  349 
1999 172  181 
2000 530  803 
2001 432  778 
2002 954  899 
2003 777  906 
2004 410  881 
2005 656  633 
2006 507  319 
2007 824  491 
2008 198  972 
2009 897  353 
2010 254  600 
2011 609  575 
2012 459  432 
2013 172  987 
2014 873  866 
2015 985  600 
2016 488  384 
2017 532  11  
2018 916  426 
2019 321  288 
2020 564  356 
2021 216  522 
2022 911  241 
2023 492  463 
2024 83   858 
2025 691  539 
2026 507  138 
2027 803  937 
2028 532  361 
2029 860  654 
2030 956  589 
2031 317  389 
2032 86   194 
2033 15   194 
2034 398  254 
2035 570  535 
2036 661  700 
2037 829  298 
2038 216  215 
2039 273  112 
2040 290  846 
2041 772  94  
2042 479  262 
2043 616  344 
2044 728  306 
2045 985  133 
2046 431  227 
2047 397  15  
2048 331  279 
2049 539  234 
2050 307  478 
2051 571  701 
2052 255  444 
2053 566  900 
2054 753  643 
2055 919  108 
2056 938  535 
2057 351  638 
2058 931  674 
2059 956  215 
2060 775  621 
2061 634  489 
2062 653  145 
2063 529  131 
2064 909  231 
2065 897  743 
2066 153  151 
2067 709  394 
2068 304  293 
2069 880  1000
2070 326  970 
2071 789  290 
2072 866  695 
2073 222  523 
2074 907  155 
2075 376  183 
2076 693  646 
2077 555  685 
2078 760  29  
2079 6    871 
2080 529  574 
2081 694  272 
2082 789  4   
2083 332  625 
2084 115  67  
2085 903  124 
2086 395  301 
2087 125  38  
2088 253  465 
2089 720  522 
2090 497  903 
2091 868  658 
2092 449  548 
2093 547  959 
2094 911  390 
2095 200  338 
2096 517  539 
2097 441  72  
2098 556  55  
2099 768  47  
2100 146  655 
2101 94   745 
2102 959  27  
2103 980  998 
2104 933  700 
2105 474  179 
2106 636  491 
2107 432  739 
2108 878  24  
2109 734  936 
2110 716  403 
2111 368  737 
2112 950  613 
2113 350  913 
2114 294  249 
2115 243  739 
2116 990  705 
2117 593  361 
2118 976  383 
2119 333  558 
2120 66   235 
2121 907  995 
2122 398  218 
2123 442  842 
2124 518  699 
2125 497  301 
2126 596  559 
2127 592  318 
2128 38   476 
2129 813  858 
2130 830  840 
2131 464  961 
2132 579  584 
2133 688  865 
2134 731  901 
2135 640  964 
2136 148  911 
2137 9    571 
2138 191  775 
2139 585  532 
2140 141  46  
2141 342  657 
2142 539  103 
2143 170  526 
2144 762  100 
2145 321  618 
2146 589  981 
2147 680  975 
2148 848  645 
2149 795  398 
2150 10   714 
2151 339  122 
2152 620  153 
2153 286  535 
2154 880  822 
2155 610  387 
2156 376  501 
2157 563  779 
2158 858  953 
2159 153  115 
2160 121  295 
2161 943  604 
2162 569  827 
2163 586  251 
2164 533  976 
2165 867  750 
2166 346  503 
2167 237  750 
2168 950  251 
2169 43   445 
2170 138  475 
2171 876  759 
2172 46   563 
2173 881  948 
2174 94   939 
2175 229  124 
2176 362  543 
2177 200  334 
2178 695  371 
2179 775  315 
2180 337  971 
2181 156  393 
2182 376  655 
2183 195  437 
2184 837  526 
2185 272  954 
2186 540  551 
2187 189  591 
2188 122  530 
2189 673  130 
2190 466  640 
2191 972  954 
2192 38   828 
2193 347  399 
2194 535  877 
2195 510  984 
2196 590  488 
2197 955  829 
2198 833  373 
2199 635  193 
2200 855  988 
2201 325  689 
2202 56   474 
2203 905  209 
2204 126  807 
2205 714  547 
2206 658  395 
2207 142  8   
2208 679  355 
2209 75   103 
2210 938  939 
2211 867  3   
2212 244  694 
2213 902  518 
2214 49   896 
2215 551  293 
2216 113  313 
2217 882  764 
2218 579  548 
2219 544  93  
2220 503  580 
2221 472  424 
2222 697  561 
2223 101  973 
2224 781  177 
2225 640  863 
2226 622  629 
2227 933  502 
2228 292  450 
2229 255  116 
2230 616  590 
2231 286  736 
2232 508  816 
2233 287  329 
2234 315  144 
2235 206  443 
2236 614  532 
2237 690  124 
2238 709  288 
2239 883  597 
2240 735  732 
2241 921  304 
2242 120  935 
2243 373  315 
2244 715  608 
2245 296  690 
2246 166  856 
2247 595  438 
2248 318  819 
2249 779  271 
2250 101  385 
2251 654  765 
2252 609  86  
2253 611  672 
2254 396  676 
2255 590  878 
2256 920  278 
2257 152  128 
2258 637  273 
2259 842  583 
2260 627  231 
2261 534  369 
2262 357  90  
2263 431  967 
2264 272  760 
2265 241  497 
2266 629  558 
2267 48   351 
2268 803  705 
2269 953  172 
2270 402  730 
2271 769  322 
2272 424  973 
2273 815  643 
2274 778  400 
2275 213  349 
2276 198  643 
2277 52   221 
2278 570  798 
2279 310  541 
2280 42   407 
2281 285  849 
2282 857  347 
2283 105  734 
2284 846  669 
2285 332  291 
2286 190  833 
2287 178  953 
2288 127  494 
2289 735  239 
2290 51   42  
2291 710  298 
2292 674  756 
2293 51   91  
2294 662  713 
2295 528  685 
2296 657  79  
2297 986  693 
2298 326  178 
2299 731  890 
2300 628  982 
2301 715  337 
2302 205  771 
2303 331  584 
2304 539  47  
2305 630  108 
2306 4    434 
2307 279  232 
2308 322  781 
2309 823  495 
2310 117  248 
2311 822  557 
2312 144  68  
2313 438  826 
2314 594  964 
2315 83   57  
2316 1    382 
2317 970  835 
2318 119  912 
2319 818  271 
2320 749  805 
2321 612  823 
2322 884  60  
2323 386  419 
2324 633  372 
2325 543  163 
2326 266  221 
2327 914  909 
2328 537  126 
2329 186  20  
2330 665  49  
2331 722  66  
2332 443  431 
2333 478  980 
2334 618  115 
2335 964  27  
2336 414  124 
2337 968  94  
2338 251  727 
2339 531  521 
2340 716  571 
2341 238  467 
2342 578  564 
2343 634  872 
2344 910  623 
2345 589  148 
2346 627  481 
2347 350  664 
2348 994  804 
2349 869  100 
2350 273  555 
2351 366  486 
2352 955  647 
2353 740  151 
2354 5    244 
2355 25   718 
2356 155  523 
2357 603  137 
2358 554  351 
2359 57   221 
2360 796  304 
2361 688  393 
2362 262  636 
2363 377  632 
2364 462  804 
2365 605  928 
2366 930  458 
2367 397  731 
2368 161  271 
2369 398  76  
2370 226  879 
2371 835  475 
2372 324  860 
2373 74   651 
2374 900  133 
2375 170  358 
2376 9    828 
2377 778  633 
2378 265  650 
2379 653  635 
2380 964  780 
2381 493  724 
2382 407  228 
2383 762  879 
2384 486  615 
2385 126  718 
2386 682  364 
2387 279  46  
2388 652  516 
2389 528  634 
2390 161  843 
2391 416  520 
2392 19   597 
2393 60   191 
2394 244  908 
2395 101  773 
2396 528  649 
2397 404  700 
2398 813  680 
2399 64   425 
2400 706  536 
2401 18   630 
2402 952  648 
2403 878  778 
2404 443  15  
2405 558  132 
2406 325  495 
2407 128  549 
2408 475  414 
2409 76   939 
2410 221  142 
2411 993  93  
2412 37   443 
2413 334  343 
2414 172  342 
2415 317  667 
2416 603  922 
2417 970  871 
2418 680  129 
2419 719  32  
2420 318  971 
2421 374  967 
2422 805  567 
2423 847  140 
2424 10   363 
2425 798  448 
2426 201  412 
2427 24   387 
2428 43   481 
2429 298  558 
2430 214  394 
2431 949  973 
2432 788  461 
2433 405  891 
2434 674  436 
2435 160  562 
2436 548  461 
2437 55   719 
2438 629  742 
2439 938  368 
2440 702  489 
2441 815  714 
2442 377  826 
2443 768  223 
2444 553  863 
2445 163  647 
2446 312  75  
2447 21   557 
2448 857  497 
2449 12   992 
2450 949  385 
2451 755  462 
2452 441  666 
2453 877  927 
2454 754  170 
2455 796  395 
2456 943  340 
2457 47   771 
2458 104  331 
2459 530  347 
2460 749  101 
2461 956  705 
2462 847  1000
2463 13   768 
2464 990  992 
2465 900  8   
2466 740  719 
2467 28   195 
2468 972  426 
2469 739  433 
2470 317  251 
2471 781  140 
2472 123  692 
2473 587  197 
2474 986  762 
2475 255  83  
2476 245  73  
2477 905  624 
2478 502  424 
2479 782  782 
2480 399  942 
2481 519  937 
2482 169  333 
2483 244  791 
2484 122  375 
2485 931  833 
2486 163  299 
2487 741  890 
2488 999  54  
2489 68   468 
2490 413  655 
2491 434  746 
2492 148  460 
2493 296  727 
2494 426  810 
2495 214  837 
2496 35   114 
2497 515  316 
2498 439  204 
2499 614  218 
2500 561  430 
2501 818  471 
2502 287  936 
2503 915  659 
2504 107  676 
2505 515  333 
2506 914  834 
2507 81   769 
2508 723  430 
2509 393  669 
2510 766  112 
2511 278  532 
2512 319  360 
2513 584  247 
2514 665  410 
2515 205  113 
2516 663  931 
2517 964  226 
2518 177  528 
2519 113  658 
2520 898  528 
2521 350  705 
2522 349  818 
2523 595  582 
2524 172  781 
2525 53   62  
2526 933  718 
2527 128  363 
2528 690  801 
2529 711  585 
2530 533  373 
2531 593  426 
2532 713  785 
2533 368  270 
2534 424  752 
2535 42   67  
2536 703  138 
2537 997  425 
2538 856  531 
2539 670  321 
2540 934  458 
2541 717  986 
2542 863  432 
2543 132  80  
2544 298  376 
2545 227  82  
2546 677  444 
2547 299  606 
2548 890  353 
2549 231  411 
2550 305  541 
2551 285  543 
2552 808  436 
2553 130  704 
2554 499  995 
2555 942  675 
2556 49   528 
2557 359  311 
2558 178  244 
2559 98   63  
2560 364  286 
2561 648  379 
2562 728  9   
2563 398  755 
2564 274  581 
2565 580  653 
2566 490  471 
2567 552  102 
2568 240  754 
2569 210  982 
2570 912  94  
2571 2    970 
2572 75   640 
2573 206  346 
2574 617  529 
2575 524  75  
2576 210  105 
2577 234  99  
2578 236  917 
2579 599  630 
2580 966  707 
2581 996  514 
2582 776  987 
2583 997  855 
2584 525  704 
2585 376  863 
2586 231  739 
2587 430  636 
2588 368  799 
2589 38   669 
2590 548  438 
2591 863  835 
2592 542  172 
2593 48   336 
2594 121  894 
2595 919  962 
2596 794  901 
2597 599  954 
2598 893  345 
2599 368  588 
2600 479  872 
2601 78   511 
2602 544  591 
2603 708  850 
2604 543  659 
2605 731  403 
2606 952  484 
2607 510  874 
2608 317  270 
2609 623  278 
2610 275  230 
2611 220  779 
2612 939  319 
2613 299  668 
2614 617  425 
2615 981  968 
2616 380  449 
2617 423  631 
2618 652  771 
2619 658  492 
2620 164  613 
2621 436  450 
2622 700  535 
2623 240  195 
2624 867  62  
2625 868  461 
2626 227  479 
2627 999  549 
2628 505  225 
2629 655  297 
2630 783  356 
2631 587  431 
2632 643  465 
2633 294  883 
2634 459  816 
2635 282  795 
2636 304  767 
2637 57   749 
2638 867  284 
2639 580  963 
2640 248  428 
2641 448  190 
2642 247  550 
2643 457  416 
2644 938  561 
2645 334  606 
2646 95   498 
2647 597  860 
2648 581  423 
2649 871  333 
2650 965  792 
2651 573  195 
2652 41   946 
2653 975  211 
2654 558  873 
2655 614  561 
2656 410  153 
2657 340  346 
2658 487  469 
2659 805  816 
2660 992  793 
2661 120  964 
2662 893  727 
2663 295  631 
2664 84   726 
2665 585  111 
2666 529  967 
2667 440  954 
2668 393  580 
2669 67   381 
2670 215  301 
2671 401  945 
2672 225  505 
2673 867  950 
2674 428  186 
2675 910  850 
2676 519  458 
2677 388  600 
2678 557  147 
2679 686  457 
2680 428  329 
2681 780  950 
2682 380  946 
2683 998  510 
2684 671  300 
2685 214  329 
2686 108  836 
2687 452  470 
2688 95   606 
2689 404  273 
2690 137  442 
2691 997  190 
2692 391  629 
2693 341  954 
2694 548  648 
2695 878  147 
2696 751  899 
2697 471  715 
2698 20   353 
2699 617  363 
2700 265  94  
2701 88   599 
2702 820  776 
2703 323  464 
2704 716  361 
2705 241  79  
2706 276  954 
2707 385  725 
2708 759  261 
2709 967  824 
2710 91   973 
2711 421  212 
2712 424  712 
2713 386  621 
2714 496  155 
2715 579  816 
2716 190  915 
2717 691  650 
2718 454  804 
2719 934  18  
2720 155  473 
2721 299  521 
2722 873  700 
2723 910  91  
2724 472  67  
2725 809  836 
2726 442  807 
2727 977  654 
2728 619  557 
2729 620  258 
2730 160  288 
2731 531  275 
2732 736  783 
2733 553  335 
2734 826  989 
2735 350  503 
2736 173  614 
2737 231  304 
2738 143  590 
2739 516  212 
2740 165  898 
2741 279  158 
2742 248  456 
2743 728  82  
2744 754  730 
2745 832  48  
2746 978  742 
2747 562  489 
2748 121  47  
2749 321  573 
2750 586  483 
2751 549  253 
2752 992  950 
2753 663  101 
2754 496  517 
2755 741  837 
2756 62   884 
2757 373  321 
2758 11   706 
2759 876  344 
2760 248  21  
2761 525  469 
2762 637  517 
2763 177  47  
2764 140  949 
2765 128  981 
2766 712  819 
2767 948  915 
2768 589  627 
2769 861  462 
2770 572  775 
2771 741  648 
2772 290  232 
2773 186  41  
2774 372  348 
2775 926  421 
2776 341  651 
2777 323  112 
2778 399  303 
2779 741  362 
2780 779  133 
2781 543  420 
2782 232  182 
2783 949  893 
2784 896  103 
2785 803  267 
2786 773  431 
2787 21   330 
2788 497  790 
2789 668  667 
2790 815  868 
2791 105  345 
2792 949  238 
2793 195  360 
2794 398  271 
2795 648  550 
2796 351  341 
2797 564  378 
2798 712  429 
2799 983  368 
2800 68   521 
2801 877  781 
2802 699  697 
2803 744  94  
2804 726  210 
2805 929  956 
2806 933  924 
2807 455  72  
2808 810  105 
2809 756  813 
2810 8    419 
2811 284  80  
2812 838  523 
2813 195  535 
2814 749  100 
2815 342  858 
2816 322  287 
2817 551  434 
2818 645  185 
2819 868  310 
2820 501  299 
2821 892  428 
2822 386  659 
2823 922  577 
2824 377  486 
2825 786  400 
2826 572  385 
2827 723  535 
2828 406  449 
2829 153  565 
2830 623  770 
2831 643  182 
2832 369  715 
2833 301  294 
2834 176  577 
2835 349  58  
2836 991  767 
2837 135  931 
2838 710  29  
2839 235  191 
2840 295  729 
2841 469  882 
2842 418  740 
2843 439  94  
2844 775  736 
2845 172  315 
2846 872  887 
2847 945  253 
2848 729  678 
2849 970  664 
2850 332  689 
2851 45   84  
2852 33   628 
2853 72   206 
2854 498  280 
2855 318  631 
2856 500  894 
2857 138  473 
2858 229  408 
2859 181  293 
2860 423  296 
2861 408  127 
2862 376  947 
2863 162  50  
2864 396  992 
2865 702  680 
2866 391  671 
2867 968  230 
2868 177  608 
2869 252  60  
2870 397  943 
2871 881  660 
2872 609  613 
2873 243  419 
2874 523  309 
2875 75   315 
2876 366  270 
2877 556  714 
2878 373  562 
2879 100  862 
2880 229  574 
2881 290  914 
2882 973  431 
2883 593  331 
2884 190  939 
2885 161  679 
2886 147  884 
2887 118  153 
2888 355  249 
2889 981  21  
2890 361  884 
2891 877  164 
2892 960  272 
2893 598  262 
2894 250  112 
2895 378  941 
2896 820  260 
2897 22   834 
2898 994  115 
2899 478  128 
2900 645  447 
2901 1000 896 
2902 88   250 
2903 861  961 
2904 473  512 
2905 918  264 
2906 719  423 
2907 424  220 
2908 633  802 
2909 774  952 
2910 706  558 
2911 157  986 
2912 266  739 
2913 191  906 
2914 35   418 
2915 405  284 
2916 728  953 
2917 145  695 
2918 365  788 
2919 838  221 
2920 624  329 
2921 988  234 
2922 514  191 
2923 525  285 
2924 932  481 
2925 512  563 
2926 766  2   
2927 685  104 
2928 794  369 
2929 101  353 
2930 251  604 
2931 971  839 
2932 76   545 
2933 208  361 
2934 620  722 
2935 972  619 
2936 974  489 
2937 869  253 
2938 214  290 
2939 436  792 
2940 988  733 
2941 76   263 
2942 755  250 
2943 845  68  
2944 638  645 
2945 971  562 
2946 989  805 
2947 264  792 
2948 764  235 
2949 857  447 
2950 674  223 
2951 311  930 
2952 493  59  
2953 976  27  
2954 833  422 
2955 613  986 
2956 100  227 
2957 651  757 
2958 373  534 
2959 66   190 
2960 268  934 
2961 527  479 
2962 75   436 
2963 661  677 
2964 424  380 
2965 852  612 
2966 236  129 
2967 697  369 
2968 551  378 
2969 625  102 
2970 643  579 
2971 481  750 
2972 843  56  
2973 553  338 
2974 535  710 
2975 490  647 
2976 198  220 
2977 183  680 
2978 900  336 
2979 209  985 
2980 155  139 
2981 212  72  
2982 931  570 
2983 736  578 
2984 424  184 
2985 995  675 
2986 562  450 
2987 620  76  
2988 932  208 
2989 780  412 
2990 272  139 
2991 805  831 
2992 239  599 
2993 295  737 
2994 900  517 
2995 775  667 
2996 840  478 
2997 513  424 
2998 567  789 
2999 784  118 
3000 469  810 
3001 571  350 
3002 75   687 
3003 353  833 
3004 211  351 
3005 987  398 
3006 534  49  
3007 590  729 
3008 332  761 
3009 340  936 
3010 825  584 
3011 58   89  
3012 957  807 
3013 85   768 
3014 682  722 
3015 632  173 
3016 566  96  
3017 966  974 
3018 480  537 
3019 82   709 
3020 603  493 
3021 15   267 
3022 881  707 
3023 915  793 
3024 181  63  
3025 613  28  
3026 686  680 
3027 854  286 
3028 159  744 
3029 668  598 
3030 775  402 
3031 333  293 
3032 13   679 
3033 669  60  
3034 104  194 
3035 602  65  
3036 655  249 
3037 469  86  
3038 74   550 
3039 369  226 
3040 541  226 
3041 319  756 
3042 599  300 
3043 748  938 
3044 52   977 
3045 471  921 
3046 528  862 
3047 781  388 
3048 677  371 
3049 770  695 
3050 735  205 
3051 847  903 
3052 647  779 
3053 47   79  
3054 14   444 
3055 252  927 
3056 274  345 
3057 701  222 
3058 170  646 
3059 944  893 
3060 250  168 
3061 144  885 
3062 344  173 
3063 255  441 
3064 202  55  
3065 37   246 
3066 23   39  
3067 188  102 
3068 903  663 
3069 614  752 
3070 47   429 
3071 107  126 
3072 731  856 
3073 184  645 
3074 956  99  
3075 991  666 
3076 478  491 
3077 690  179 
3078 50   210 
3079 527  612 
3080 987  863 
3081 505  335 
3082 128  648 
3083 917  632 
3084 365  843 
3085 442  344 
3086 704  123 
3087 947  401 
3088 40   339 
3089 46   457 
3090 163  111 
3091 914  717 
3092 131  717 
3093 558  100 
3094 577  525 
3095 618  179 
3096 564  993 
3097 324  58  
3098 179  729 
3099 399  520 
3100 76   651 
3101 438  38  
3102 79   304 
3103 266  255 
3104 581  990 
3105 432  203 
3106 716  891 
3107 793  198 
3108 116  811 
3109 577  815 
3110 512  362 
3111 128  99  
3112 257  257 
3113 556  163 
3114 479  636 
3115 806  735 
3116 494  91  
3117 674  37  
3118 708  772 
3119 48   744 
3120 11   508 
3121 798  898 
3122 181  900 
3123 399  125 
3124 219  369 
3125 788  156 
3126 632  534 
3127 138  969 
3128 964  573 
3129 532  153 
3130 950  632 
3131 367  542 
3132 373  605 
3133 941  795 
3134 526  955 
3135 483  53  
3136 587  699 
3137 825  258 
3138 809  645 
3139 937  472 
3140 369  142 
3141 77   597 
3142 653  524 
3143 934  63  
3144 665  794 
3145 332  357 
3146 152  963 
3147 385  978 
3148 528  954 
3149 156  923 
3150 874  820 
3151 558  746 
3152 875  418 
3153 412  700 
3154 899  178 
3155 518  984 
3156 631  865 
3157 429  991 
3158 175  143 
3159 140  278 
3160 966  142 
3161 754  620 
3162 188  10  
3163 852  225 
3164 448  231 
3165 653  976 
3166 801  677 
3167 70   98  
3168 700  429 
3169 791  70  
3170 408  533 
3171 170  924 
3172 279  274 
3173 559  474 
3174 781  108 
3175 675  761 
3176 965  991 
3177 819  265 
3178 576  18  
3179 206  461 
3180 297  535 
3181 335  235 
3182 822  747 
3183 435  641 
3184 738  314 
3185 991  924 
3186 315  87  
3187 980  355 
3188 638  323 
3189 127  730 
3190 510  214 
3191 718  475 
3192 149  996 
3193 188  590 
3194 44   254 
3195 806  910 
3196 751  262 
3197 55   271 
3198 996  511 
3199 300  438 
3200 301  907 
3201 858  504 
3202 12   578 
3203 159  509 
3204 720  489 
3205 385  336 
3206 3    769 
3207 501  936 
3208 376  547 
3209 358  599 
3210 837  634 
3211 829  826 
3212 910  549 
3213 967  588 
3214 254  663 
3215 76   371 
3216 522  21  
3217 209  278 
3218 502  701 
3219 756  620 
3220 151  752 
3221 371  518 
3222 651  712 
3223 601  933 
3224 259  691 
3225 226  674 
3226 104  282 
3227 469  14  
3228 900  200 
3229 497  381 
3230 830  9   
3231 155  275 
3232 247  137 
3233 605  791 
3234 507  804 
3235 199  42  
3236 147  887 
3237 728  382 
3238 714  945 
3239 307  125 
3240 142  190 
3241 753  925 
3242 986  954 
3243 352  594 
3244 374  423 
3245 571  649 
3246 365  608 
3247 187  640 
3248 340  98  
3249 253  671 
3250 903  735 
3251 425  676 
3252 305  846 
3253 583  375 
3254 468  270 
3255 179  853 
3256 1    629 
3257 315  149 
3258 832  121 
3259 409  216 
3260 463  21  
3261 527  604 
3262 107  471 
3263 295  764 
3264 629  70  
3265 408  480 
3266 563  872 
3267 430  817 
3268 384  409 
3269 20   565 
3270 594  878 
3271 851  37  
3272 945  24  
3273 927  408 
3274 804  213 
3275 111  741 
3276 609  107 
3277 864  424 
3278 885  270 
3279 690  300 
3280 215  267 
3281 500  851 
3282 358  273 
3283 508  358 
3284 402  567 
3285 664  798 
3286 717  342 
3287 21   431 
3288 519  480 
3289 557  173 
3290 870  444 
3291 393  776 
3292 105  246 
3293 395  374 
3294 599  967 
3295 52   442 
3296 203  574 
3297 811  191 
3298 314  509 
3299 946  922 
3300 67   223 
3301 565  836 
3302 329  996 
3303 720  243 
3304 651  871 
3305 356  231 
3306 753  381 
3307 971  386 
3308 535  797 
3309 789  765 
3310 702  310 
3311 223  337 
3312 62   81  
3313 65   851 
3314 161  352 
3315 252  295 
3316 532  337 
3317 459  71  
3318 612  7   
3319 85   129 
3320 97   723 
3321 259  316 
3322 596  755 
3323 787  242 
3324 437  949 
3325 709  973 
3326 925  640 
3327 305  575 
3328 748  869 
3329 951  896 
3330 862  229 
3331 991  387 
3332 198  221 
3333 515  813 
3334 398  947 
3335 778  821 
3336 601  494 
3337 178  105 
3338 35   496 
3339 438  543 
3340 790  352 
3341 974  765 
3342 847  369 
3343 259  248 
3344 518  819 
3345 460  815 
3346 62   719 
3347 875  136 
3348 503  843 
3349 697  812 
3350 948  667 
3351 272  140 
3352 495  952 
3353 187  507 
3354 663  432 
3355 463  414 
3356 373  284 
3357 129  422 
3358 337  315 
3359 672  988 
3360 818  266 
3361 89   894 
3362 605  114 
3363 292  933 
3364 572  893 
3365 457  994 
3366 817  66  
3367 157  481 
3368 712  872 
3369 729  782 
3370 604  398 
3371 58   102 
3372 68   83  
3373 769  16  
3374 765  110 
3375 234  502 
3376 785  782 
3377 327  599 
3378 385  408 
3379 379  268 
3380 696  570 
3381 12   665 
3382 570  223 
3383 474  40  
3384 91   176 
3385 459  436 
3386 793  436 
3387 668  544 
3388 156  460 
3389 707  491 
3390 963  885 
3391 111  403 
3392 366  340 
3393 596  817 
3394 217  996 
3395 536  880 
3396 350  840 
3397 597  329 
3398 798  720 
3399 416  958 
3400 973  630 
3401 833  163 
3402 344  400 
3403 271  481 
3404 815  228 
3405 523  824 
3406 669  718 
3407 264  369 
3408 959  564 
3409 322  475 
3410 325  936 
3411 429  617 
3412 771  258 
3413 773  688 
3414 758  406 
3415 1000 586 
3416 52   615 
3417 606  202 
3418 718  768 
3419 866  15  
3420 313  885 
3421 481  491 
3422 541  549 
3423 49   687 
3424 526  395 
3425 880  191 
3426 165  738 
3427 44   501 
3428 98   711 
3429 118  642 
3430 46   95  
3431 619  107 
3432 837  176 
3433 303  628 
3434 987  719 
3435 852  275 
3436 46   462 
3437 585  184 
3438 896  573 
3439 336  586 
3440 245  694 
3441 543  243 
3442 945  32  
3443 862  575 
3444 663  698 
3445 704  393 
3446 922  368 
3447 897  54  
3448 558  327 
3449 872  586 
3450 300  467 
3451 564  768 
3452 271  754 
3453 807  412 
3454 708  103 
3455 200  342 
3456 312  368 
3457 189  694 
3458 826  345 
3459 60   837 
3460 498  182 
3461 543  708 
3462 163  648 
3463 650  154 
3464 834  943 
3465 997  289 
3466 320  553 
3467 527  368 
3468 644  444 
3469 203  804 
3470 172  729 
3471 377  537 
3472 467  667 
3473 891  147 
3474 164  729 
3475 74   603 
3476 866  495 
3477 95   112 
3478 924  98  
3479 47   253 
3480 86   349 
3481 269  147 
3482 606  388 
3483 942  650 
3484 584  854 
3485 344  27  
3486 900  410 
3487 151  0   
3488 282  849 
3489 653  894 
3490 529  432 
3491 468  132 
3492 876  9   
3493 32   904 
3494 678  275 
3495 684  852 
3496 205  887 
3497 999  845 
3498 305  801 
3499 519  938 
3500 331  533 
3501 174  61  
3502 364  475 
3503 202  266 
3504 993  13  
3505 830  648 
3506 486  66  
3507 969  100 
3508 301  87  
3509 306  431 
3510 183  87  
3511 261  761 
3512 922  293 
3513 604  455 
3514 881  846 
3515 438  3   
3516 427  798 
3517 546  456 
3518 589  486 
3519 291  319 
3520 759  794 
3521 261  411 
3522 797  761 
3523 929  417 
3524 935  335 
3525 992  271 
3526 276  56  
3527 833  781 
3528 967  702 
3529 470  882 
3530 471  431 
3531 807  273 
3532 42   669 
3533 846  201 
3534 704  802 
3535 470  237 
3536 733  681 
3537 661  316 
3538 593  30  
3539 906  181 
3540 281  640 
3541 104  125 
3542 503  111 
3543 52   197 
3544 981  832 
3545 588  358 
3546 790  942 
3547 661  542 
3548 848  251 
3549 226  675 
3550 373  560 
3551 155  357 
3552 88   640 
3553 216  373 
3554 752  615 
3555 164  765 
3556 169  833 
3557 35   872 
3558 307  207 
3559 792  577 
3560 445  101 
3561 212  336 
3562 530  205 
3563 553  372 
3564 302  321 
3565 378  939 
3566 13   178 
3567 783  434 
3568 714  769 
3569 288  415 
3570 978  906 
3571 795  64  
3572 279  83  
3573 815  13  
3574 981  373 
3575 931  512 
3576 279  192 
3577 763  421 
3578 156  525 
3579 586  470 
3580 608  610 
3581 979  253 
3582 64   404 
3583 512  888 
3584 857  729 
3585 685  307 
3586 558  195 
3587 357  898 
3588 619  51  
3589 1    278 
3590 755  531 
3591 239  418 
3592 336  899 
3593 150  177 
3594 335  895 
3595 46   262 
3596 236  912 
3597 936  998 
3598 3    561 
3599 738  590 
3600 724  909 
3601 409  874 
3602 637  700 
3603 943  749 
3604 103  320 
3605 585  449 
3606 395  395 
3607 883  228 
3608 387  831 
3609 512  676 
3610 177  343 
3611 250  903 
3612 927  185 
3613 898  465 
3614 438  414 
3615 941  269 
3616 444  811 
3617 584  22  
3618 931  267 
3619 725  811 
3620 565  722 
3621 994  796 
3622 198  884 
3623 15   422 
3624 199  453 
3625 418  428 
3626 630  875 
3627 752  677 
3628 713  673 
3629 327  289 
3630 955  748 
3631 61   661 
3632 562  858 
3633 156  143 
3634 674  844 
3635 125  558 
3636 401  304 
3637 256  605 
3638 636  158 
3639 234  998 
3640 787  132 
3641 734  759 
3642 882  826 
3643 187  848 
3644 773  953 
3645 763  5   
3646 49   855 
3647 817  941 
3648 434  267 
3649 36   555 
3650 806  51  
3651 772  103 
3652 296  312 
3653 297  1   
3654 652  653 
3655 155  111 
3656 501  225 
3657 781  495 
3658 389  561 
3659 322  500 
3660 967  4   
3661 473  832 
3662 240  85  
3663 532  662 
3664 536  721 
3665 813  559 
3666 175  326 
3667 531  470 
3668 593  881 
3669 724  493 
3670 874  446 
3671 953  965 
3672 273  459 
3673 221  53  
3674 41   951 
3675 171  768 
3676 776  446 
3677 153  781 
3678 166  670 
3679 447  983 
3680 232  882 
3681 323  605 
3682 395  888 
3683 178  328 
3684 201  57  
3685 562  34  
3686 453  339 
3687 366  588 
3688 40   264 
3689 788  727 
3690 663  657 
3691 701  606 
3692 386  447 
3693 871  786 
3694 638  235 
3695 33   562 
3696 362  814 
3697 400  527 
3698 664  972 
3699 662  363 
3700 945  997 
3701 513  249 
3702 399  468 
3703 771  673 
3704 48   480 
3705 945  886 
3706 485  181 
3707 530  796 
3708 11   244 
3709 489  306 
3710 234  503 
3711 128  8   
3712 771  718 
3713 479  939 
3714 767  688 
3715 471  343 
3716 509  640 
3717 938  408 
3718 367  806 
3719 630  964 
3720 461  285 
3721 483  317 
3722 73   877 
3723 94   641 
3724 321  315 
3725 527  287 
3726 697  64  
3727 806  482 
3728 330  571 
3729 367  516 
3730 705  733 
3731 298  29  
3732 333  692 
3733 851  971 
3734 856  607 
3735 946  737 
3736 66   17  
3737 325  740 
3738 213  95  
3739 195  572 
3740 342  829 
3741 972  220 
3742 494  616 
3743 597  313 
3744 173  833 
3745 28   68  
3746 48   778 
3747 910  94  
3748 182  945 
3749 203  502 
3750 666  962 
3751 956  680 
3752 338  659 
3753 113  453 
3754 352  539 
3755 717  705 
3756 425  961 
3757 947  68  
3758 288  455 
3759 622  582 
3760 878  556 
3761 184  536 
3762 719  488 
3763 296  50  
3764 701  77  
3765 297  287 
3766 170  535 
3767 391  445 
3768 47   431 
3769 503  697 
3770 987  800 
3771 162  903 
3772 606  90  
3773 914  406 
3774 936  98  
3775 883  755 
3776 350  276 
3777 169  341 
3778 524  857 
3779 966  66  
3780 771  176 
3781 370  885 
3782 10   674 
3783 175  440 
3784 412  798 
3785 783  825 
3786 440  891 
3787 554  723 
3788 520  607 
3789 745  528 
3790 693  784 
3791 34   431 
3792 569  802 
3793 721  559 
3794 888  488 
3795 979  915 
3796 33   621 
3797 582  284 
3798 984  571 
3799 720  737 
3800 883  303 
3801 989  310 
3802 701  610 
3803 760  34  
3804 371  67  
3805 962  674 
3806 430  584 
3807 289  692 
3808 326  745 
3809 223  839 
3810 78   126 
3811 335  597 
3812 712  20  
3813 471  21  
3814 290  86  
3815 185  884 
3816 295  203 
3817 668  871 
3818 686  488 
3819 252  164 
3820 362  548 
3821 253  349 
3822 426  281 
3823 389  403 
3824 824  396 
3825 734  883 
3826 788  47  
3827 243  456 
3828 190  193 
3829 651  849 
3830 543  711 
3831 376  743 
3832 746  465 
3833 214  219 
3834 308  148 
3835 933  679 
3836 39   36  
3837 223  283 
3838 260  279 
3839 647  677 
3840 940  433 
3841 656  888 
3842 270  200 
3843 972  994 
3844 705  697 
3845 190  35  
3846 412  105 
3847 661  618 
3848 22   744 
3849 208  782 
3850 619  748 
3851 657  975 
3852 213  115 
3853 485  766 
3854 515  569 
3855 878  383 
3856 678  935 
3857 702  41  
3858 612  175 
3859 874  818 
3860 446  747 
3861 951  858 
3862 151  146 
3863 647  873 
3864 959  555 
3865 658  66  
3866 217  274 
3867 126  750 
3868 499  952 
3869 922  767 
3870 45   636 
3871 706  342 
3872 154  357 
3873 434  53  
3874 532  846 
3875 278  130 
3876 743  506 
3877 482  809 
3878 322  881 
3879 417  735 
3880 838  101 
3881 383  328 
3882 737  918 
3883 6    651 
3884 671  655 
3885 309  970 
3886 291  115 
3887 789  464 
3888 793  789 
3889 266  959 
3890 908  450 
3891 676  102 
3892 931  931 
3893 272  356 
3894 54   822 
3895 242  558 
3896 370  635 
3897 650  537 
3898 79   353 
3899 524  50  
3900 104  531 
3901 751  403 
3902 935  616 
3903 936  922 
3904 409  830 
3905 48   74  
3906 16   1000
3907 110  504 
3908 662  275 
3909 885  586 
3910 746  128 
3911 603  265 
3912 158  18  
3913 487  930 
3914 457  667 
3915 354  809 
3916 688  9   
3917 87   9   
3918 253  353 
3919 806  761 
3920 751  230 
3921 833  701 
3922 794  941 
3923 102  590 
3924 983  51  
3925 843  580 
3926 57   63  
3927 739  567 
3928 132  431 
3929 940  262 
3930 81   449 
3931 635  998 
3932 368  691 
3933 384  648 
3934 522  994 
3935 445  785 
3936 411  865 
3937 436  212 
3938 100  857 
3939 749  180 
3940 679  137 
3941 265  373 
3942 835  407 
3943 75   26  
3944 991  24  
3945 577  252 
3946 479  308 
3947 799  853 
3948 87   659 
3949 458  241 
3950 792  753 
3951 596  447 
3952 407  40  
3953 544  82  
3954 946  282 
3955 981  131 
3956 182  744 
3957 143  530 
3958 863  227 
3959 113  397 
3960 155  160 
3961 264  409 
3962 526  465 
3963 396  142 
3964 867  373 
3965 317  908 
3966 49   758 
3967 178  466 
3968 511  170 
3969 421  702 
3970 836  531 
3971 802  671 
3972 867  595 
3973 45   915 
3974 675  356 
3975 469  787 
3976 310  281 
3977 510  97  
3978 975  25  
3979 888  433 
3980 872  854 
3981 343  323 
3982 948  935 
3983 438  125 
3984 292  899 
3985 21   203 
3986 776  880 
3987 372  241 
3988 263  2   
3989 733  200 
3990 163  182 
3991 332  551 
3992 150  400 
3993 462  486 
3994 286  48  
3995 180  595 
3996 272  622 
3997 348  281 
3998 78   182 
3999 262  73  
4000 824  614 
4001 935  370 
4002 59   711 
4003 775  133 
4004 82   732 
4005 547  890 
4006 63   4   
4007 436  906 
4008 860  386 
4009 863  621 
4010 80   84  
4011 831  3   
4012 688  275 
4013 483  145 
4014 946  875 
4015 264  795 
4016 461  457 
4017 925  90  
4018 311  959 
4019 522  902 
4020 855  782 
4021 843  846 
4022 271  233 
4023 561  709 
4024 627  580 
4025 131  491 
4026 459  982 
4027 498  560 
4028 502  40  
4029 948  178 
4030 587  466 
4031 869  912 
4032 778  977 
4033 925  670 
4034 321  922 
4035 411  24  
4036 14   423 
4037 878  678 
4038 772  247 
4039 717  732 
4040 847  605 
4041 499  963 
4042 688  814 
4043 729  182 
4044 268  278 
4045 326  36  
4046 558  915 
4047 705  173 
4048 795  47  
4049 616  512 
4050 856  47  
4051 514  461 
4052 397  199 
4053 880  149 
4054 993  362 
4055 762  153 
4056 176  524 
4057 652  323 
4058 377  253 
4059 196  583 
4060 503  837 
4061 71   385 
4062 478  413 
4063 614  565 
4064 440  864 
4065 58   659 
4066 63   646 
4067 193  652 
4068 819  752 
4069 384  359 
4070 735  588 
4071 809  458 
4072 991  982 
4073 386  269 
4074 633  142 
4075 131  722 
4076 706  834 
4077 305  219 
4078 324  193 
4079 676  958 
4080 624  455 
4081 662  249 
4082 974  191 
4083 281  146 
4084 216  980 
4085 90   949 
4086 966  946 
4087 96   270 
4088 500  544 
4089 564  733 
4090 696  589 
4091 713  401 
4092 327  593 
4093 901  642 
4094 12   667 
4095 38   927 
4096 609  561 
4097 522  88  
4098 122  740 
4099 871  721 
4100 802  440 
4101 626  148 
4102 293  547 
4103 916  432 
4104 129  514 
4105 366  491 
4106 185  426 
4107 958  815 
4108 467  784 
4109 319  787 
4110 583  582 
4111 160  888 
4112 734  950 
4113 679  115 
4114 38   889 
4115 111  413 
4116 649  420 
4117 341  152 
4118 605  955 
4119 142  939 
4120 470  500 
4121 803  943 
4122 735  296 
4123 886  908 
4124 133  236 
4125 282  566 
4126 32   17  
4127 930  566 
4128 750  175 
4129 803  828 
4130 960  701 
4131 703  351 
4132 613  733 
4133 155  477 
4134 230  819 
4135 346  544 
4136 619  545 
4137 230  898 
4138 875  443 
4139 433  620 
4140 52   754 
4141 477  891 
4142 117  276 
4143 675  992 
4144 748  218 
4145 178  184 
4146 239  801 
4147 700  277 
4148 516  208 
4149 874  512 
4150 435  392 
4151 914  407 
4152 154  32  
4153 357  743 
4154 714  56  
4155 75   622 
4156 480  158 
4157 904  528 
4158 433  40  
4159 213  756 
4160 36   147 
4161 720  964 
4162 277  151 
4163 41   547 
4164 278  944 
4165 757  503 
4166 372  11  
4167 687  476 
4168 743  4   
4169 653  284 
4170 512  976 
4171 858  862 
4172 305  118 
4173 942  155 
4174 269  531 
4175 766  383 
4176 227  776 
4177 36   226 
4178 438  138 
4179 953  563 
4180 249  546 
4181 141  682 
4182 950  128 
4183 760  914 
4184 589  337 
4185 902  438 
4186 7    214 
4187 210  478 
4188 104  869 
4189 177  751 
4190 327  565 
4191 879  504 
4192 806  722 
4193 702  515 
4194 725  994 
4195 617  41  
4196 523  188 
4197 525  998 
4198 410  863 
4199 342  402 
4200 859  100 
4201 271  914 
4202 536  1   
4203 39   86  
4204 261  232 
4205 266  318 
4206 252  395 
4207 698  285 
4208 517  807 
4209 385  644 
4210 725  708 
4211 213  272 
4212 985  303 
4213 485  539 
4214 18   350 
4215 237  106 
4216 311  999 
4217 419  997 
4218 982  76  
4219 397  762 
4220 881  95  
4221 991  150 
4222 226  780 
4223 298  129 
4224 672  158 
4225 446  281 
4226 673  331 
4227 584  634 
4228 821  883 
4229 770  743 
4230 293  394 
4231 938  945 
4232 622  769 
4233 786  125 
4234 644  99  
4235 425  915 
4236 450  614 
4237 911  663 
4238 296  128 
4239 630  143 
4240 499  955 
4241 131  193 
4242 889  263 
4243 117  488 
4244 819  108 
4245 729  238 
4246 13   29  
4247 999  847 
4248 467  70  
4249 620  0   
4250 804  335 
4251 607  282 
4252 886  455 
4253 117  10  
4254 690  82  
4255 946  40  
4256 340  303 
4257 991  520 
4258 667  846 
4259 282  480 
4260 961  557 
4261 653  175 
4262 177  254 
4263 440  792 
4264 457  862 
4265 679  927 
4266 956  352 
4267 908  451 
4268 128  949 
4269 440  903 
4270 646  587 
4271 276  373 
4272 599  617 
4273 620  964 
4274 659  812 
4275 713  254 
4276 168  549 
4277 799  8   
4278 747  459 
4279 323  963 
4280 197  934 
4281 737  337 
4282 958  683 
4283 741  313 
4284 560  246 
4285 462  314 
4286 872  311 
4287 928  761 
4288 765  20  
4289 911  480 
4290 733  566 
4291 350  714 
4292 703  834 
4293 1000 155 
4294 0    187 
4295 751  86  
4296 294  317 
4297 760  763 
4298 595  570 
4299 593  429 
4300 924  819 
4301 677  581 
4302 473  479 
4303 809  597 
4304 185  339 
4305 705  644 
4306 119  46  
4307 321  147 
4308 764  417 
4309 838  984 
4310 269  467 
4311 52   997 
4312 640  745 
4313 694  604 
4314 716  60  
4315 40   549 
4316 169  839 
4317 21   814 
4318 351  107 
4319 668  191 
4320 890  507 
4321 869  746 
4322 782  179 
4323 571  940 
4324 950  869 
4325 536  985 
4326 203  32  
4327 60   431 
4328 523  757 
4329 601  245 
4330 985  86  
4331 952  777 
4332 645  298 
4333 204  974 
4334 41   46  
4335 833  26  
4336 895  844 
4337 201  848 
4338 97   775 
4339 421  347 
4340 83   340 
4341 136  709 
4342 875  272 
4343 912  294 
4344 732  703 
4345 364  283 
4346 982  903 
4347 148  655 
4348 650  841 
4349 16   9   
4350 549  177 
4351 55   168 
4352 440  837 
4353 864  333 
4354 904  552 
4355 546  665 
4356 619  53  
4357 310  286 
4358 25   414 
4359 499  467 
4360 82   153 
4361 6    519 
4362 249  760 
4363 931  94  
4364 624  476 
4365 804  208 
4366 23   556 
4367 337  365 
4368 853  877 
4369 231  649 
4370 508  498 
4371 71   992 
4372 510  320 
4373 828  701 
4374 573  638 
4375 334  178 
4376 929  466 
4377 950  72  
4378 797  731 
4379 745  154 
4380 581  804 
4381 567  497 
4382 0    121 
4383 777  919 
4384 261  270 
4385 447  87  
4386 622  419 
4387 821  326 
4388 306  917 
4389 586  733 
4390 954  857 
4391 371  713 
4392 9    334 
4393 907  357 
4394 926  131 
4395 513  814 
4396 381  416 
4397 272  924 
4398 886  647 
4399 872  49  
4400 217  796 
4401 365  108 
4402 919  703 
4403 406  982 
4404 61   659 
4405 959  174 
4406 985  359 
4407 911  11  
4408 551  16  
4409 419  957 
4410 590  462 
4411 316  967 
4412 501  461 
4413 561  708 
4414 7    738 
4415 657  517 
4416 169  163 
4417 908  658 
4418 195  979 
4419 217  175 
4420 198  310 
4421 278  510 
4422 226  935 
4423 151  868 
4424 463  950 
4425 587  418 
4426 348  630 
4427 496  417 
4428 64   165 
4429 9    740 
4430 191  756 
4431 503  550 
4432 143  625 
4433 438  611 
4434 457  474 
4435 114  963 
4436 667  123 
4437 559  185 
4438 248  433 
4439 190  564 
4440 672  275 
4441 981  279 
4442 724  376 
4443 369  663 
4444 370  847 
4445 740  881 
4446 637  907 
4447 927  347 
4448 496  621 
4449 196  358 
4450 326  993 
4451 239  448 
4452 22   430 
4453 179  705 
4454 325  279 
4455 885  495 
4456 7    463 
4457 907  197 
4458 715  864 
4459 935  563 
4460 609  485 
4461 10   192 
4462 500  690 
4463 506  819 
4464 485  34  
4465 664  893 
4466 112  906 
4467 284  534 
4468 394  242 
4469 655  513 
4470 971  756 
4471 78   258 
4472 189  687 
4473 100  478 
4474 17   774 
4475 803  739 
4476 665  710 
4477 691  834 
4478 530  572 
4479 733  751 
4480 972  873 
4481 826  307 
4482 846  950 
4483 686  799 
4484 63   392 
4485 651  644 
4486 198  737 
4487 471  695 
4488 679  114 
4489 167  350 
4490 868  57  
4491 948  113 
4492 566  416 
4493 199  201 
4494 682  165 
4495 791  517 
4496 687  724 
4497 482  479 
4498 561  736 
4499 181  767 
4500 22   701 
4501 4    88  
4502 498  597 
4503 240  228 
4504 597  168 
4505 134  862 
4506 36   728 
4507 607  3   
4508 809  984 
4509 807  637 
4510 554  157 
4511 597  25  
4512 210  742 
4513 762  75  
4514 269  991 
4515 456  698 
4516 330  223 
4517 679  660 
4518 22   249 
4519 10   721 
4520 266  679 
4521 247  694 
4522 840  512 
4523 418  618 
4524 455  965 
4525 245  401 
4526 214  960 
4527 766  749 
4528 969  77  
4529 988  319 
4530 839  611 
4531 951  421 
4532 148  566 
4533 224  148 
4534 477  318 
4535 22   475 
4536 331  840 
4537 442  215 
4538 634  355 
4539 581  184 
4540 895  344 
4541 272  378 
4542 646  620 
4543 349  356 
4544 941  32  
4545 927  93  
4546 785  572 
4547 658  706 
4548 110  627 
4549 895  297 
4550 1    205 
4551 149  61  
4552 262  244 
4553 874  84  
4554 860  7   
4555 537  92  
4556 976  524 
4557 441  375 
4558 263  218 
4559 547  983 
4560 289  827 
4561 306  891 
4562 586  563 
4563 474  489 
4564 492  870 
4565 935  676 
4566 684  100 
4567 64   777 
4568 910  930 
4569 68   961 
4570 414  237 
4571 751  204 
4572 950  419 
4573 402  653 
4574 385  505 
4575 918  717 
4576 977  7   
4577 885  662 
4578 243  349 
4579 171  456 
4580 149  384 
4581 323  149 
4582 489  701 
4583 661  293 
4584 954  785 
4585 493  221 
4586 993  765 
4587 152  267 
4588 707  59  
4589 798  902 
4590 863  676 
4591 403  122 
4592 96   760 
4593 21   567 
4594 152  698 
4595 975  810 
4596 704  999 
4597 199  284 
4598 147  897 
4599 699  700 
4600 907  907 
4601 692  419 
4602 584  748 
4603 35   992 
4604 930  488 
4605 807  946 
4606 991  145 
4607 743  816 
4608 230  845 
4609 835  445 
4610 506  493 
4611 804  948 
4612 970  412 
4613 848  816 
4614 652  704 
4615 230  988 
4616 563  295 
4617 319  613 
4618 290  877 
4619 535  661 
4620 347  868 
4621 368  85  
4622 626  381 
4623 900  502 
4624 869  983 
4625 943  432 
4626 395  710 
4627 731  922 
4628 951  965 
4629 203  357 
4630 611  96  
4631 139  765 
4632 529  437 
4633 640  842 
4634 625  268 
4635 714  202 
4636 813  646 
4637 210  861 
4638 892  877 
4639 74   252 
4640 847  475 
4641 226  403 
4642 852  451 
4643 762  321 
4644 291  117 
4645 352  101 
4646 116  454 
4647 651  469 
4648 547  260 
4649 231  791 
4650 275  969 
4651 187  149 
4652 194  651 
4653 270  844 
4654 732  143 
4655 879  712 
4656 326  696 
4657 150  394 
4658 850  62  
4659 279  722 
4660 393  647 
4661 548  265 
4662 414  47  
4663 806  797 
4664 827  466 
4665 210  304 
4666 138  85  
4667 357  47  
4668 196  227 
4669 719  721 
4670 731  239 
4671 90   797 
4672 911  483 
4673 149  420 
4674 66   258 
4675 214  138 
4676 458  680 
4677 590  209 
4678 406  856 
4679 760  764 
4680 246  539 
4681 228  50  
4682 964  398 
4683 693  200 
4684 198  670 
4685 366  416 
4686 534  936 
4687 280  459 
4688 281  822 
4689 764  51  
4690 13   747 
4691 660  886 
4692 554  273 
4693 492  270 
4694 114  280 
4695 132  207 
4696 9    924 
4697 997  467 
4698 63   337 
4699 798  668 
4700 489  836 
4701 703  257 
4702 463  556 
4703 726  98  
4704 583  815 
4705 363  392 
4706 454  865 
4707 40   949 
4708 476  681 
4709 455  440 
4710 649  221 
4711 260  186 
4712 795  807 
4713 122  209 
4714 485  865 
4715 948  335 
4716 625  206 
4717 71   232 
4718 238  555 
4719 316  241 
4720 869  971 
4721 654  25  
4722 805  83  
4723 201  855 
4724 58   808 
4725 714  159 
4726 218  846 
4727 117  124 
4728 745  803 
4729 710  227 
4730 678  397 
4731 843  462 
4732 918  508 
4733 560  760 
4734 176  753 
4735 947  348 
4736 129  301 
4737 983  591 
4738 505  756 
4739 272  307 
4740 112  562 
4741 700  147 
4742 25   413 
4743 775  707 
4744 875  863 
4745 180  831 
4746 859  626 
4747 896  504 
4748 422  852 
4749 477  407 
4750 430  535 
4751 324  126 
4752 328  121 
4753 475  250 
4754 148  204 
4755 152  135 
4756 902  349 
4757 243  70  
4758 375  605 
4759 854  954 
4760 286  54  
4761 987  327 
4762 183  346 
4763 656  646 
4764 267  807 
4765 751  151 
4766 825  785 
4767 738  798 
4768 902  127 
4769 996  366 
4770 445  736 
4771 968  775 
4772 366  98  
4773 9    333 
4774 30   469 
4775 290  382 
4776 717  5   
4777 422  355 
4778 354  557 
4779 744  253 
4780 137  17  
4781 321  348 
4782 449  263 
4783 488  315 
4784 270  279 
4785 660  923 
4786 494  369 
4787 459  234 
4788 228  421 
4789 543  558 
4790 964  625 
4791 878  475 
4792 237  49  
4793 181  873 
4794 203  225 
4795 961  285 
4796 651  633 
4797 284  102 
4798 152  912 
4799 428  965 
4800 217  174 
4801 630  298 
4802 597  147 
4803 763  247 
4804 528  902 
4805 517  306 
4806 744  712 
4807 672  421 
4808 433  471 
4809 421  382 
4810 761  267 
4811 445  360 
4812 818  962 
4813 943  217 
4814 973  914 
4815 279  225 
4816 70   174 
4817 73   154 
4818 809  302 
4819 870  897 
4820 33   868 
4821 639  76  
4822 306  272 
4823 272  128 
4824 956  186 
4825 617  614 
4826 651  396 
4827 836  896 
4828 235  267 
4829 520  565 
4830 41   598 
4831 408  367 
4832 244  107 
4833 724  829 
4834 124  513 
4835 197  859 
4836 110  596 
4837 614  228 
4838 561  488 
4839 615  181 
4840 945  905 
4841 346  438 
4842 741  751 
4843 137  625 
4844 409  756 
4845 105  69  
4846 824  661 
4847 589  427 
4848 59   884 
4849 426  401 
4850 160  557 
4851 582  608 
4852 309  452 
4853 629  523 
4854 977  26  
4855 828  928 
4856 149  363 
4857 82   702 
4858 559  816 
4859 375  839 
4860 177  594 
4861 548  551 
4862 977  171 
4863 636  360 
4864 730  997 
4865 551  209 
4866 271  41  
4867 830  280 
4868 545  408 
4869 164  850 
4870 643  887 
4871 616  19  
4872 725  671 
4873 299  353 
4874 194  89  
4875 673  60  
4876 549  577 
4877 109  74  
4878 398  87  
4879 19   158 
4880 95   907 
4881 703  200 
4882 583  870 
4883 325  626 
4884 971  128 
4885 194  379 
4886 450  657 
4887 490  962 
4888 56   264 
4889 351  819 
4890 655  267 
4891 804  631 
4892 18   828 
4893 640  879 
4894 204  614 
4895 994  52  
4896 938  652 
4897 376  259 
4898 728  88  
4899 923  353 
4900 452  719 
4901 454  373 
4902 887  961 
4903 301  478 
4904 488  763 
4905 898  80  
4906 185  701 
4907 629  58  
4908 918  23  
4909 461  664 
4910 227  778 
4911 72   841 
4912 438  136 
4913 867  762 
4914 44   279 
4915 671  970 
4916 112  713 
4917 884  31  
4918 993  816 
4919 385  222 
4920 251  539 
4921 203  668 
4922 607  922 
4923 427  980 
4924 617  926 
4925 48   399 
4926 564  691 
4927 60   978 
4928 848  358 
4929 977  6   
4930 172  800 
4931 432  957 
4932 363  867 
4933 694  933 
4934 592  859 
4935 725  593 
4936 798  903 
4937 836  350 
4938 803  623 
4939 57   145 
4940 402  940 
4941 686  824 
4942 159  856 
4943 734  912 
4944 539  642 
4945 497  507 
4946 26   883 
4947 80   173 
4948 648  955 
4949 765  690 
4950 397  760 
4951 937  451 
4952 661  631 
4953 403  347 
4954 976  375 
4955 331  124 
4956 189  374 
4957 728  504 
4958 670  511 
4959 765  547 
4960 381  826 
4961 365  341 
4962 99   121 
4963 579  931 
4964 485  844 
4965 126  642 
4966 566  687 
4967 951  855 
4968 311  564 
4969 424  456 
4970 169  11  
4971 632  983 
4972 804  619 
4973 821  531 
4974 643  303 
4975 469  425 
4976 307  258 
4977 108  159 
4978 143  936 
4979 182  690 
4980 334  617 
4981 889  502 
4982 961  769 
4983 925  870 
4984 529  69  
4985 984  478 
4986 382  853 
4987 240  894 
4988 625  621 
4989 131  782 
4990 475  499 
4991 478  746 
4992 614  322 
4993 63   728 
4994 546  738 
4995 945  247 
4996 926  606 
4997 1    191 
4998 936  782 
4999 883  415 
5000 186  245 
5001 923  536 
5002 780  135 
5003 140  806 
5004 556  350 
5005 498  274 
5006 279  749 
5007 471  69  
5008 219  148 
5009 1    89  
5010 699  174 
5011 718  254 
5012 573  713 
5013 613  492 
5014 349  617 
5015 577  782 
5016 188  681 
5017 524  275 
5018 998  350 
5019 600  729 
5020 390  53  
5021 508  206 
5022 987  235 
5023 417  137 
5024 129  829 
5025 798  193 
5026 629  707 
5027 974  262 
5028 357  256 
5029 739  568 
5030 976  166 
5031 260  359 
5032 707  22  
5033 33   59  
5034 806  478 
5035 879  252 
5036 275  98  
5037 646  183 
5038 445  814 
5039 268  809 
5040 109  385 
5041 609  857 
5042 639  817 
5043 26   710 
5044 433  712 
5045 861  648 
5046 972  231 
5047 744  862 
5048 486  599 
5049 322  492 
5050 198  347 
5051 326  428 
5052 821  966 
5053 148  964 
5054 890  219 
5055 744  749 
5056 736  717 
5057 364  134 
5058 147  600 
5059 645  441 
5060 66   536 
5061 931  516 
5062 342  693 
5063 951  601 
5064 112  198 
5065 723  934 
5066 279  220 
5067 799  517 
5068 178  465 
5069 343  905 
5070 306  154 
5071 329  75  
5072 718  751 
5073 793  724 
5074 790  187 
5075 942  102 
5076 407  745 
5077 947  460 
5078 253  877 
5079 239  430 
5080 352  2   
5081 885  152 
5082 500  954 
5083 317  732 
5084 33   953 
5085 913  573 
5086 723  482 
5087 917  14  
5088 261  618 
5089 888  146 
5090 210  130 
5091 873  450 
5092 176  62  
5093 394  77  
5094 582  490 
5095 306  689 
5096 181  259 
5097 475  106 
5098 258  524 
5099 370  380 
5100 225  583 
5101 775  113 
5102 445  654 
5103 372  402 
5104 764  940 
5105 647  42  
5106 985  937 
5107 141  833 
5108 617  86  
5109 447  81  
5110 413  65  
5111 677  948 
5112 732  289 
5113 920  939 
5114 975  975 
5115 996  254 
5116 7    937 
5117 356  29  
5118 321  418 
5119 595  619 
5120 569  388 
5121 720  232 
5122 901  333 
5123 454  529 
5124 603  210 
5125 94   459 
5126 366  300 
5127 649  30  
5128 228  309 
5129 363  486 
5130 660  762 
5131 946  475 
5132 913  290 
5133 566  740 
5134 199  5   
5135 829  398 
5136 978  840 
5137 1000 708 
5138 655  310 
5139 749  439 
5140 532  547 
5141 697  740 
5142 202  138 
5143 355  360 
5144 691  450 
5145 639  408 
5146 839  202 
5147 680  849 
5148 844  732 
5149 279  115 
5150 407  958 
5151 800  346 
5152 782  862 
5153 36   900 
5154 934  949 
5155 719  385 
5156 684  792 
5157 994  128 
5158 776  467 
5159 795  465 
5160 874  442 
5161 339  77  
5162 435  478 
5163 808  68  
5164 588  552 
5165 58   559 
5166 295  782 
5167 775  512 
5168 374  721 
5169 432  360 
5170 491  791 
5171 534  233 
5172 495  967 
5173 885  203 
5174 262  492 
5175 11   812 
5176 49   497 
5177 272  272 
5178 370  559 
5179 166  892 
5180 336  611 
5181 153  51  
5182 63   528 
5183 124  514 
5184 234  78  
5185 197  858 
5186 36   344 
5187 220  493 
5188 955  98  
5189 686  246 
5190 270  773 
5191 915  720 
5192 625  992 
5193 935  557 
5194 257  398 
5195 93   650 
5196 348  329 
5197 613  467 
5198 461  934 
5199 101  143 
5200 229  474 
5201 103  497 
5202 819  768 
5203 841  728 
5204 860  172 
5205 955  320 
5206 480  672 
5207 741  383 
5208 873  79  
5209 393  815 
5210 621  985 
5211 167  997 
5212 828  929 
5213 0    246 
5214 661  271 
5215 437  431 
5216 630  984 
5217 389  460 
5218 156  457 
5219 817  513 
5220 301  752 
5221 926  253 
5222 802  439 
5223 556  874 
5224 207  942 
5225 427  294 
5226 569  17  
5227 109  440 
5228 27   461 
5229 929  937 
5230 51   451 
5231 859  424 
5232 273  845 
5233 892  272 
5234 621  430 
5235 252  695 
5236 289  443 
5237 825  345 
5238 792  526 
5239 591  902 
5240 673  285 
5241 892  391 
5242 285  559 
5243 109  875 
5244 401  50  
5245 240  230 
5246 477  711 
5247 411  249 
5248 196  881 
5249 431  234 
5250 217  314 
5251 566  883 
5252 807  639 
5253 170  640 
5254 320  61  
5255 601  92  
5256 286  774 
5257 585  615 
5258 658  237 
5259 325  804 
5260 301  315 
5261 763  496 
5262 364  349 
5263 689  914 
5264 338  320 
5265 514  351 
5266 272  94  
5267 18   622 
5268 257  814 
5269 554  588 
5270 166  702 
5271 461  518 
5272 61   460 
5273 580  716 
5274 176  698 
5275 249  852 
5276 547  413 
5277 603  869 
5278 359  171 
5279 469  871 
5280 59   215 
5281 409  4   
5282 434  593 
5283 474  546 
5284 477  429 
5285 174  375 
5286 68   158 
5287 721  700 
5288 441  260 
5289 79   318 
5290 963  395 
5291 11   54  
5292 289  840 
5293 271  584 
5294 500  656 
5295 194  583 
5296 634  946 
5297 788  469 
5298 718  18  
5299 544  817 
5300 870  377 
5301 103  618 
5302 768  905 
5303 626  981 
5304 440  298 
5305 497  783 
5306 77   11  
5307 638  884 
5308 640  115 
5309 345  499 
5310 592  860 
5311 849  67  
5312 781  798 
5313 233  678 
5314 986  108 
5315 976  74  
5316 61   616 
5317 756  534 
5318 617  328 
5319 547  533 
5320 521  178 
5321 722  757 
5322 962  4   
5323 857  362 
5324 496  190 
5325 778  690 
5326 401  141 
5327 476  711 
5328 739  219 
5329 591  922 
5330 668  197 
5331 678  42  
5332 832  454 
5333 830  881 
5334 706  291 
5335 339  694 
5336 122  42  
5337 583  107 
5338 160  323 
5339 913  123 
5340 217  278 
5341 507  636 
5342 74   393 
5343 2    442 
5344 715  51  
5345 402  384 
5346 847  534 
5347 169  411 
5348 956  831 
5349 425  801 
5350 511  92  
5351 142  454 
5352 952  590 
5353 974  655 
5354 792  951 
5355 652  439 
5356 504  853 
5357 654  349 
5358 583  137 
5359 527  977 
5360 179  895 
5361 969  269 
5362 329  174 
5363 644  787 
5364 442  407 
5365 741  785 
5366 80   776 
5367 525  16  
5368 728  932 
5369 212  253 
5370 926  972 
5371 178  268 
5372 456  438 
5373 909  915 
5374 309  583 
5375 400  685 
5376 236  937 
5377 239  506 
5378 168  409 
5379 375  714 
5380 853  854 
5381 729  728 
5382 128  807 
5383 439  885 
5384 116  230 
5385 153  404 
5386 655  677 
5387 676  832 
5388 897  21  
5389 202  971 
5390 336  329 
5391 707  874 
5392 85   706 
5393 819  888 
5394 949  809 
5395 3    775 
5396 647  86  
5397 885  711 
5398 431  923 
5399 983  94  
5400 824  573 
5401 717  398 
5402 612  676 
5403 375  782 
5404 673  808 
5405 51   748 
5406 836  300 
5407 753  506 
5408 733  676 
5409 533  268 
5410 919  807 
5411 393  65  
5412 855  241 
5413 971  412 
5414 399  95  
5415 403  408 
5416 77   785 
5417 649  400 
5418 902  834 
5419 885  906 
5420 924  782 
5421 263  764 
5422 837  791 
5423 488  336 
5424 329  812 
5425 458  392 
5426 43   798 
5427 616  108 
5428 194  414 
5429 199  147 
5430 532  298 
5431 187  843 
5432 316  941 
5433 853  242 
5434 397  364 
5435 222  451 
5436 856  313 
5437 691  376 
5438 891  912 
5439 140  466 
5440 152  852 
5441 562  759 
5442 355  335 
5443 139  650 
5444 468  54  
5445 268  366 
5446 520  223 
5447 944  827 
5448 888  616 
5449 995  652 
5450 248  263 
5451 176  612 
5452 46   190 
5453 781  57  
5454 909  68  
5455 213  599 
5456 473  698 
5457 109  742 
5458 535  14  
5459 887  539 
5460 373  145 
5461 379  988 
5462 145  680 
5463 387  759 
5464 597  674 
5465 157  757 
5466 671  879 
5467 358  94  
5468 413  619 
5469 322  960 
5470 927  497 
5471 288  848 
5472 913  675 
5473 505  762 
5474 984  729 
5475 862  734 
5476 58   362 
5477 757  428 
5478 232  569 
5479 598  820 
5480 235  446 
5481 71   844 
5482 521  963 
5483 629  866 
5484 371  142 
5485 831  762 
5486 906  655 
5487 417  330 
5488 537  105 
5489 614  73  
5490 262  178 
5491 427  881 
5492 780  827 
5493 234  269 
5494 20   896 
5495 242  816 
5496 160  515 
5497 586  585 
5498 628  204 
5499 320  985 
5500 323  222 
5501 971  602 
5502 800  578 
5503 946  916 
5504 176  492 
5505 543  266 
5506 566  185 
5507 125  967 
5508 381  445 
5509 716  750 
5510 570  180 
5511 405  669 
5512 797  107 
5513 12   977 
5514 664  288 
5515 777  199 
5516 317  262 
5517 299  263 
5518 541  102 
5519 854  471 
5520 503  255 
5521 506  321 
5522 458  428 
5523 664  335 
5524 740  474 
5525 833  296 
5526 192  592 
5527 616  72  
5528 599  257 
5529 786  158 
5530 623  399 
5531 398  232 
5532 169  160 
5533 62   181 
5534 834  178 
5535 284  151 
5536 344  442 
5537 161  580 
5538 958  371 
5539 78   899 
5540 317  89  
5541 247  792 
5542 779  777 
5543 142  271 
5544 515  787 
5545 572  320 
5546 524  547 
5547 583  192 
5548 452  582 
5549 624  63  
5550 681  72  
5551 496  642 
5552 994  129 
5553 301  359 
5554 47   263 
5555 348  774 
5556 205  907 
5557 520  985 
5558 921  362 
5559 779  580 
5560 67   950 
5561 88   507 
5562 415  112 
5563 839  632 
5564 555  925 
5565 774  697 
5566 666  478 
5567 633  33  
5568 652  93  
5569 486  15  
5570 568  948 
5571 715  519 
5572 330  491 
5573 604  277 
5574 469  932 
5575 128  880 
5576 405  140 
5577 79   293 
5578 651  364 
5579 287  872 
5580 253  82  
5581 974  50  
5582 703  592 
5583 637  460 
5584 582  471 
5585 0    425 
5586 419  433 
5587 220  268 
5588 663  626 
5589 99   933 
5590 264  590 
5591 245  879 
5592 530  793 
5593 881  619 
5594 570  118 
5595 797  301 
5596 409  532 
5597 78   432 
5598 704  879 
5599 686  691 
5600 265  245 
5601 0    870 
5602 817  657 
5603 801  116 
5604 5    12  
5605 105  528 
5606 497  430 
5607 80   338 
5608 920  725 
5609 815  396 
5610 47   886 
5611 303  216 
5612 808  598 
5613 136  467 
5614 568  54  
5615 87   742 
5616 678  15  
5617 454  175 
5618 787  788 
5619 611  504 
5620 868  489 
5621 463  919 
5622 423  736 
5623 47   84  
5624 865  613 
5625 460  619 
5626 299  815 
5627 840  805 
5628 415  673 
5629 108  181 
5630 576  879 
5631 44   717 
5632 351  979 
5633 801  658 
5634 16   438 
5635 549  20  
5636 240  852 
5637 735  889 
5638 62   749 
5639 945  495 
5640 763  608 
5641 856  190 
5642 72   621 
5643 822  919 
5644 257  813 
5645 353  900 
5646 151  329 
5647 652  242 
5648 391  350 
5649 69   64  
5650 549  374 
5651 883  532 
5652 851  114 
5653 232  738 
5654 927  457 
5655 430  883 
5656 789  296 
5657 404  778 
5658 131  562 
5659 172  478 
5660 119  847 
5661 546  591 
5662 28   858 
5663 33   608 
5664 528  78  
5665 824  853 
5666 842  418 
5667 127  700 
5668 534  468 
5669 993  822 
5670 991  839 
5671 462  435 
5672 104  587 
5673 945  939 
5674 84   609 
5675 234  306 
5676 375  519 
5677 231  547 
5678 181  378 
5679 238  261 
5680 890  956 
5681 689  319 
5682 485  212 
5683 985  992 
5684 293  993 
5685 609  736 
5686 42   675 
5687 955  476 
5688 594  372 
5689 212  791 
5690 502  569 
5691 945  742 
5692 447  104 
5693 158  213 
5694 548  581 
5695 437  386 
5696 20   158 
5697 405  612 
5698 225  872 
5699 579  105 
5700 543  706 
5701 927  547 
5702 34   846 
5703 539  791 
5704 812  737 
5705 246  685 
5706 389  176 
5707 194  8   
5708 329  823 
5709 551  68  
5710 237  102 
5711 518  407 
5712 542  281 
5713 319  640 
5714 692  430 
5715 621  256 
5716 472  777 
5717 397  758 
5718 677  574 
5719 345  61  
5720 293  293 
5721 701  424 
5722 494  414 
5723 437  725 
5724 856  687 
5725 769  988 
5726 790  742 
5727 558  642 
5728 578  68  
5729 448  417 
5730 723  686 
5731 796  162 
5732 799  781 
5733 946  371 
5734 164  308 
5735 311  423 
5736 41   71  
5737 577  53  
5738 101  991 
5739 302  158 
5740 359  411 
5741 127  143 
5742 148  768 
5743 718  870 
5744 331  442 
5745 282  202 
5746 800  387 
5747 362  284 
5748 714  201 
5749 145  306 
5750 878  956 
5751 383  486 
5752 581  359 
5753 932  23  
5754 240  719 
5755 499  330 
5756 886  330 
5757 714  427 
5758 698  564 
5759 272  202 
5760 328  354 
5761 991  901 
5762 707  702 
5763 783  905 
5764 629  141 
5765 306  568 
5766 625  990 
5767 590  792 
5768 44   132 
5769 452  225 
5770 589  480 
5771 914  970 
5772 441  144 
5773 370  342 
5774 280  18  
5775 23   746 
5776 85   705 
5777 141  859 
5778 661  100 
5779 150  747 
5780 121  873 
5781 176  370 
5782 422  747 
5783 868  783 
5784 263  473 
5785 447  140 
5786 267  538 
5787 858  229 
5788 824  429 
5789 164  950 
5790 124  15  
5791 988  608 
5792 57   66  
5793 590  212 
5794 77   959 
5795 901  343 
5796 670  172 
5797 359  789 
5798 765  370 
5799 954  675 
5800 497  20  
5801 246  649 
5802 1000 445 
5803 643  689 
5804 651  606 
5805 839  301 
5806 618  790 
5807 147  892 
5808 97   569 
5809 463  990 
5810 729  44  
5811 285  534 
5812 57   623 
5813 424  422 
5814 8    165 
5815 49   527 
5816 943  81  
5817 784  582 
5818 123  762 
5819 35   588 
5820 772  175 
5821 465  863 
5822 966  237 
5823 415  377 
5824 936  400 
5825 739  293 
5826 353  226 
5827 903  724 
5828 637  882 
5829 654  318 
5830 914  475 
5831 258  87  
5832 426  981 
5833 885  68  
5834 620  247 
5835 748  316 
5836 718  540 
5837 331  644 
5838 192  334 
5839 809  465 
5840 610  300 
5841 979  993 
5842 871  151 
5843 720  799 
5844 956  503 
5845 371  145 
5846 558  423 
5847 119  823 
5848 413  908 
5849 432  59  
5850 436  595 
5851 769  156 
5852 718  169 
5853 560  775 
5854 372  365 
5855 301  855 
5856 910  895 
5857 493  495 
5858 384  45  
5859 55   360 
5860 366  775 
5861 298  751 
5862 744  435 
5863 462  282 
5864 157  312 
5865 341  587 
5866 195  125 
5867 682  649 
5868 147  510 
5869 495  470 
5870 902  114 
5871 64   884 
5872 233  835 
5873 180  382 
5874 767  666 
5875 890  871 
5876 542  36  
5877 985  585 
5878 626  877 
5879 254  698 
5880 937  750 
5881 256  309 
5882 501  695 
5883 817  628 
5884 86   979 
5885 750  442 
5886 143  8   
5887 275  128 
5888 892  159 
5889 160  192 
5890 311  811 
5891 373  542 
5892 263  880 
5893 144  724 
5894 949  369 
5895 164  543 
5896 319  553 
5897 956  642 
5898 891  959 
5899 213  167 
5900 787  872 
5901 952  809 
5902 754  461 
5903 424  386 
5904 259  451 
5905 5    747 
5906 273  163 
5907 718  815 
5908 173  394 
5909 321  703 
5910 260  590 
5911 782  719 
5912 92   365 
5913 554  598 
5914 131  827 
5915 541  892 
5916 766  757 
5917 948  866 
5918 666  479 
5919 903  478 
5920 82   230 
5921 851  89  
5922 932  446 
5923 978  428 
5924 373  406 
5925 747  361 
5926 71   819 
5927 609  392 
5928 491  567 
5929 898  365 
5930 918  872 
5931 903  252 
5932 547  174 
5933 452  170 
5934 366  944 
5935 3    672 
5936 833  941 
5937 153  339 
5938 689  385 
5939 615  263 
5940 637  459 
5941 440  673 
5942 495  389 
5943 208  333 
5944 573  783 
5945 82   298 
5946 245  878 
5947 564  730 
5948 622  464 
5949 142  624 
5950 487  993 
5951 289  908 
5952 589  313 
5953 78   262 
5954 997  84  
5955 599  992 
5956 307  544 
5957 932  961 
5958 95   577 
5959 156  459 
5960 730  992 
5961 972  869 
5962 81   268 
5963 872  17  
5964 364  757 
5965 786  880 
5966 513  552 
5967 364  772 
5968 750  193 
5969 398  90  
5970 591  787 
5971 345  81  
5972 716  64  
5973 476  765 
5974 352  819 
5975 739  161 
5976 61   917 
5977 579  968 
5978 653  625 
5979 156  911 
5980 933  193 
5981 329  453 
5982 74   256 
5983 445  423 
5984 179  71  
5985 787  900 
5986 992  754 
5987 500  393 
5988 615  560 
5989 889  366 
5990 526  483 
5991 340  50  
5992 268  311 
5993 362  406 
5994 749  298 
5995 629  372 
5996 922  788 
5997 830  949 
5998 136  641 
5999 83   272 
6000 17   130 
6001 787  610 
6002 883  761 
6003 813  670 
6004 761  149 
6005 335  110 
6006 671  512 
6007 306  160 
6008 532  918 
6009 594  527 
6010 425  630 
6011 248  175 
6012 887  962 
6013 728  889 
6014 747  55  
6015 227  783 
6016 585  161 
6017 289  620 
6018 36   239 
6019 77   453 
6020 200  16  
6021 206  10  
6022 975  333 
6023 963  397 
6024 157  478 
6025 489  502 
6026 824  709 
6027 159  368 
6028 788  352 
6029 452  142 
6030 811  577 
6031 928  867 
6032 998  177 
6033 765  154 
6034 845  802 
6035 37   997 
6036 7    205 
6037 964  240 
6038 233  906 
6039 641  179 
6040 474  100 
6041 974  297 
6042 738  965 
6043 461  170 
6044 617  44  
6045 446  198 
6046 945  741 
6047 370  100 
6048 246  563 
6049 375  213 
6050 659  320 
6051 73   819 
6052 446  32  
6053 85   352 
6054 109  410 
6055 203  221 
6056 498  915 
6057 83   771 
6058 503  166 
6059 716  21  
6060 256  539 
6061 856  688 
6062 375  360 
6063 716  100 
6064 240  181 
6065 19   300 
6066 57   993 
6067 9    838 
6068 400  453 
6069 38   459 
6070 810  368 
6071 518  577 
6072 350  73  
6073 117  322 
6074 99   203 
6075 934  785 
6076 961  149 
6077 653  887 
6078 465  899 
6079 961  774 
6080 339  918 
6081 782  788 
6082 398  541 
6083 644  797 
6084 836  549 
6085 468  353 
6086 993  6   
6087 225  124 
6088 595  310 
6089 213  659 
6090 145  595 
6091 97   442 
6092 462  242 
6093 135  184 
6094 720  820 
6095 662  203 
6096 242  552 
6097 63   554 
6098 651  294 
6099 232  622 
6100 436  632 
6101 534  497 
6102 58   438 
6103 702  887 
6104 975  289 
6105 525  722 
6106 175  809 
6107 111  943 
6108 849  370 
6109 495  76  
6110 975  726 
6111 270  626 
6112 993  563 
6113 444  909 
6114 674  494 
6115 59   558 
6116 974  261 
6117 885  886 
6118 798  87  
6119 104  981 
6120 986  479 
6121 534  573 
6122 39   113 
6123 609  636 
6124 114  50  
6125 613  92  
6126 393  71  
6127 159  680 
6128 109  493 
6129 588  270 
6130 824  285 
6131 850  529 
6132 156  162 
6133 88   536 
6134 30   671 
6135 13   743 
6136 678  795 
6137 716  426 
6138 308  485 
6139 275  212 
6140 665  988 
6141 389  804 
6142 561  723 
6143 468  739 
6144 857  324 
6145 539  528 
6146 226  813 
6147 670  478 
6148 85   102 
6149 411  901 
6150 415  949 
6151 493  769 
6152 501  278 
6153 691  378 
6154 123  268 
6155 878  652 
6156 718  929 
6157 735  13  
6158 829  472 
6159 207  420 
6160 653  778 
6161 123  765 
6162 269  1   
6163 550  402 
6164 53   666 
6165 792  870 
6166 776  171 
6167 278  305 
6168 502  275 
6169 505  45  
6170 857  768 
6171 487  197 
6172 361  925 
6173 349  228 
6174 421  727 
6175 616  697 
6176 84   119 
6177 931  662 
6178 92   650 
6179 3    139 
6180 791  98  
6181 336  860 
6182 444  271 
6183 931  871 
6184 50   869 
6185 832  799 
6186 463  307 
6187 230  26  
6188 103  232 
6189 896  508 
6190 144  369 
6191 400  651 
6192 996  677 
6193 54   903 
6194 962  740 
6195 409  796 
6196 742  16  
6197 655  699 
6198 698  154 
6199 2    661 
6200 629  898 
6201 613  269 
6202 134  126 
6203 962  535 
6204 358  664 
6205 124  334 
6206 767  564 
6207 681  857 
6208 849  239 
6209 958  987 
6210 940  194 
6211 445  764 
6212 724  729 
6213 640  142 
6214 513  944 
6215 713  584 
6216 362  614 
6217 695  424 
6218 821  321 
6219 555  285 
6220 220  584 
6221 295  30  
6222 722  262 
6223 321  423 
6224 122  714 
6225 157  89  
6226 911  368 
6227 90   108 
6228 823  516 
6229 347  375 
6230 113  773 
6231 848  432 
6232 493  161 
6233 388  787 
6234 720  122 
6235 657  623 
6236 623  280 
6237 350  852 
6238 811  482 
6239 99   468 
6240 998  788 
6241 768  447 
6242 899  583 
6243 701  495 
6244 26   729 
6245 522  738 
6246 652  821 
6247 568  28  
6248 915  305 
6249 716  172 
6250 403  517 
6251 160  286 
6252 771  302 
6253 718  957 
6254 826  975 
6255 41   13  
6256 905  468 
6257 725  59  
6258 667  126 
6259 526  439 
6260 767  289 
6261 363  39  
6262 571  538 
6263 914  429 
6264 365  717 
6265 168  23  
6266 576  180 
6267 16   475 
6268 232  889 
6269 710  82  
6270 948  867 
6271 747  219 
6272 12   254 
6273 159  121 
6274 162  719 
6275 552  475 
6276 823  134 
6277 992  130 
6278 442  175 
6279 278  793 
6280 707  633 
6281 465  262 
6282 475  173 
6283 76   664 
6284 153  417 
6285 335  969 
6286 106  387 
6287 720  651 
6288 578  873 
6289 775  961 
6290 99   854 
6291 172  26  
6292 656  343 
6293 585  375 
6294 567  419 
6295 290  77  
6296 16   566 
6297 976  948 
6298 232  324 
6299 850  804 
6300 390  131 
6301 431  605 
6302 626  831 
6303 453  801 
6304 881  762 
6305 698  400 
6306 629  696 
6307 483  290 
6308 854  279 
6309 466  684 
6310 696  689 
6311 492  428 
6312 256  274 
6313 341  817 
6314 699  663 
6315 223  189 
6316 156  234 
6317 66   104 
6318 51   452 
6319 130  973 
6320 442  971 
6321 39   287 
6322 42   1   
6323 27   383 
6324 100  799 
6325 882  857 
6326 591  899 
6327 5    300 
6328 982  260 
6329 105  816 
6330 382  752 
6331 53   560 
6332 386  645 
6333 795  227 
6334 540  38  
6335 982  375 
6336 587  69  
6337 19   497 
6338 807  632 
6339 739  414 
6340 870  756 
6341 689  693 
6342 17   240 
6343 625  283 
6344 79   854 
6345 154  443 
6346 562  268 
6347 156  733 
6348 236  275 
6349 80   815 
6350 598  545 
6351 451  612 
6352 527  623 
6353 822  917 
6354 503  807 
6355 932  253 
6356 81   743 
6357 62   866 
6358 176  701 
6359 174  152 
6360 527  668 
6361 182  359 
6362 419  19  
6363 148  563 
6364 116  495 
6365 463  378 
6366 653  278 
6367 767  136 
6368 625  679 
6369 489  100 
6370 896  420 
6371 414  421 
6372 104  589 
6373 858  634 
6374 395  456 
6375 201  393 
6376 628  96  
6377 370  304 
6378 833  904 
6379 851  451 
6380 525  574 
6381 31   309 
6382 949  978 
6383 699  247 
6384 419  431 
6385 516  967 
6386 647  111 
6387 858  412 
6388 640  199 
6389 823  686 
6390 863  909 
6391 128  491 
6392 385  508 
6393 258  866 
6394 246  897 
6395 263  503 
6396 600  799 
6397 256  335 
6398 355  779 
6399 104  9   
6400 375  212 
6401 158  362 
6402 858  190 
6403 147  23  
6404 220  935 
6405 186  627 
6406 189  400 
6407 336  172 
6408 869  286 
6409 815  588 
6410 812  739 
6411 38   159 
6412 609  817 
6413 313  364 
6414 958  92  
6415 498  912 
6416 997  442 
6417 545  41  
6418 757  718 
6419 938  40  
6420 424  686 
6421 351  125 
6422 248  818 
6423 765  575 
6424 731  755 
6425 174  649 
6426 892  422 
6427 621  32  
6428 531  200 
6429 551  309 
6430 592  298 
6431 403  573 
6432 939  543 
6433 705  77  
6434 122  41  
6435 321  836 
6436 13   134 
6437 268  325 
6438 40   252 
6439 187  639 
6440 277  753 
6441 991  451 
6442 188  428 
6443 335  303 
6444 869  803 
6445 448  65  
6446 639  349 
6447 107  196 
6448 913  9   
6449 606  174 
6450 790  433 
6451 442  547 
6452 95   431 
6453 387  510 
6454 945  440 
6455 818  902 
6456 526  367 
6457 322  729 
6458 362  282 
6459 948  517 
6460 287  345 
6461 865  353 
6462 59   278 
6463 573  144 
6464 649  608 
6465 335  77  
6466 467  61  
6467 987  690 
6468 306  325 
6469 309  930 
6470 348  968 
6471 865  210 
6472 205  593 
6473 511  268 
6474 996  940 
6475 98   739 
6476 46   387 
6477 763  767 
6478 547  442 
6479 908  106 
6480 426  785 
6481 300  250 
6482 67   513 
6483 619  476 
6484 488  618 
6485 434  624 
6486 629  139 
6487 611  688 
6488 996  642 
6489 337  379 
6490 599  615 
6491 710  836 
6492 552  290 
6493 3    618 
6494 8    832 
6495 979  805 
6496 232  510 
6497 855  334 
6498 837  335 
6499 341  708 
6500 655  678 
6501 343  410 
6502 915  525 
6503 816  70  
6504 708  60  
6505 305  455 
6506 113  574 
6507 440  346 
6508 901  691 
6509 134  34  
6510 617  126 
6511 355  585 
6512 963  134 
6513 924  756 
6514 85   688 
6515 536  500 
6516 275  392 
6517 21   372 
6518 318  302 
6519 247  348 
6520 836  303 
6521 786  516 
6522 589  81  
6523 536  99  
6524 976  154 
6525 941  596 
6526 68   704 
6527 252  421 
6528 843  714 
6529 950  674 
6530 812  711 
6531 6    266 
6532 78   537 
6533 941  997 
6534 639  940 
6535 329  721 
6536 368  313 
6537 497  411 
6538 99   443 
6539 298  220 
6540 251  212 
6541 17   380 
6542 165  268 
6543 100  983 
6544 672  176 
6545 605  878 
6546 914  21  
6547 240  210 
6548 297  45  
6549 522  606 
6550 924  94  
6551 598  173 
6552 377  287 
6553 31   740 
6554 874  785 
6555 855  566 
6556 252  617 
6557 182  880 
6558 456  906 
6559 109  816 
6560 330  943 
6561 829  471 
6562 668  91  
6563 340  4   
6564 154  320 
6565 672  269 
6566 819  78  
6567 503  713 
6568 515  841 
6569 936  33  
6570 934  540 
6571 904  607 
6572 615  857 
6573 879  932 
6574 193  697 
6575 537  332 
6576 282  369 
6577 227  838 
6578 361  472 
6579 111  748 
6580 590  715 
6581 701  562 
6582 859  742 
6583 291  370 
6584 646  696 
6585 594  137 
6586 723  343 
6587 546  484 
6588 345  669 
6589 57   273 
6590 662  310 
6591 224  814 
6592 885  567 
6593 998  382 
6594 747  570 
6595 720  462 
6596 629  562 
6597 669  411 
6598 7    788 
6599 814  604 
6600 128  467 
6601 475  780 
6602 404  256 
6603 738  906 
6604 9    368 
6605 485  379 
6606 114  87  
6607 481  824 
6608 705  600 
6609 261  42  
6610 462  933 
6611 267  649 
6612 587  540 
6613 803  555 
6614 522  897 
6615 416  60  
6616 74   520 
6617 221  935 
6618 80   361 
6619 27   402 
6620 561  766 
6621 446  328 
6622 458  314 
6623 136  58  
6624 356  605 
6625 783  248 
6626 752  266 
6627 326  381 
6628 667  339 
6629 170  281 
6630 978  836 
6631 959  539 
6632 623  622 
6633 830  780 
6634 779  778 
6635 635  436 
6636 69   422 
6637 749  324 
6638 587  41  
6639 643  363 
6640 516  251 
6641 844  728 
6642 645  409 
6643 834  450 
6644 709  726 
6645 598  427 
6646 69   311 
6647 791  16  
6648 662  807 
6649 741  854 
6650 282  435 
6651 690  20  
6652 984  265 
6653 862  302 
6654 135  882 
6655 853  553 
6656 619  23  
6657 642  66  
6658 326  987 
6659 129  445 
6660 664  566 
6661 149  946 
6662 448  629 
6663 14   772 
6664 310  111 
6665 718  280 
6666 63   621 
6667 245  586 
6668 7    453 
6669 728  556 
6670 361  69  
6671 533  141 
6672 275  629 
6673 846  508 
6674 764  605 
6675 266  80  
6676 195  202 
6677 286  23  
6678 453  526 
6679 419  434 
6680 759  986 
6681 742  140 
6682 964  158 
6683 534  664 
6684 310  824 
6685 851  516 
6686 253  290 
6687 570  228 
6688 811  146 
6689 356  61  
6690 553  879 
6691 989  799 
6692 834  832 
6693 337  664 
6694 781  839 
6695 372  775 
6696 638  574 
6697 217  834 
6698 882  116 
6699 935  194 
6700 703  102 
6701 527  404 
6702 393  376 
6703 857  131 
6704 160  93  
6705 543  926 
6706 145  152 
6707 722  958 
6708 706  475 
6709 522  534 
6710 481  369 
6711 796  200 
6712 957  443 
6713 705  130 
6714 944  966 
6715 317  860 
6716 835  771 
6717 987  824 
6718 752  99  
6719 1    539 
6720 862  488 
6721 719  353 
6722 573  139 
6723 653  51  
6724 526  259 
6725 1    436 
6726 187  417 
6727 995  598 
6728 589  774 
6729 845  668 
6730 849  729 
6731 791  282 
6732 244  37  
6733 836  993 
6734 600  309 
6735 714  261 
6736 897  867 
6737 552  440 
6738 89   816 
6739 332  640 
6740 719  52  
6741 629  182 
6742 225  304 
6743 847  227 
6744 673  708 
6745 124  546 
6746 965  148 
6747 140  831 
6748 110  629 
6749 276  463 
6750 439  877 
6751 576  349 
6752 940  982 
6753 279  708 
6754 374  834 
6755 603  692 
6756 567  17  
6757 298  530 
6758 577  805 
6759 816  91  
6760 229  506 
6761 620  765 
6762 234  320 
6763 586  573 
6764 453  738 
6765 607  897 
6766 579  332 
6767 929  269 
6768 33   304 
6769 507  377 
6770 125  170 
6771 713  438 
6772 968  245 
6773 850  777 
6774 911  314 
6775 380  88  
6776 532  77  
6777 821  440 
6778 424  994 
6779 104  10  
6780 376  751 
6781 712  329 
6782 15   486 
6783 527  379 
6784 215  767 
6785 489  961 
6786 125  637 
6787 498  913 
6788 189  256 
6789 928  144 
6790 584  530 
6791 604  717 
6792 380  429 
6793 643  743 
6794 769  928 
6795 630  629 
6796 833  277 
6797 672  149 
6798 854  141 
6799 450  863 
6800 549  753 
6801 217  120 
6802 472  187 
6803 863  465 
6804 277  798 
6805 938  952 
6806 84   264 
6807 18   906 
6808 208  548 
6809 645  320 
6810 810  257 
6811 796  812 
6812 343  883 
6813 605  604 
6814 145  422 
6815 787  531 
6816 537  932 
6817 773  556 
6818 795  492 
6819 481  14  
6820 830  599 
6821 691  175 
6822 122  264 
6823 585  912 
6824 965  820 
6825 912  320 
6826 623  900 
6827 978  705 
6828 136  526 
6829 247  656 
6830 502  471 
6831 572  105 
6832 222  950 
6833 499  335 
6834 527  755 
6835 27   597 
6836 589  699 
6837 736  209 
6838 148  327 
6839 576  266 
6840 496  826 
6841 957  899 
6842 357  887 
6843 432  18  
6844 158  888 
6845 124  582 
6846 236  820 
6847 93   861 
6848 816  232 
6849 319  271 
6850 471  64  
6851 715  814 
6852 789  43  
6853 186  464 
6854 439  998 
6855 557  191 
6856 633  425 
6857 38   764 
6858 133  728 
6859 890  991 
6860 392  478 
6861 444  911 
6862 216  770 
6863 107  847 
6864 346  141 
6865 55   551 
6866 95   522 
6867 811  845 
6868 778  30  
6869 427  68  
6870 589  80  
6871 882  218 
6872 254  669 
6873 702  433 
6874 406  850 
6875 151  661 
6876 685  573 
6877 265  50  
6878 748  695 
6879 142  840 
6880 657  641 
6881 311  960 
6882 227  241 
6883 445  154 
6884 247  18  
6885 393  295 
6886 734  512 
6887 518  257 
6888 649  118 
6889 136  31  
6890 264  212 
6891 725  451 
6892 282  617 
6893 847  976 
6894 973  565 
6895 23   274 
6896 334  829 
6897 173  641 
6898 890  373 
6899 924  95  
6900 711  129 
6901 30   974 
6902 771  308 
6903 661  872 
6904 576  908 
6905 938  815 
6906 540  111 
6907 852  809 
6908 374  445 
6909 322  536 
6910 878  637 
6911 421  324 
6912 294  722 
6913 60   132 
6914 526  473 
6915 377  120 
6916 502  273 
6917 697  941 
6918 862  17  
6919 663  192 
6920 956  78  
6921 630  29  
6922 302  40  
6923 370  802 
6924 918  502 
6925 538  282 
6926 923  300 
6927 524  793 
6928 528  348 
6929 2    47  
6930 757  7   
6931 44   438 
6932 667  803 
6933 120  948 
6934 706  967 
6935 175  632 
6936 309  566 
6937 456  470 
6938 145  573 
6939 932  389 
6940 790  47  
6941 779  314 
6942 927  386 
6943 659  992 
6944 141  521 
6945 604  269 
6946 22   372 
6947 150  313 
6948 707  556 
6949 176  932 
6950 324  100 
6951 462  494 
6952 580  181 
6953 447  382 
6954 361  249 
6955 884  195 
6956 138  115 
6957 341  584 
6958 323  53  
6959 641  72  
6960 2    514 
6961 737  487 
6962 955  424 
6963 501  914 
6964 172  854 
6965 176  273 
6966 720  350 
6967 494  25  
6968 220  586 
6969 632  378 
6970 428  639 
6971 655  968 
6972 60   774 
6973 958  827 
6974 812  277 
6975 322  9   
6976 603  184 
6977 108  634 
6978 345  344 
6979 532  244 
6980 971  444 
6981 587  543 
6982 989  939 
6983 649  432 
6984 933  968 
6985 165  350 
6986 311  804 
6987 192  596 
6988 725  374 
6989 707  279 
6990 781  516 
6991 592  213 
6992 919  410 
6993 652  823 
6994 657  911 
6995 971  107 
6996 558  697 
6997 667  338 
6998 353  432 
6999 748  863 
7000 400  271 
7001 679  395 
7002 279  25  
7003 321  771 
7004 946  310 
7005 657  169 
7006 882  612 
7007 957  406 
7008 830  924 
7009 429  797 
7010 624  51  
7011 331  583 
7012 518  809 
7013 763  600 
7014 839  999 
7015 288  658 
7016 269  773 
7017 884  764 
7018 358  239 
7019 842  168 
7020 880  875 
7021 149  832 
7022 177  63  
7023 179  601 
7024 309  522 
7025 239  457 
7026 21   134 
7027 166  881 
7028 480  488 
7029 282  338 
7030 380  625 
7031 558  454 
7032 11   1   
7033 295  329 
7034 78   107 
7035 121  708 
7036 394  106 
7037 324  495 
7038 112  897 
7039 439  558 
7040 794  715 
7041 807  323 
7042 534  665 
7043 739  665 
7044 684  14  
7045 557  280 
7046 228  146 
7047 500  607 
7048 54   306 
7049 163  521 
7050 777  773 
7051 780  648 
7052 466  682 
7053 588  449 
7054 381  605 
7055 479  176 
7056 498  795 
7057 924  963 
7058 240  430 
7059 312  43  
7060 955  771 
7061 920  682 
7062 846  552 
7063 501  569 
7064 948  120 
7065 824  70  
7066 365  218 
7067 735  272 
7068 421  216 
7069 904  254 
7070 946  617 
7071 263  849 
7072 531  65  
7073 397  351 
7074 695  882 
7075 735  161 
7076 95   6   
7077 49   874 
7078 144  578 
7079 577  188 
7080 2    467 
7081 990  896 
7082 460  615 
7083 101  935 
7084 338  539 
7085 136  309 
7086 527  843 
7087 514  566 
7088 538  432 
7089 559  90  
7090 908  866 
7091 467  178 
7092 452  678 
7093 843  319 
7094 184  656 
7095 317  972 
7096 836  716 
7097 447  877 
7098 912  244 
7099 70   140 
7100 571  425 
7101 331  752 
7102 466  409 
7103 527  670 
7104 969  118 
7105 235  348 
7106 554  728 
7107 124  972 
7108 31   128 
7109 90   716 
7110 453  318 
7111 210  37  
7112 858  713 
7113 291  444 
7114 702  862 
7115 280  907 
7116 488  814 
7117 909  588 
7118 180  620 
7119 55   316 
7120 457  533 
7121 332  615 
7122 225  529 
7123 23   706 
7124 663  914 
7125 78   246 
7126 719  762 
7127 816  43  
7128 530  889 
7129 640  217 
7130 94   840 
7131 972  678 
7132 964  258 
7133 570  249 
7134 99   675 
7135 977  137 
7136 237  209 
7137 897  456 
7138 73   816 
7139 81   365 
7140 959  158 
7141 946  811 
7142 947  638 
7143 712  473 
7144 808  792 
7145 511  519 
7146 427  406 
7147 947  751 
7148 14   218 
7149 346  746 
7150 679  156 
7151 437  721 
7152 874  936 
7153 605  776 
7154 307  253 
7155 236  173 
7156 75   105 
7157 122  196 
7158 308  721 
7159 471  807 
7160 994  496 
7161 960  256 
7162 99   204 
7163 389  624 
7164 605  554 
7165 222  10  
7166 389  641 
7167 734  97  
7168 616  576 
7169 466  347 
7170 874  620 
7171 253  609 
7172 718  661 
7173 917  560 
7174 235  171 
7175 453  240 
7176 560  674 
7177 649  759 
7178 120  921 
7179 687  267 
7180 288  841 
7181 515  154 
7182 37   578 
7183 956  376 
7184 847  81  
7185 206  331 
7186 227  812 
7187 429  408 
7188 131  530 
7189 480  400 
7190 23   512 
7191 63   599 
7192 888  13  
7193 686  192 
7194 194  642 
7195 182  99  
7196 348  159 
7197 901  927 
7198 903  193 
7199 873  488 
7200 928  787 
7201 968  52  
7202 145  771 
7203 954  107 
7204 884  232 
7205 760  950 
7206 569  656 
7207 699  789 
7208 257  378 
7209 423  429 
7210 85   702 
7211 539  937 
7212 635  512 
7213 696  764 
7214 38   991 
7215 518  85  
7216 994  993 
7217 856  962 
7218 431  644 
7219 582  844 
7220 17   592 
7221 860  550 
7222 958  239 
7223 25   657 
7224 906  266 
7225 428  698 
7226 88   539 
7227 985  275 
7228 455  147 
7229 227  240 
7230 890  400 
7231 714  706 
7232 56   488 
7233 296  439 
7234 459  37  
7235 691  718 
7236 526  781 
7237 468  861 
7238 160  390 
7239 476  672 
7240 434  236 
7241 914  162 
7242 700  759 
7243 807  685 
7244 565  459 
7245 783  388 
7246 44   770 
7247 634  238 
7248 502  278 
7249 620  461 
7250 566  943 
7251 363  60  
7252 810  629 
7253 938  590 
7254 616  700 
7255 943  179 
7256 156  519 
7257 314  763 
7258 791  127 
7259 463  30  
7260 357  551 
7261 301  399 
7262 214  912 
7263 749  529 
7264 366  719 
7265 754  873 
7266 738  354 
7267 274  969 
7268 258  450 
7269 851  65  
7270 465  654 
7271 782  529 
7272 926  700 
7273 853  900 
7274 139  218 
7275 533  774 
7276 1    157 
7277 55   70  
7278 993  769 
7279 315  509 
7280 779  394 
7281 672  826 
7282 712  887 
7283 626  677 
7284 219  857 
7285 450  399 
7286 379  543 
7287 976  971 
7288 332  943 
7289 246  813 
7290 286  72  
7291 345  524 
7292 663  986 
7293 674  497 
7294 251  694 
7295 253  284 
7296 313  95  
7297 354  693 
7298 138  850 
7299 376  697 
7300 301  646 
7301 67   200 
7302 711  659 
7303 513  806 
7304 242  158 
7305 886  671 
7306 371  638 
7307 1000 14  
7308 843  744 
7309 368  712 
7310 294  160 
7311 994  628 
7312 21   616 
7313 359  906 
7314 510  998 
7315 313  426 
7316 886  953 
7317 844  101 
7318 790  819 
7319 203  119 
7320 424  360 
7321 365  134 
7322 460  414 
7323 728  438 
7324 636  775 
7325 855  615 
7326 164  618 
7327 364  962 
7328 368  5   
7329 630  301 
7330 728  293 
7331 729  12  
7332 584  777 
7333 472  483 
7334 23   422 
7335 478  217 
7336 297  152 
7337 779  780 
7338 429  907 
7339 502  195 
7340 40   182 
7341 44   742 
7342 562  359 
7343 778  824 
7344 50   83  
7345 430  15  
7346 549  123 
7347 571  543 
7348 880  142 
7349 662  842 
7350 990  199 
7351 224  418 
7352 738  36  
7353 39   777 
7354 27   833 
7355 466  291 
7356 410  123 
7357 583  332 
7358 36   17  
7359 970  915 
7360 737  868 
7361 112  375 
7362 538  383 
7363 457  60  
7364 865  175 
7365 174  131 
7366 413  729 
7367 268  252 
7368 73   108 
7369 687  451 
7370 269  742 
7371 474  584 
7372 55   53  
7373 185  539 
7374 577  573 
7375 542  569 
7376 337  304 
7377 482  699 
7378 942  247 
7379 528  103 
7380 715  907 
7381 571  219 
7382 410  575 
7383 452  150 
7384 906  831 
7385 105  78  
7386 488  834 
7387 875  606 
7388 125  19  
7389 698  189 
7390 20   929 
7391 812  69  
7392 228  780 
7393 447  482 
7394 964  152 
7395 858  391 
7396 362  566 
7397 825  822 
7398 418  228 
7399 974  465 
7400 924  574 
7401 284  669 
7402 466  536 
7403 194  799 
7404 582  746 
7405 519  223 
7406 685  755 
7407 507  445 
7408 878  156 
7409 592  773 
7410 664  402 
7411 739  630 
7412 170  167 
7413 626  28  
7414 455  202 
7415 203  821 
7416 94   542 
7417 19   54  
7418 895  712 
7419 696  914 
7420 132  142 
7421 26   649 
7422 958  54  
7423 652  837 
7424 619  762 
7425 66   150 
7426 999  670 
7427 15   211 
7428 694  540 
7429 437  621 
7430 921  924 
7431 77   566 
7432 407  133 
7433 448  346 
7434 485  849 
7435 731  537 
7436 805  306 
7437 915  334 
7438 203  480 
7439 558  730 
7440 226  67  
7441 613  597 
7442 387  233 
7443 869  955 
7444 355  317 
7445 389  539 
7446 139  888 
7447 833  41  
7448 450  539 
7449 106  765 
7450 400  364 
7451 308  621 
7452 255  476 
7453 75   170 
7454 757  954 
7455 652  570 
7456 763  281 
7457 821  681 
7458 52   618 
7459 914  381 
7460 709  712 
7461 990  163 
7462 994  190 
7463 408  517 
7464 871  356 
7465 232  969 
7466 946  61  
7467 396  478 
7468 553  229 
7469 899  497 
7470 849  846 
7471 975  186 
7472 478  614 
7473 795  288 
7474 603  891 
7475 586  103 
7476 533  604 
7477 810  879 
7478 281  91  
7479 174  270 
7480 349  380 
7481 480  501 
7482 871  219 
7483 233  195 
7484 442  49  
7485 25   207 
7486 941  425 
7487 840  196 
7488 343  499 
7489 695  94  
7490 499  177 
7491 564  779 
7492 29   640 
7493 158  60  
7494 983  195 
7495 513  211 
7496 159  269 
7497 750  570 
7498 989  558 
7499 732  368 
7500 829  810 
7501 811  867 
7502 635  615 
7503 941  732 
7504 357  277 
7505 626  862 
7506 510  717 
7507 534  533 
7508 974  348 
7509 636  395 
7510 104  12  
7511 360  150 
7512 254  758 
7513 169  944 
7514 458  414 
7515 664  285 
7516 192  622 
7517 14   219 
7518 388  500 
7519 445  229 
7520 491  363 
7521 347  719 
7522 558  647 
7523 138  686 
7524 490  545 
7525 165  119 
7526 368  77  
7527 593  516 
7528 189  81  
7529 800  186 
7530 835  707 
7531 810  271 
7532 279  64  
7533 524  529 
7534 142  456 
7535 848  741 
7536 856  240 
7537 784  893 
7538 514  394 
7539 794  170 
7540 939  847 
7541 942  482 
7542 672  706 
7543 505  375 
7544 970  939 
7545 878  816 
7546 607  402 
7547 297  515 
7548 875  986 
7549 383  707 
7550 426  796 
7551 776  719 
7552 742  270 
7553 192  406 
7554 852  314 
7555 486  200 
7556 822  662 
7557 415  196 
7558 54   780 
7559 35   96  
7560 590  754 
7561 384  312 
7562 269  558 
7563 37   722 
7564 742  409 
7565 797  940 
7566 788  657 
7567 774  420 
7568 603  658 
7569 328  980 
7570 975  722 
7571 409  693 
7572 141  854 
7573 826  46  
7574 979  516 
7575 746  281 
7576 394  178 
7577 232  159 
7578 876  900 
7579 924  614 
7580 11   391 
7581 985  624 
7582 603  33  
7583 105  288 
7584 950  310 
7585 226  596 
7586 284  372 
7587 983  442 
7588 824  289 
7589 346  941 
7590 366  424 
7591 186  530 
7592 9    59  
7593 800  794 
7594 584  673 
7595 363  610 
7596 588  153 
7597 617  447 
7598 742  662 
7599 449  93  
7600 708  514 
7601 969  774 
7602 277  975 
7603 218  389 
7604 660  604 
7605 493  765 
7606 338  702 
7607 601  252 
7608 891  918 
7609 527  236 
7610 308  694 
7611 644  72  
7612 773  876 
7613 777  361 
7614 706  257 
7615 744  724 
7616 531  342 
7617 142  309 
7618 517  343 
7619 739  475 
7620 706  688 
7621 981  378 
7622 213  992 
7623 472  294 
7624 952  624 
7625 202  115 
7626 184  730 
7627 934  896 
7628 148  801 
7629 588  684 
7630 226  365 
7631 526  334 
7632 586  477 
7633 165  734 
7634 577  310 
7635 692  737 
7636 715  640 
7637 419  95  
7638 297  639 
7639 79   41  
7640 547  347 
7641 106  137 
7642 748  328 
7643 35   143 
7644 537  337 
7645 645  870 
7646 206  164 
7647 666  119 
7648 561  363 
7649 603  976 
7650 340  554 
7651 179  748 
7652 845  563 
7653 936  977 
7654 371  148 
7655 448  667 
7656 231  640 
7657 770  328 
7658 495  255 
7659 461  955 
7660 23   660 
7661 686  332 
7662 103  458 
7663 432  143 
7664 333  65  
7665 6    169 
7666 561  166 
7667 729  984 
7668 16   605 
7669 474  425 
7670 718  76  
7671 208  245 
7672 54   340 
7673 555  273 
7674 377  787 
7675 198  867 
7676 87   148 
7677 384  767 
7678 246  639 
7679 464  429 
7680 621  673 
7681 512  251 
7682 588  302 
7683 990  622 
7684 20   450 
7685 721  203 
7686 540  649 
7687 62   93  
7688 708  983 
7689 623  292 
7690 646  293 
7691 276  539 
7692 282  728 
7693 924  159 
7694 942  892 
7695 502  951 
7696 982  397 
7697 749  142 
7698 826  745 
7699 611  373 
7700 574  75  
7701 744  786 
7702 230  781 
7703 753  36  
7704 259  441 
7705 292  311 
7706 867  189 
7707 80   537 
7708 692  816 
7709 417  962 
7710 679  538 
7711 536  732 
7712 496  297 
7713 882  610 
7714 903  678 
7715 776  331 
7716 135  568 
7717 118  912 
7718 635  294 
7719 723  986 
7720 173  389 
7721 620  50  
7722 412  623 
7723 540  252 
7724 252  878 
7725 202  407 
7726 118  771 
7727 799  486 
7728 766  623 
7729 875  132 
7730 163  256 
7731 537  531 
7732 41   956 
7733 795  327 
7734 106  858 
7735 862  301 
7736 650  997 
7737 500  118 
7738 547  375 
7739 767  144 
7740 35   171 
7741 163  126 
7742 879  554 
7743 185  538 
7744 96   75  
7745 64   745 
7746 687  435 
7747 943  549 
7748 174  354 
7749 451  315 
7750 257  22  
7751 718  287 
7752 866  530 
7753 63   622 
7754 567  14  
7755 110  463 
7756 510  357 
7757 628  8   
7758 708  480 
7759 485  41  
7760 674  304 
7761 34   211 
7762 826  119 
7763 59   652 
7764 81   212 
7765 480  679 
7766 617  938 
7767 266  46  
7768 578  519 
7769 349  844 
7770 30   313 
7771 472  533 
7772 552  825 
7773 419  866 
7774 593  83  
7775 65   922 
7776 542  404 
7777 450  84  
7778 17   543 
7779 380  277 
7780 414  555 
7781 803  968 
7782 365  71  
7783 857  279 
7784 584  761 
7785 344  382 
7786 513  547 
7787 591  798 
7788 960  536 
7789 703  240 
7790 619  765 
7791 454  790 
7792 184  342 
7793 368  467 
7794 781  439 
7795 415  905 
7796 17   458 
7797 181  631 
7798 809  950 
7799 886  164 
7800 584  806 
7801 969  649 
7802 80   660 
7803 545  574 
7804 783  620 
7805 679  655 
7806 576  148 
7807 614  636 
7808 596  223 
7809 995  714 
7810 743  344 
7811 999  178 
7812 670  982 
7813 913  835 
7814 808  39  
7815 168  134 
7816 153  246 
7817 139  263 
7818 230  452 
7819 382  3   
7820 400  809 
7821 483  936 
7822 652  127 
7823 230  87  
7824 488  626 
7825 345  911 
7826 896  521 
7827 987  584 
7828 337  275 
7829 504  508 
7830 366  998 
7831 112  705 
7832 115  162 
7833 571  87  
7834 662  258 
7835 741  267 
7836 689  416 
7837 394  12  
7838 547  990 
7839 72   446 
7840 702  702 
7841 10   124 
7842 121  855 
7843 837  649 
7844 267  871 
7845 824  552 
7846 259  791 
7847 941  731 
7848 265  138 
7849 467  984 
7850 376  643 
7851 489  676 
7852 898  654 
7853 648  581 
7854 632  436 
7855 25   522 
7856 155  631 
7857 233  687 
7858 882  4   
7859 313  263 
7860 795  647 
7861 262  696 
7862 547  538 
7863 20   506 
7864 856  518 
7865 123  25  
7866 803  885 
7867 702  69  
7868 920  567 
7869 227  39  
7870 216  276 
7871 41   431 
7872 832  430 
7873 190  776 
7874 139  790 
7875 806  118 
7876 493  681 
7877 334  855 
7878 986  602 
7879 628  895 
7880 737  592 
7881 80   737 
7882 322  674 
7883 201  819 
7884 886  418 
7885 904  728 
7886 67   854 
7887 842  12  
7888 201  924 
7889 643  53  
7890 606  61  
7891 315  132 
7892 12   92  
7893 269  843 
7894 992  864 
7895 224  218 
7896 205  589 
7897 761  37  
7898 120  923 
7899 192  376 
7900 657  290 
7901 714  469 
7902 948  807 
7903 305  136 
7904 159  61  
7905 676  105 
7906 457  981 
7907 594  782 
7908 576  269 
7909 29   577 
7910 894  37  
7911 327  860 
7912 491  754 
7913 2    795 
7914 370  449 
7915 495  218 
7916 25   170 
7917 11   75  
7918 195  246 
7919 486  299 
7920 405  831 
7921 409  692 
7922 618  442 
7923 391  892 
7924 713  454 
7925 928  755 
7926 986  297 
7927 659  389 
7928 696  527 
7929 720  373 
7930 216  692 
7931 843  625 
7932 976  158 
7933 78   498 
7934 542  93  
7935 393  74  
7936 892  2   
7937 454  557 
7938 228  394 
7939 251  123 
7940 983  298 
7941 459  86  
7942 276  512 
7943 407  494 
7944 228  281 
7945 381  869 
7946 117  527 
7947 87   567 
7948 184  270 
7949 520  488 
7950 596  595 
7951 545  811 
7952 175  80  
7953 32   194 
7954 438  738 
7955 973  643 
7956 903  812 
7957 593  615 
7958 722  901 
7959 27   89  
7960 230  576 
7961 191  730 
7962 359  292 
7963 910  140 
7964 696  280 
7965 786  486 
7966 143  615 
7967 889  297 
7968 706  689 
7969 526  476 
7970 948  630 
7971 731  878 
7972 787  560 
7973 278  165 
7974 266  661 
7975 545  742 
7976 718  759 
7977 719  346 
7978 131  965 
7979 395  840 
7980 275  782 
7981 793  845 
7982 760  280 
7983 11   824 
7984 840  464 
7985 729  611 
7986 510  108 
7987 662  121 
7988 519  672 
7989 116  35  
7990 957  563 
7991 136  779 
7992 304  157 
7993 608  971 
7994 842  405 
7995 663  641 
7996 900  821 
7997 115  237 
7998 851  161 
7999 870  79  
8000 543  191 
8001 617  659 
8002 357  872 
8003 470  601 
8004 290  179 
8005 570  379 
8006 223  883 
8007 573  628 
8008 564  861 
8009 432  128 
8010 675  220 
8011 659  707 
8012 768  810 
8013 275  714 
8014 864  131 
8015 686  444 
8016 971  706 
8017 826  195 
8018 242  954 
8019 3    872 
8020 613  153 
8021 280  227 
8022 501  927 
8023 439  628 
8024 480  523 
8025 708  163 
8026 928  543 
8027 677  956 
8028 99   620 
8029 760  690 
8030 119  369 
8031 727  118 
8032 51   721 
8033 450  222 
8034 752  834 
8035 346  31  
8036 475  689 
8037 954  734 
8038 388  792 
8039 6    347 
8040 940  477 
8041 730  953 
8042 548  746 
8043 787  434 
8044 381  551 
8045 143  22  
8046 365  98  
8047 95   777 
8048 170  80  
8049 333  644 
8050 372  862 
8051 30   764 
8052 901  87  
8053 522  796 
8054 526  892 
8055 865  880 
8056 612  155 
8057 977  514 
8058 355  178 
8059 304  896 
8060 815  358 
8061 674  546 
8062 839  412 
8063 916  987 
8064 41   487 
8065 978  832 
8066 207  534 
8067 852  985 
8068 981  59  
8069 585  738 
8070 965  582 
8071 765  852 
8072 434  142 
8073 307  420 
8074 92   982 
8075 308  651 
8076 165  14  
8077 60   308 
8078 667  452 
8079 889  340 
8080 616  508 
8081 190  595 
8082 896  994 
8083 292  391 
8084 592  389 
8085 421  357 
8086 424  23  
8087 978  610 
8088 981  285 
8089 486  853 
8090 966  195 
8091 549  121 
8092 697  974 
8093 109  562 
8094 4    418 
8095 870  559 
8096 491  894 
8097 575  826 
8098 766  767 
8099 440  875 
8100 404  910 
8101 124  939 
8102 89   984 
8103 681  764 
8104 408  376 
8105 317  760 
8106 728  641 
8107 469  941 
8108 71   809 
8109 55   420 
8110 371  115 
8111 558  453 
8112 741  645 
8113 79   290 
8114 125  416 
8115 806  963 
8116 129  83  
8117 478  964 
8118 903  11  
8119 858  530 
8120 214  638 
8121 695  229 
8122 755  902 
8123 292  648 
8124 24   38  
8125 595  817 
8126 29   811 
8127 414  255 
8128 659  588 
8129 789  977 
8130 521  595 
8131 355  645 
8132 335  667 
8133 513  919 
8134 641  218 
8135 371  687 
8136 392  360 
8137 446  191 
8138 855  193 
8139 930  248 
8140 821  465 
8141 627  414 
8142 385  693 
8143 782  420 
8144 893  511 
8145 76   63  
8146 555  26  
8147 43   974 
8148 924  845 
8149 820  142 
8150 471  574 
8151 938  49  
8152 756  984 
8153 422  102 
8154 687  734 
8155 504  645 
8156 531  66  
8157 289  435 
8158 950  904 
8159 166  155 
8160 388  417 
8161 891  992 
8162 178  845 
8163 783  216 
8164 435  70  
8165 705  100 
8166 227  488 
8167 725  105 
8168 728  259 
8169 1000 552 
8170 585  670 
8171 13   157 
8172 88   98  
8173 37   23  
8174 240  109 
8175 438  682 
8176 459  717 
8177 79   684 
8178 351  843 
8179 559  246 
8180 134  999 
8181 355  396 
8182 321  748 
8183 198  42  
8184 400  12  
8185 75   906 
8186 573  135 
8187 921  478 
8188 848  650 
8189 791  161 
8190 979  65  
8191 724  132 
8192 201  193 
8193 338  90  
8194 671  812 
8195 547  274 
8196 514  121 
8197 383  702 
8198 797  966 
8199 375  766 
8200 283  916 
8201 858  724 
8202 106  81  
8203 785  554 
8204 570  320 
8205 23   622 
8206 851  345 
8207 814  847 
8208 267  184 
8209 513  160 
8210 327  776 
8211 145  804 
8212 426  491 
8213 577  825 
8214 353  601 
8215 466  984 
8216 376  934 
8217 231  600 
8218 560  84  
8219 885  747 
8220 263  349 
8221 452  426 
8222 471  414 
8223 16   678 
8224 24   177 
8225 189  713 
8226 295  76  
8227 445  575 
8228 393  988 
8229 105  330 
8230 553  830 
8231 733  600 
8232 879  114 
8233 622  208 
8234 146  271 
8235 114  411 
8236 21   573 
8237 688  470 
8238 925  23  
8239 764  33  
8240 551  125 
8241 497  498 
8242 460  194 
8243 433  842 
8244 142  914 
8245 489  854 
8246 454  992 
8247 19   197 
8248 41   285 
8249 721  419 
8250 777  401 
8251 123  393 
8252 131  300 
8253 648  130 
8254 80   452 
8255 579  938 
8256 599  439 
8257 673  305 
8258 838  661 
8259 873  649 
8260 327  144 
8261 181  586 
8262 134  816 
8263 892  530 
8264 605  551 
8265 52   729 
8266 60   252 
8267 23   488 
8268 5    557 
8269 374  452 
8270 697  917 
8271 148  783 
8272 64   22  
8273 581  479 
8274 637  871 
8275 11   561 
8276 748  64  
8277 257  913 
8278 162  558 
8279 839  936 
8280 36   43  
8281 532  944 
8282 809  365 
8283 409  127 
8284 690  472 
8285 49   416 
8286 176  862 
8287 339  250 
8288 625  757 
8289 667  968 
8290 227  849 
8291 687  389 
8292 140  840 
8293 880  517 
8294 537  484 
8295 497  743 
8296 921  69  
8297 944  290 
8298 399  626 
8299 827  127 
8300 646  721 
8301 521  824 
8302 232  483 
8303 976  994 
8304 224  775 
8305 727  271 
8306 909  766 
8307 438  318 
8308 10   17  
8309 928  756 
8310 0    7   
8311 66   280 
8312 836  276 
8313 177  913 
8314 243  432 
8315 673  145 
8316 378  393 
8317 216  548 
8318 859  202 
8319 39   508 
8320 854  451 
8321 711  462 
8322 267  753 
8323 472  893 
8324 713  769 
8325 697  388 
8326 240  489 
8327 557  656 
8328 338  922 
8329 523  512 
8330 479  26  
8331 485  693 
8332 695  774 
8333 934  506 
8334 626  437 
8335 919  626 
8336 574  941 
8337 83   914 
8338 815  333 
8339 999  672 
8340 562  909 
8341 48   895 
8342 765  990 
8343 53   450 
8344 458  146 
8345 78   943 
8346 852  966 
8347 999  561 
8348 397  501 
8349 182  885 
8350 643  485 
8351 770  625 
8352 208  516 
8353 51   78  
8354 605  523 
8355 93   471 
8356 956  987 
8357 100  641 
8358 672  258 
8359 840  868 
8360 468  173 
8361 827  622 
8362 884  629 
8363 424  203 
8364 574  489 
8365 706  545 
8366 308  837 
8367 990  377 
8368 631  633 
8369 562  416 
8370 712  525 
8371 70   203 
8372 201  8   
8373 845  672 
8374 510  109 
8375 131  738 
8376 300  219 
8377 121  466 
8378 370  403 
8379 404  201 
8380 79   329 
8381 689  13  
8382 841  858 
8383 3    589 
8384 977  266 
8385 116  194 
8386 667  754 
8387 871  882 
8388 863  802 
8389 742  229 
8390 392  623 
8391 284  517 
8392 301  993 
8393 931  310 
8394 586  625 
8395 492  672 
8396 863  947 
8397 918  528 
8398 464  129 
8399 357  474 
8400 452  482 
8401 128  424 
8402 458  867 
8403 440  490 
8404 99   623 
8405 372  697 
8406 212  854 
8407 229  784 
8408 587  898 
8409 933  658 
8410 751  127 
8411 769  337 
8412 811  58  
8413 830  362 
8414 103  904 
8415 267  652 
8416 91   832 
8417 700  850 
8418 403  444 
8419 811  75  
8420 890  576 
8421 636  60  
8422 375  8   
8423 88   762 
8424 35   981 
8425 14   230 
8426 147  963 
8427 60   608 
8428 42   23  
8429 170  480 
8430 522  797 
8431 369  247 
8432 545  212 
8433 51   287 
8434 288  123 
8435 695  874 
8436 57   946 
8437 921  901 
8438 35   819 
8439 551  363 
8440 700  551 
8441 574  216 
8442 297  12  
8443 653  727 
8444 607  16  
8445 239  928 
8446 596  487 
8447 226  45  
8448 407  64  
8449 549  919 
8450 677  162 
8451 787  990 
8452 207  311 
8453 464  777 
8454 502  369 
8455 162  884 
8456 537  608 
8457 258  131 
8458 494  917 
8459 705  298 
8460 874  419 
8461 726  576 
8462 199  576 
8463 59   341 
8464 376  463 
8465 267  288 
8466 103  36  
8467 610  344 
8468 611  529 
8469 797  880 
8470 173  54  
8471 598  761 
8472 841  20  
8473 272  265 
8474 55   54  
8475 828  374 
8476 900  923 
8477 741  563 
8478 908  446 
8479 654  686 
8480 345  802 
8481 993  802 
8482 44   180 
8483 154  916 
8484 10   356 
8485 971  899 
8486 382  342 
8487 167  702 
8488 581  892 
8489 525  532 
8490 849  188 
8491 427  994 
8492 10   70  
8493 409  627 
8494 120  400 
8495 161  210 
8496 641  168 
8497 54   135 
8498 224  702 
8499 243  330 
8500 262  944 
8501 565  825 
8502 397  919 
8503 72   354 
8504 935  411 
8505 350  649 
8506 778  466 
8507 450  35  
8508 414  926 
8509 418  453 
8510 494  168 
8511 705  575 
8512 191  200 
8513 109  431 
8514 937  604 
8515 669  13  
8516 303  371 
8517 956  607 
8518 958  53  
8519 85   183 
8520 764  508 
8521 659  120 
8522 757  613 
8523 591  905 
8524 999  744 
8525 839  387 
8526 401  41  
8527 649  771 
8528 540  60  
8529 562  548 
8530 302  283 
8531 620  370 
8532 434  179 
8533 749  402 
8534 883  928 
8535 294  655 
8536 79   687 
8537 909  418 
8538 822  845 
8539 162  809 
8540 767  370 
8541 260  922 
8542 853  261 
8543 925  920 
8544 47   434 
8545 286  670 
8546 417  861 
8547 520  878 
8548 97   181 
8549 353  35  
8550 45   813 
8551 10   708 
8552 709  326 
8553 508  649 
8554 326  798 
8555 628  682 
8556 735  758 
8557 37   473 
8558 184  771 
8559 336  794 
8560 729  553 
8561 527  666 
8562 658  535 
8563 590  618 
8564 37   426 
8565 956  336 
8566 500  84  
8567 804  140 
8568 749  871 
8569 71   895 
8570 970  660 
8571 917  363 
8572 663  347 
8573 760  192 
8574 689  196 
8575 582  265 
8576 323  834 
8577 785  553 
8578 346  481 
8579 538  995 
8580 85   836 
8581 529  556 
8582 987  360 
8583 915  759 
8584 842  573 
8585 475  60  
8586 516  830 
8587 600  711 
8588 525  568 
8589 910  830 
8590 124  285 
8591 180  543 
8592 261  314 
8593 10   122 
8594 998  315 
8595 855  390 
8596 396  835 
8597 683  273 
8598 349  829 
8599 557  376 
8600 759  554 
8601 261  331 
8602 872  342 
8603 716  735 
8604 665  687 
8605 575  148 
8606 557  393 
8607 337  878 
8608 247  487 
8609 416  155 
8610 345  363 
8611 52   247 
8612 507  90  
8613 574  852 
8614 947  578 
8615 30   682 
8616 858  43  
8617 532  168 
8618 807  982 
8619 816  619 
8620 768  462 
8621 57   889 
8622 919  617 
8623 223  44  
8624 960  614 
8625 811  288 
8626 596  714 
8627 108  348 
8628 91   598 
8629 833  153 
8630 728  369 
8631 763  216 
8632 985  70  
8633 994  396 
8634 522  567 
8635 283  489 
8636 909  373 
8637 566  852 
8638 970  357 
8639 18   790 
8640 187  629 
8641 888  998 
8642 64   248 
8643 407  904 
8644 979  401 
8645 931  530 
8646 434  38  
8647 737  711 
8648 183  737 
8649 117  109 
8650 466  343 
8651 840  728 
8652 399  953 
8653 328  396 
8654 329  85  
8655 633  903 
8656 335  75  
8657 232  808 
8658 804  450 
8659 535  82  
8660 439  57  
8661 738  346 
8662 59   157 
8663 349  443 
8664 117  143 
8665 151  357 
8666 832  923 
8667 840  438 
8668 931  961 
8669 554  696 
8670 166  802 
8671 83   128 
8672 709  92  
8673 177  123 
8674 304  243 
8675 16   199 
8676 115  787 
8677 650  522 
8678 816  286 
8679 120  123 
8680 249  601 
8681 305  287 
8682 548  173 
8683 254  202 
8684 418  982 
8685 534  392 
8686 805  730 
8687 572  827 
8688 115  128 
8689 842  462 
8690 431  844 
8691 638  44  
8692 894  442 
8693 346  372 
8694 479  560 
8695 177  694 
8696 33   358 
8697 750  725 
8698 505  801 
8699 989  527 
8700 628  241 
8701 168  847 
8702 868  672 
8703 885  718 
8704 439  530 
8705 941  684 
8706 487  806 
8707 471  445 
8708 829  843 
8709 224  614 
8710 519  147 
8711 103  790 
8712 87   141 
8713 358  977 
8714 971  518 
8715 544  564 
8716 851  688 
8717 47   611 
8718 160  845 
8719 507  102 
8720 274  189 
8721 518  472 
8722 649  415 
8723 977  890 
8724 725  748 
8725 781  650 
8726 636  25  
8727 703  165 
8728 731  676 
8729 768  426 
8730 74   609 
8731 587  340 
8732 80   274 
8733 669  870 
8734 212  759 
8735 839  442 
8736 986  794 
8737 507  821 
8738 164  626 
8739 852  967 
8740 69   571 
8741 86   395 
8742 804  546 
8743 485  918 
8744 344  86  
8745 810  351 
8746 235  988 
8747 14   327 
8748 326  53  
8749 329  279 
8750 735  923 
8751 424  61  
8752 120  620 
8753 486  687 
8754 633  818 
8755 596  162 
8756 743  269 
8757 581  434 
8758 636  675 
8759 965  787 
8760 322  823 
8761 862  421 
8762 628  627 
8763 594  974 
8764 280  698 
8765 832  999 
8766 763  657 
8767 519  674 
8768 903  259 
8769 228  679 
8770 561  360 
8771 373  442 
8772 395  40  
8773 452  47  
8774 789  360 
8775 862  598 
8776 864  423 
8777 558  431 
8778 267  114 
8779 106  406 
8780 305  315 
8781 440  542 
8782 167  661 
8783 870  476 
8784 618  13  
8785 980  628 
8786 780  812 
8787 746  70  
8788 695  131 
8789 772  876 
8790 21   432 
8791 242  809 
8792 868  757 
8793 746  233 
8794 471  464 
8795 399  375 
8796 556  90  
8797 722  366 
8798 81   126 
8799 543  364 
8800 564  637 
8801 584  403 
8802 323  201 
8803 11   343 
8804 52   393 
8805 574  562 
8806 684  182 
8807 155  896 
8808 341  949 
8809 146  709 
8810 243  399 
8811 333  305 
8812 996  119 
8813 303  489 
8814 711  540 
8815 547  583 
8816 268  880 
8817 511  586 
8818 798  852 
8819 329  759 
8820 902  950 
8821 359  535 
8822 288  124 
8823 990  655 
8824 807  879 
8825 422  203 
8826 243  858 
8827 429  741 
8828 571  964 
8829 787  771 
8830 511  825 
8831 990  798 
8832 701  345 
8833 739  26  
8834 356  554 
8835 711  96  
8836 514  700 
8837 972  396 
8838 95   207 
8839 597  9   
8840 501  100 
8841 763  369 
8842 821  593 
8843 883  884 
8844 838  508 
8845 785  0   
8846 804  292 
8847 17   158 
8848 79   1000
8849 939  891 
8850 903  560 
8851 446  793 
8852 767  447 
8853 970  927 
8854 149  730 
8855 331  715 
8856 978  642 
8857 390  540 
8858 248  155 
8859 32   684 
8860 309  996 
8861 163  402 
8862 988  303 
8863 934  653 
8864 168  316 
8865 124  933 
8866 819  767 
8867 966  370 
8868 771  864 
8869 617  764 
8870 780  242 
8871 140  785 
8872 1    253 
8873 400  750 
8874 497  686 
8875 956  403 
8876 261  547 
8877 847  186 
8878 215  316 
8879 641  397 
8880 590  856 
8881 37   888 
8882 955  237 
8883 717  363 
8884 239  27  
8885 498  419 
8886 544  815 
8887 45   430 
8888 310  818 
8889 422  728 
8890 299  47  
8891 428  457 
8892 176  306 
8893 72   355 
8894 953  222 
8895 167  108 
8896 542  8   
8897 263  537 
8898 747  826 
8899 12   799 
8900 569  430 
8901 907  522 
8902 989  906 
8903 60   662 
8904 739  971 
8905 596  832 
8906 683  99  
8907 977  834 
8908 428  894 
8909 673  457 
8910 179  256 
8911 60   517 
8912 731  748 
8913 541  355 
8914 209  762 
8915 764  364 
8916 807  736 
8917 576  602 
8918 616  331 
8919 389  519 
8920 503  617 
8921 144  982 
8922 970  334 
8923 717  755 
8924 791  876 
8925 539  255 
8926 840  814 
8927 178  173 
8928 415  680 
8929 640  890 
8930 364  192 
8931 572  381 
8932 594  741 
8933 259  180 
8934 1000 968 
8935 675  636 
8936 213  933 
8937 446  938 
8938 529  86  
8939 990  167 
8940 991  650 
8941 889  80  
8942 905  731 
8943 657  426 
8944 608  568 
8945 956  226 
8946 576  6   
8947 490  28  
8948 810  875 
8949 222  623 
8950 118  524 
8951 211  410 
8952 672  920 
8953 139  137 
8954 914  829 
8955 992  165 
8956 721  537 
8957 906  765 
8958 104  549 
8959 733  146 
8960 880  618 
8961 20   867 
8962 328  45  
8963 802  813 
8964 271  594 
8965 915  758 
8966 901  567 
8967 243  11  
8968 543  6   
8969 399  318 
8970 497  948 
8971 785  987 
8972 732  332 
8973 437  24  
8974 368  935 
8975 223  619 
8976 612  650 
8977 544  954 
8978 980  898 
8979 46   772 
8980 161  110 
8981 588  403 
8982 38   948 
8983 66   421 
8984 893  272 
8985 143  219 
8986 241  137 
8987 574  853 
8988 868  114 
8989 428  723 
8990 384  553 
8991 740  52  
8992 939  217 
8993 27   419 
8994 708  554 
8995 734  558 
8996 825  274 
8997 181  694 
8998 762  703 
8999 725  297 
9000 843  914 
9001 327  253 
9002 394  816 
9003 179  58  
9004 199  967 
9005 271  458 
9006 627  952 
9007 166  276 
9008 43   603 
9009 999  924 
9010 821  536 
9011 715  45  
9012 350  448 
9013 908  940 
9014 911  523 
9015 148  777 
9016 224  511 
9017 957  473 
9018 583  131 
9019 805  133 
9020 606  32  
9021 776  405 
9022 652  312 
9023 162  556 
9024 434  777 
9025 306  380 
9026 553  197 
9027 58   749 
9028 992  867 
9029 849  686 
9030 575  892 
9031 250  545 
9032 784  31  
9033 275  868 
9034 348  118 
9035 790  5   
9036 979  972 
9037 690  425 
9038 324  255 
9039 659  970 
9040 310  446 
9041 775  864 
9042 98   988 
9043 138  359 
9044 283  882 
9045 417  420 
9046 107  662 
9047 396  691 
9048 776  977 
9049 580  351 
9050 618  22  
9051 840  228 
9052 569  554 
9053 784  332 
9054 231  745 
9055 552  696 
9056 76   558 
9057 871  985 
9058 418  185 
9059 293  827 
9060 684  60  
9061 668  857 
9062 885  717 
9063 116  910 
9064 669  432 
9065 319  235 
9066 492  717 
9067 533  417 
9068 534  602 
9069 898  766 
9070 684  211 
9071 333  443 
9072 924  610 
9073 391  543 
9074 910  565 
9075 454  657 
9076 82   524 
9077 378  407 
9078 765  265 
9079 275  111 
9080 479  247 
9081 941  990 
9082 801  203 
9083 198  549 
9084 146  384 
9085 830  430 
9086 412  67  
9087 910  454 
9088 968  723 
9089 199  133 
9090 401  214 
9091 645  123 
9092 316  935 
9093 207  654 
9094 282  627 
9095 730  373 
9096 783  237 
9097 89   107 
9098 18   89  
9099 331  226 
9100 847  990 
9101 277  828 
9102 494  562 
9103 359  720 
9104 363  277 
9105 87   673 
9106 736  873 
9107 36   693 
9108 57   630 
9109 905  416 
9110 672  405 
9111 430  389 
9112 98   461 
9113 796  782 
9114 602  589 
9115 52   558 
9116 398  598 
9117 883  776 
9118 679  707 
9119 258  189 
9120 322  820 
9121 503  887 
9122 296  903 
9123 130  18  
9124 315  18  
9125 478  546 
9126 466  90  
9127 690  506 
9128 258  334 
9129 629  199 
9130 993  171 
9131 278  885 
9132 850  244 
9133 173  97  
9134 253  211 
9135 349  672 
9136 520  660 
9137 573  512 
9138 172  415 
9139 104  637 
9140 908  363 
9141 254  231 
9142 385  226 
9143 79   504 
9144 906  772 
9145 245  992 
9146 872  610 
9147 926  323 
9148 548  337 
9149 16   962 
9150 90   931 
9151 309  323 
9152 163  821 
9153 385  275 
9154 998  369 
9155 858  428 
9156 859  925 
9157 234  386 
9158 676  765 
9159 759  636 
9160 233  842 
9161 103  676 
9162 200  413 
9163 542  45  
9164 670  102 
9165 824  338 
9166 751  121 
9167 695  465 
9168 935  70  
9169 574  642 
9170 501  702 
9171 873  779 
9172 130  846 
9173 463  758 
9174 134  434 
9175 872  77  
9176 928  367 
9177 639  841 
9178 493  955 
9179 920  707 
9180 740  460 
9181 501  464 
9182 502  907 
9183 69   764 
9184 26   545 
9185 356  580 
9186 161  594 
9187 331  142 
9188 611  454 
9189 830  164 
9190 562  574 
9191 486  622 
9192 710  398 
9193 217  299 
9194 184  412 
9195 113  458 
9196 577  91  
9197 260  785 
9198 672  433 
9199 1000 606 
9200 191  763 
9201 305  696 
9202 784  667 
9203 126  592 
9204 37   193 
9205 924  351 
9206 688  939 
9207 598  418 
9208 52   514 
9209 109  559 
9210 277  419 
9211 350  299 
9212 813  689 
9213 429  168 
9214 658  926 
9215 398  733 
9216 944  575 
9217 482  594 
9218 658  561 
9219 750  854 
9220 993  183 
9221 301  144 
9222 547  200 
9223 641  275 
9224 736  159 
9225 55   417 
9226 349  644 
9227 617  652 
9228 708  349 
9229 671  107 
9230 709  164 
9231 381  19  
9232 552  737 
9233 474  375 
9234 78   109 
9235 888  185 
9236 337  213 
9237 102  855 
9238 285  301 
9239 103  490 
9240 214  637 
9241 246  770 
9242 319  210 
9243 158  84  
9244 803  257 
9245 234  521 
9246 589  129 
9247 461  270 
9248 775  364 
9249 925  159 
9250 525  837 
9251 12   792 
9252 631  443 
9253 170  160 
9254 464  397 
9255 512  219 
9256 198  722 
9257 204  71  
9258 612  68  
9259 902  768 
9260 961  324 
9261 651  512 
9262 428  895 
9263 142  949 
9264 915  119 
9265 899  538 
9266 596  688 
9267 995  165 
9268 26   658 
9269 195  557 
9270 535  535 
9271 701  267 
9272 497  309 
9273 151  814 
9274 62   351 
9275 122  170 
9276 658  62  
9277 469  327 
9278 787  798 
9279 865  514 
9280 356  719 
9281 51   27  
9282 331  315 
9283 830  979 
9284 838  334 
9285 362  415 
9286 322  602 
9287 539  111 
9288 122  511 
9289 875  215 
9290 568  653 
9291 37   374 
9292 476  314 
9293 396  475 
9294 876  315 
9295 897  602 
9296 36   50  
9297 398  697 
9298 809  374 
9299 336  796 
9300 80   950 
9301 463  477 
9302 339  227 
9303 340  648 
9304 533  615 
9305 932  116 
9306 755  555 
9307 291  68  
9308 797  850 
9309 949  663 
9310 180  852 
9311 638  167 
9312 196  478 
9313 306  522 
9314 716  789 
9315 791  497 
9316 44   154 
9317 278  684 
9318 546  436 
9319 656  284 
9320 430  603 
9321 127  567 
9322 935  714 
9323 864  223 
9324 120  319 
9325 176  241 
9326 381  168 
9327 698  90  
9328 660  291 
9329 538  643 
9330 128  483 
9331 882  350 
9332 328  667 
9333 868  797 
9334 262  914 
9335 802  127 
9336 34   981 
9337 273  619 
9338 132  442 
9339 61   524 
9340 281  692 
9341 609  984 
9342 261  107 
9343 912  989 
9344 216  506 
9345 198  574 
9346 220  814 
9347 494  309 
9348 308  441 
9349 294  124 
9350 60   554 
9351 795  953 
9352 702  73  
9353 333  986 
9354 389  856 
9355 155  262 
9356 265  330 
9357 708  698 
9358 700  634 
9359 347  706 
9360 277  807 
9361 848  813 
9362 903  951 
9363 377  267 
9364 393  494 
9365 527  151 
9366 251  302 
9367 506  97  
9368 877  174 
9369 94   168 
9370 151  163 
9371 796  180 
9372 84   134 
9373 305  631 
9374 782  963 
9375 383  138 
9376 627  808 
9377 477  849 
9378 683  522 
9379 505  24  
9380 966  255 
9381 914  346 
9382 884  540 
9383 278  157 
9384 248  502 
9385 836  671 
9386 835  996 
9387 453  105 
9388 754  748 
9389 724  52  
9390 504  207 
9391 899  464 
9392 957  698 
9393 26   76  
9394 740  830 
9395 945  146 
9396 515  128 
9397 615  19  
9398 27   554 
9399 374  903 
9400 305  140 
9401 768  548 
9402 434  616 
9403 680  336 
9404 167  610 
9405 349  347 
9406 314  946 
9407 495  881 
9408 327  856 
9409 261  634 
9410 524  176 
9411 729  854 
9412 716  904 
9413 309  366 
9414 242  771 
9415 538  884 
9416 530  964 
9417 936  679 
9418 612  728 
9419 521  543 
9420 3    880 
9421 461  244 
9422 64   866 
9423 232  132 
9424 402  738 
9425 413  482 
9426 267  532 
9427 831  28  
9428 488  460 
9429 471  669 
9430 333  668 
9431 742  568 
9432 82   924 
9433 324  993 
9434 627  712 
9435 521  219 
9436 248  999 
9437 377  709 
9438 311  846 
9439 700  943 
9440 916  604 
9441 204  798 
9442 242  425 
9443 319  575 
9444 912  743 
9445 696  62  
9446 308  268 
9447 717  600 
9448 545  815 
9449 415  589 
9450 967  16  
9451 643  486 
9452 457  351 
9453 292  280 
9454 62   486 
9455 178  227 
9456 360  706 
9457 235  990 
9458 515  800 
9459 917  892 
9460 316  117 
9461 300  658 
9462 106  577 
9463 364  265 
9464 553  6   
9465 311  306 
9466 476  371 
9467 84   120 
9468 430  100 
9469 831  952 
9470 478  400 
9471 740  835 
9472 598  609 
9473 344  916 
9474 182  436 
9475 607  509 
9476 934  615 
9477 371  381 
9478 499  304 
9479 651  415 
9480 542  692 
9481 46   423 
9482 174  216 
9483 69   14  
9484 362  24  
9485 328  136 
9486 745  473 
9487 110  581 
9488 872  980 
9489 49   163 
9490 124  609 
9491 840  178 
9492 555  729 
9493 333  235 
9494 315  352 
9495 23   659 
9496 851  274 
9497 135  437 
9498 820  707 
9499 15   611 
9500 237  591 
9501 152  3   
9502 543  473 
9503 309  499 
9504 458  799 
9505 917  244 
9506 292  743 
9507 993  598 
9508 759  639 
9509 470  174 
9510 272  891 
9511 699  932 
9512 167  74  
9513 137  435 
9514 941  543 
9515 194  164 
9516 102  613 
9517 289  216 
9518 642  732 
9519 682  913 
9520 539  824 
9521 260  335 
9522 907  736 
9523 214  18  
9524 548  790 
9525 933  608 
9526 769  711 
9527 476  973 
9528 848  56  
9529 578  369 
9530 759  306 
9531 213  474 
9532 882  987 
9533 366  312 
9534 939  288 
9535 669  983 
9536 299  641 
9537 421  190 
9538 591  950 
9539 283  181 
9540 601  178 
9541 311  707 
9542 938  891 
9543 887  317 
9544 568  259 
9545 19   589 
9546 984  499 
9547 258  158 
9548 494  920 
9549 23   130 
9550 605  270 
9551 349  112 
9552 175  436 
9553 625  545 
9554 908  42  
9555 82   111 
9556 46   306 
9557 415  155 
9558 128  843 
9559 92   52  
9560 112  730 
9561 257  105 
9562 974  142 
9563 689  46  
9564 694  281 
9565 715  798 
9566 382  341 
9567 258  629 
9568 760  901 
9569 409  711 
9570 889  615 
9571 945  789 
9572 160  715 
9573 525  529 
9574 216  931 
9575 910  801 
9576 346  298 
9577 510  505 
9578 392  526 
9579 172  162 
9580 513  122 
9581 555  483 
9582 593  180 
9583 48   367 
9584 410  842 
9585 323  167 
9586 363  882 
9587 324  756 
9588 661  275 
9589 869  400 
9590 427  133 
9591 671  430 
9592 293  724 
9593 646  216 
9594 962  133 
9595 526  514 
9596 142  779 
9597 199  302 
9598 860  740 
9599 455  192 
9600 848  36  
9601 593  487 
9602 316  522 
9603 557  580 
9604 648  908 
9605 941  805 
9606 527  412 
9607 293  310 
9608 496  142 
9609 60   519 
9610 743  770 
9611 193  98  
9612 584  589 
9613 969  961 
9614 436  258 
9615 890  325 
9616 691  268 
9617 195  957 
9618 731  543 
9619 531  183 
9620 5    676 
9621 522  542 
9622 321  887 
9623 30   777 
9624 715  3   
9625 473  940 
9626 592  470 
9627 458  56  
9628 776  157 
9629 408  877 
9630 377  72  
9631 514  561 
9632 908  793 
9633 984  463 
9634 586  399 
9635 473  590 
9636 93   141 
9637 114  872 
9638 282  108 
9639 743  343 
9640 211  190 
9641 887  551 
9642 785  371 
9643 166  682 
9644 595  292 
9645 266  568 
9646 269  691 
9647 384  419 
9648 45   972 
9649 276  352 
9650 993  210 
9651 923  523 
9652 853  838 
9653 927  67  
9654 716  790 
9655 825  521 
9656 224  896 
9657 504  368 
9658 353  605 
9659 822  89  
9660 327  917 
9661 660  300 
9662 72   419 
9663 292  680 
9664 849  157 
9665 43   354 
9666 993  557 
9667 745  92  
9668 176  321 
9669 986  350 
9670 15   712 
9671 785  985 
9672 769  508 
9673 587  865 
9674 293  918 
9675 310  796 
9676 350  729 
9677 313  40  
9678 497  827 
9679 560  39  
9680 601  701 
9681 711  704 
9682 485  298 
9683 733  596 
9684 772  580 
9685 298  975 
9686 924  911 
9687 194  236 
9688 963  947 
9689 929  103 
9690 637  184 
9691 786  936 
9692 5    196 
9693 8    376 
9694 483  214 
9695 160  147 
9696 983  285 
9697 437  681 
9698 834  47  
9699 815  452 
9700 66   69  
9701 378  339 
9702 566  414 
9703 198  590 
9704 476  804 
9705 313  484 
9706 96   980 
9707 95   978 
9708 355  97  
9709 412  488 
9710 985  474 
9711 351  245 
9712 959  970 
9713 156  997 
9714 51   201 
9715 490  555 
9716 87   671 
9717 970  273 
9718 394  830 
9719 304  731 
9720 636  948 
9721 598  265 
9722 584  839 
9723 587  24  
9724 511  64  
9725 866  177 
9726 65   342 
9727 834  403 
9728 190  623 
9729 931  535 
9730 550  511 
9731 593  792 
9732 211  237 
9733 398  747 
9734 323  628 
9735 33   846 
9736 175  511 
9737 808  8   
9738 19   867 
9739 3    294 
9740 559  357 
9741 837  131 
9742 150  186 
9743 672  934 
9744 803  156 
9745 989  249 
9746 862  633 
9747 590  756 
9748 500  986 
9749 950  204 
9750 976  599 
9751 722  103 
9752 44   127 
9753 888  131 
9754 196  66  
9755 327  1000
9756 521  653 
9757 901  553 
9758 779  69  
9759 710  607 
9760 586  601 
9761 873  243 
9762 195  27  
9763 493  290 
9764 332  864 
9765 77   35  
9766 281  742 
9767 66   276 
9768 321  465 
9769 195  424 
9770 432  598 
9771 967  574 
9772 15   349 
9773 544  567 
9774 445  944 
9775 161  505 
9776 554  368 
9777 534  954 
9778 189  459 
9779 584  679 
9780 769  619 
9781 462  880 
9782 545  204 
9783 583  652 
9784 782  275 
9785 749  164 
9786 327  82  
9787 240  380 
9788 21   831 
9789 99   51  
9790 672  201 
9791 321  29  
9792 161  692 
9793 114  748 
9794 578  191 
9795 407  203 
9796 725  444 
9797 193  219 
9798 175  95  
9799 662  583 
9800 494  675 
9801 39   572 
9802 740  671 
9803 304  711 
9804 624  944 
9805 311  412 
9806 22   849 
9807 10   953 
9808 335  266 
9809 193  485 
9810 800  331 
9811 451  777 
9812 782  847 
9813 567  719 
9814 653  994 
9815 710  221 
9816 465  630 
9817 923  292 
9818 468  399 
9819 571  470 
9820 554  520 
9821 893  735 
9822 917  319 
9823 687  421 
9824 193  801 
9825 802  625 
9826 34   487 
9827 453  511 
9828 232  436 
9829 174  443 
9830 504  313 
9831 864  41  
9832 480  290 
9833 530  918 
9834 16   964 
9835 348  489 
9836 500  732 
9837 603  357 
9838 785  784 
9839 238  456 
9840 759  638 
9841 778  171 
9842 375  881 
9843 102  651 
9844 849  118 
9845 427  152 
9846 447  213 
9847 327  643 
9848 114  76  
9849 890  733 
9850 927  748 
9851 859  298 
9852 109  455 
9853 55   801 
9854 114  479 
9855 178  576 
9856 490  830 
9857 605  935 
9858 688  609 
9859 53   433 
9860 937  262 
9861 207  620 
9862 958  492 
9863 501  335 
9864 191  519 
9865 700  547 
9866 900  45  
9867 8    253 
9868 535  723 
9869 147  530 
9870 4    137 
9871 459  804 
9872 939  606 
9873 316  171 
9874 10   970 
9875 667  475 
9876 122  118 
9877 781  367 
9878 782  952 
9879 931  606 
9880 35   533 
9881 511  24  
9882 801  642 
9883 605  412 
9884 142  394 
9885 573  126 
9886 296  982 
9887 459  514 
9888 409  281 
9889 245  29  
9890 67   789 
9891 524  678 
9892 140  95  
9893 112  366 
9894 944  561 
9895 999  21  
9896 478  540 
9897 767  158 
9898 275  926 
9899 167  596 
9900 926  643 
9901 675  385 
9902 269  624 
9903 241  725 
9904 519  272 
9905 520  690 
9906 941  446 
9907 564  911 
9908 563  628 
9909 819  926 
9910 548  224 
9911 676  829 
9912 993  919 
9913 569  608 
9914 555  597 
9915 591  307 
9916 522  278 
9917 152  96  
9918 73   546 
9919 424  864 
9920 369  331 
9921 685  859 
9922 246  947 
9923 707  191 
9924 122  645 
9925 142  750 
9926 489  690 
9927 773  456 
9928 893  265 
9929 806  384 
9930 590  283 
9931 260  300 
9932 171  251 
9933 925  14  
9934 929  971 
9935 114  451 
9936 367  535 
9937 830  405 
9938 208  900 
9939 498  866 
9940 356  260 
9941 928  141 
9942 484  721 
9943 514  970 
9944 166  13  
9945 976  377 
9946 692  77  
9947 899  941 
9948 700  592 
9949 522  652 
9950 479  495 
9951 359  645 
9952 950  828 
9953 347  873 
9954 97   638 
9955 991  64  
9956 499  830 
9957 190  737 
9958 869  932 
9959 457  278 
9960 338  531 
9961 65   329 
9962 724  419 
9963 84   66  
9964 69   274 
9965 123  556 
9966 793  750 
9967 349  34  
9968 691  203 
9969 272  75  
9970 844  987 
9971 482  628 
9972 407  695 
9973 201  196 
9974 974  969 
9975 439  70  
9976 370  580 
9977 284  820 
9978 875  789 
9979 418  974 
9980 537  444 
9981 457  908 
9982 684  309 
9983 996  615 
9984 577  899 
9985 923  699 
9986 339  432 
9987 840  203 
9988 427  949 
9989 500  741 
9990 447  446 
9991 547  964 
9992 789  911 
9993 440  328 
9994 45   399 
9995 245  855 
9996 822  201 
9997 551  901 
9998 453  890 
9999 100  481 
10000 446  205 
10001 484  0   
DEMAND_SECTION
1    0   
2    7   
3    6   
4    63  
5    3   
6    2   
7    8   
8    7   
9    8   
10   1   
11   70  
12   7   
13   7   
14   2   
15   2   
16   1   
17   7   
18   66  
19   7   
20   76  
21   8   
22   4   
23   97  
24   4   
25   80  
26   8   
27   6   
28   96  
29   2   
30   55  
31   2   
32   1   
33   10  
34   7   
35   7   
36   7   
37   96  
38   8   
39   78  
40   2   
41   9   
42   3   
43   4   
44   5   
45   9   
46   52  
47   10  
48   6   
49   5   
50   9   
51   2   
52   1   
53   9   
54   9   
55   4   
56   8   
57   67  
58   67  
59   1   
60   5   
61   8   
62   9   
63   1   
64   9   
65   1   
66   2   
67   7   
68   2   
69   4   
70   70  
71   3   
72   6   
73   5   
74   88  
75   7   
76   7   
77   3   
78   5   
79   10  
80   88  
81   3   
82   10  
83   99  
84   9   
85   70  
86   3   
87   9   
88   5   
89   86  
90   1   
91   4   
92   10  
93   3   
94   2   
95   2   
96   6   
97   1   
98   3   
99   1   
100  10  
101  4   
102  10  
103  4   
104  2   
105  7   
106  3   
107  2   
108  3   
109  80  
110  3   
111  1   
112  2   
113  1   
114  57  
115  1   
116  92  
117  2   
118  4   
119  8   
120  9   
121  1   
122  6   
123  4   
124  9   
125  9   
126  2   
127  2   
128  7   
129  4   
130  6   
131  1   
132  4   
133  6   
134  52  
135  8   
136  9   
137  1   
138  3   
139  9   
140  2   
141  4   
142  6   
143  9   
144  7   
145  6   
146  6   
147  89  
148  8   
149  4   
150  10  
151  3   
152  5   
153  1   
154  10  
155  10  
156  1   
157  1   
158  4   
159  3   
160  7   
161  5   
162  81  
163  95  
164  5   
165  9   
166  6   
167  8   
168  2   
169  68  
170  7   
171  2   
172  97  
173  4   
174  10  
175  9   
176  10  
177  8   
178  7   
179  2   
180  98  
181  10  
182  3   
183  90  
184  6   
185  2   
186  5   
187  10  
188  58  
189  8   
190  6   
191  55  
192  55  
193  10  
194  8   
195  8   
196  2   
197  5   
198  100 
199  5   
200  65  
201  8   
202  55  
203  10  
204  6   
205  8   
206  5   
207  81  
208  8   
209  7   
210  6   
211  2   
212  57  
213  2   
214  10  
215  10  
216  4   
217  10  
218  9   
219  72  
220  85  
221  6   
222  5   
223  5   
224  10  
225  6   
226  8   
227  8   
228  6   
229  8   
230  1   
231  8   
232  5   
233  6   
234  10  
235  1   
236  9   
237  10  
238  5   
239  2   
240  57  
241  4   
242  74  
243  90  
244  7   
245  8   
246  5   
247  9   
248  6   
249  3   
250  4   
251  3   
252  5   
253  4   
254  9   
255  8   
256  10  
257  10  
258  54  
259  72  
260  4   
261  10  
262  2   
263  6   
264  3   
265  8   
266  7   
267  6   
268  3   
269  1   
270  1   
271  96  
272  8   
273  3   
274  3   
275  6   
276  2   
277  79  
278  8   
279  10  
280  6   
281  1   
282  3   
283  2   
284  5   
285  8   
286  62  
287  8   
288  1   
289  89  
290  7   
291  10  
292  1   
293  10  
294  1   
295  3   
296  6   
297  5   
298  5   
299  1   
300  5   
301  9   
302  7   
303  1   
304  10  
305  2   
306  9   
307  8   
308  8   
309  10  
310  5   
311  4   
312  7   
313  1   
314  2   
315  9   
316  2   
317  56  
318  7   
319  9   
320  6   
321  3   
322  64  
323  2   
324  7   
325  7   
326  8   
327  4   
328  5   
329  2   
330  5   
331  10  
332  74  
333  7   
334  3   
335  7   
336  3   
337  10  
338  4   
339  1   
340  6   
341  10  
342  9   
343  10  
344  2   
345  2   
346  6   
347  60  
348  10  
349  5   
350  10  
351  98  
352  1   
353  5   
354  66  
355  2   
356  10  
357  9   
358  8   
359  59  
360  78  
361  3   
362  5   
363  10  
364  8   
365  1   
366  1   
367  1   
368  2   
369  6   
370  10  
371  10  
372  58  
373  1   
374  90  
375  5   
376  70  
377  51  
378  8   
379  61  
380  5   
381  1   
382  6   
383  5   
384  9   
385  8   
386  9   
387  70  
388  4   
389  3   
390  3   
391  98  
392  10  
393  1   
394  7   
395  3   
396  70  
397  4   
398  7   
399  95  
400  10  
401  4   
402  10  
403  7   
404  7   
405  5   
406  6   
407  93  
408  9   
409  7   
410  4   
411  4   
412  10  
413  6   
414  90  
415  4   
416  2   
417  5   
418  84  
419  81  
420  5   
421  5   
422  4   
423  3   
424  9   
425  2   
426  5   
427  10  
428  84  
429  8   
430  1   
431  71  
432  2   
433  7   
434  6   
435  7   
436  1   
437  1   
438  10  
439  9   
440  10  
441  5   
442  2   
443  68  
444  5   
445  9   
446  9   
447  2   
448  76  
449  6   
450  7   
451  10  
452  4   
453  2   
454  3   
455  9   
456  1   
457  4   
458  5   
459  10  
460  6   
461  79  
462  8   
463  88  
464  73  
465  3   
466  6   
467  62  
468  8   
469  6   
470  10  
471  3   
472  8   
473  9   
474  67  
475  1   
476  4   
477  3   
478  7   
479  8   
480  4   
481  3   
482  4   
483  4   
484  7   
485  8   
486  8   
487  7   
488  4   
489  6   
490  2   
491  10  
492  8   
493  10  
494  67  
495  5   
496  3   
497  3   
498  4   
499  10  
500  2   
501  66  
502  7   
503  8   
504  5   
505  6   
506  97  
507  2   
508  3   
509  1   
510  9   
511  5   
512  9   
513  6   
514  7   
515  6   
516  10  
517  5   
518  1   
519  4   
520  3   
521  8   
522  9   
523  10  
524  4   
525  93  
526  81  
527  10  
528  87  
529  7   
530  98  
531  66  
532  7   
533  4   
534  5   
535  9   
536  6   
537  6   
538  1   
539  4   
540  2   
541  6   
542  4   
543  8   
544  7   
545  2   
546  3   
547  2   
548  8   
549  2   
550  3   
551  2   
552  2   
553  1   
554  6   
555  98  
556  9   
557  3   
558  9   
559  2   
560  68  
561  8   
562  1   
563  4   
564  3   
565  2   
566  6   
567  1   
568  1   
569  10  
570  1   
571  9   
572  1   
573  8   
574  2   
575  5   
576  10  
577  1   
578  3   
579  81  
580  8   
581  87  
582  3   
583  4   
584  3   
585  9   
586  10  
587  3   
588  4   
589  78  
590  3   
591  1   
592  3   
593  91  
594  7   
595  6   
596  60  
597  89  
598  7   
599  70  
600  6   
601  9   
602  7   
603  6   
604  6   
605  3   
606  99  
607  3   
608  1   
609  6   
610  6   
611  9   
612  1   
613  10  
614  6   
615  2   
616  8   
617  3   
618  9   
619  7   
620  9   
621  7   
622  2   
623  8   
624  7   
625  3   
626  1   
627  8   
628  7   
629  4   
630  8   
631  6   
632  95  
633  3   
634  83  
635  56  
636  9   
637  3   
638  1   
639  8   
640  58  
641  59  
642  56  
643  2   
644  3   
645  6   
646  9   
647  3   
648  80  
649  55  
650  5   
651  6   
652  7   
653  10  
654  5   
655  8   
656  75  
657  6   
658  2   
659  4   
660  85  
661  7   
662  4   
663  5   
664  4   
665  5   
666  6   
667  5   
668  4   
669  6   
670  4   
671  7   
672  92  
673  2   
674  10  
675  78  
676  7   
677  6   
678  2   
679  8   
680  1   
681  61  
682  8   
683  9   
684  4   
685  7   
686  2   
687  5   
688  7   
689  68  
690  3   
691  8   
692  75  
693  8   
694  2   
695  7   
696  58  
697  2   
698  89  
699  2   
700  5   
701  10  
702  8   
703  2   
704  9   
705  5   
706  6   
707  1   
708  3   
709  9   
710  3   
711  4   
712  2   
713  4   
714  3   
715  10  
716  7   
717  82  
718  86  
719  2   
720  56  
721  1   
722  3   
723  1   
724  8   
725  7   
726  77  
727  10  
728  1   
729  1   
730  6   
731  10  
732  54  
733  10  
734  7   
735  8   
736  7   
737  64  
738  99  
739  6   
740  1   
741  2   
742  6   
743  7   
744  6   
745  3   
746  89  
747  8   
748  2   
749  85  
750  10  
751  2   
752  5   
753  95  
754  2   
755  8   
756  10  
757  6   
758  10  
759  10  
760  5   
761  6   
762  1   
763  3   
764  7   
765  58  
766  5   
767  9   
768  4   
769  8   
770  9   
771  4   
772  4   
773  10  
774  9   
775  59  
776  5   
777  78  
778  4   
779  6   
780  7   
781  73  
782  6   
783  56  
784  9   
785  8   
786  88  
787  7   
788  4   
789  3   
790  4   
791  2   
792  9   
793  1   
794  96  
795  6   
796  9   
797  57  
798  7   
799  9   
800  3   
801  9   
802  5   
803  66  
804  1   
805  9   
806  7   
807  10  
808  8   
809  10  
810  10  
811  7   
812  8   
813  8   
814  5   
815  56  
816  1   
817  4   
818  10  
819  10  
820  2   
821  63  
822  1   
823  86  
824  93  
825  4   
826  3   
827  1   
828  7   
829  4   
830  9   
831  4   
832  1   
833  8   
834  10  
835  6   
836  6   
837  96  
838  5   
839  6   
840  8   
841  8   
842  4   
843  1   
844  3   
845  9   
846  100 
847  50  
848  9   
849  2   
850  1   
851  59  
852  8   
853  10  
854  7   
855  4   
856  75  
857  3   
858  4   
859  5   
860  10  
861  4   
862  9   
863  72  
864  1   
865  1   
866  76  
867  3   
868  10  
869  60  
870  4   
871  71  
872  9   
873  10  
874  58  
875  1   
876  62  
877  7   
878  10  
879  7   
880  70  
881  4   
882  4   
883  1   
884  4   
885  3   
886  5   
887  2   
888  2   
889  7   
890  2   
891  65  
892  87  
893  4   
894  10  
895  1   
896  76  
897  3   
898  1   
899  8   
900  6   
901  72  
902  7   
903  6   
904  3   
905  10  
906  10  
907  4   
908  10  
909  80  
910  3   
911  2   
912  10  
913  1   
914  6   
915  2   
916  84  
917  84  
918  8   
919  3   
920  4   
921  78  
922  74  
923  10  
924  59  
925  85  
926  2   
927  5   
928  5   
929  56  
930  7   
931  1   
932  6   
933  2   
934  7   
935  9   
936  6   
937  10  
938  9   
939  9   
940  3   
941  8   
942  6   
943  68  
944  9   
945  6   
946  5   
947  4   
948  3   
949  7   
950  8   
951  67  
952  1   
953  96  
954  78  
955  9   
956  8   
957  2   
958  7   
959  10  
960  6   
961  55  
962  2   
963  80  
964  5   
965  86  
966  3   
967  9   
968  4   
969  8   
970  6   
971  10  
972  6   
973  5   
974  3   
975  91  
976  5   
977  9   
978  6   
979  10  
980  10  
981  1   
982  8   
983  4   
984  7   
985  9   
986  10  
987  4   
988  3   
989  90  
990  7   
991  5   
992  4   
993  7   
994  97  
995  1   
996  1   
997  1   
998  3   
999  6   
1000 1   
1001 8   
1002 4   
1003 3   
1004 3   
1005 4   
1006 3   
1007 86  
1008 10  
1009 5   
1010 3   
1011 2   
1012 1   
1013 5   
1014 5   
1015 1   
1016 3   
1017 3   
1018 10  
1019 4   
1020 1   
1021 92  
1022 7   
1023 3   
1024 10  
1025 8   
1026 7   
1027 1   
1028 7   
1029 93  
1030 1   
1031 9   
1032 9   
1033 56  
1034 71  
1035 63  
1036 1   
1037 7   
1038 10  
1039 6   
1040 1   
1041 95  
1042 9   
1043 2   
1044 1   
1045 9   
1046 99  
1047 1   
1048 7   
1049 6   
1050 2   
1051 8   
1052 10  
1053 66  
1054 74  
1055 9   
1056 2   
1057 5   
1058 74  
1059 4   
1060 79  
1061 8   
1062 3   
1063 71  
1064 9   
1065 2   
1066 7   
1067 3   
1068 7   
1069 51  
1070 70  
1071 5   
1072 94  
1073 5   
1074 3   
1075 7   
1076 5   
1077 91  
1078 9   
1079 72  
1080 2   
1081 7   
1082 3   
1083 5   
1084 6   
1085 5   
1086 5   
1087 5   
1088 9   
1089 6   
1090 5   
1091 80  
1092 4   
1093 8   
1094 6   
1095 57  
1096 5   
1097 92  
1098 93  
1099 7   
1100 10  
1101 3   
1102 5   
1103 8   
1104 53  
1105 9   
1106 2   
1107 1   
1108 5   
1109 2   
1110 8   
1111 8   
1112 7   
1113 9   
1114 10  
1115 7   
1116 82  
1117 6   
1118 2   
1119 73  
1120 1   
1121 6   
1122 2   
1123 2   
1124 8   
1125 6   
1126 10  
1127 10  
1128 9   
1129 10  
1130 83  
1131 1   
1132 8   
1133 100 
1134 1   
1135 9   
1136 53  
1137 59  
1138 2   
1139 70  
1140 10  
1141 7   
1142 9   
1143 79  
1144 9   
1145 8   
1146 94  
1147 9   
1148 3   
1149 3   
1150 1   
1151 6   
1152 8   
1153 2   
1154 6   
1155 2   
1156 3   
1157 6   
1158 10  
1159 7   
1160 5   
1161 87  
1162 92  
1163 94  
1164 6   
1165 7   
1166 5   
1167 89  
1168 6   
1169 1   
1170 10  
1171 8   
1172 9   
1173 1   
1174 2   
1175 1   
1176 1   
1177 1   
1178 91  
1179 64  
1180 6   
1181 2   
1182 6   
1183 6   
1184 9   
1185 8   
1186 8   
1187 2   
1188 7   
1189 9   
1190 10  
1191 58  
1192 7   
1193 9   
1194 2   
1195 7   
1196 3   
1197 7   
1198 10  
1199 6   
1200 2   
1201 3   
1202 99  
1203 10  
1204 9   
1205 82  
1206 10  
1207 8   
1208 7   
1209 4   
1210 10  
1211 10  
1212 5   
1213 8   
1214 4   
1215 9   
1216 7   
1217 65  
1218 3   
1219 1   
1220 4   
1221 10  
1222 8   
1223 4   
1224 2   
1225 9   
1226 58  
1227 5   
1228 89  
1229 9   
1230 9   
1231 9   
1232 5   
1233 7   
1234 4   
1235 8   
1236 4   
1237 8   
1238 2   
1239 6   
1240 10  
1241 61  
1242 9   
1243 1   
1244 2   
1245 7   
1246 10  
1247 8   
1248 1   
1249 85  
1250 7   
1251 6   
1252 1   
1253 6   
1254 70  
1255 7   
1256 8   
1257 6   
1258 6   
1259 4   
1260 10  
1261 5   
1262 5   
1263 64  
1264 5   
1265 4   
1266 4   
1267 7   
1268 3   
1269 8   
1270 4   
1271 10  
1272 6   
1273 8   
1274 10  
1275 2   
1276 10  
1277 6   
1278 3   
1279 93  
1280 10  
1281 3   
1282 3   
1283 8   
1284 56  
1285 1   
1286 56  
1287 3   
1288 6   
1289 59  
1290 3   
1291 2   
1292 8   
1293 8   
1294 5   
1295 1   
1296 7   
1297 10  
1298 9   
1299 92  
1300 8   
1301 77  
1302 68  
1303 5   
1304 1   
1305 6   
1306 7   
1307 77  
1308 7   
1309 5   
1310 80  
1311 68  
1312 7   
1313 89  
1314 9   
1315 3   
1316 1   
1317 9   
1318 3   
1319 4   
1320 1   
1321 6   
1322 79  
1323 8   
1324 4   
1325 10  
1326 1   
1327 3   
1328 9   
1329 2   
1330 6   
1331 96  
1332 3   
1333 7   
1334 5   
1335 5   
1336 1   
1337 1   
1338 9   
1339 9   
1340 9   
1341 3   
1342 4   
1343 3   
1344 1   
1345 1   
1346 7   
1347 54  
1348 82  
1349 1   
1350 1   
1351 9   
1352 5   
1353 1   
1354 98  
1355 4   
1356 10  
1357 81  
1358 6   
1359 93  
1360 76  
1361 7   
1362 7   
1363 89  
1364 1   
1365 1   
1366 3   
1367 3   
1368 4   
1369 82  
1370 74  
1371 8   
1372 1   
1373 8   
1374 92  
1375 9   
1376 10  
1377 10  
1378 10  
1379 65  
1380 5   
1381 58  
1382 9   
1383 58  
1384 7   
1385 4   
1386 6   
1387 6   
1388 7   
1389 4   
1390 3   
1391 2   
1392 3   
1393 3   
1394 4   
1395 7   
1396 6   
1397 75  
1398 1   
1399 4   
1400 66  
1401 5   
1402 6   
1403 7   
1404 10  
1405 2   
1406 50  
1407 5   
1408 3   
1409 9   
1410 8   
1411 6   
1412 6   
1413 6   
1414 1   
1415 77  
1416 1   
1417 6   
1418 3   
1419 5   
1420 83  
1421 3   
1422 2   
1423 8   
1424 8   
1425 10  
1426 1   
1427 10  
1428 1   
1429 1   
1430 93  
1431 1   
1432 3   
1433 73  
1434 6   
1435 6   
1436 3   
1437 3   
1438 97  
1439 52  
1440 9   
1441 54  
1442 8   
1443 2   
1444 6   
1445 3   
1446 10  
1447 50  
1448 7   
1449 2   
1450 1   
1451 9   
1452 10  
1453 6   
1454 9   
1455 6   
1456 10  
1457 3   
1458 5   
1459 8   
1460 4   
1461 10  
1462 10  
1463 3   
1464 6   
1465 3   
1466 4   
1467 5   
1468 52  
1469 10  
1470 10  
1471 1   
1472 7   
1473 6   
1474 3   
1475 10  
1476 9   
1477 8   
1478 77  
1479 2   
1480 1   
1481 4   
1482 10  
1483 1   
1484 2   
1485 6   
1486 3   
1487 95  
1488 92  
1489 5   
1490 2   
1491 4   
1492 4   
1493 62  
1494 6   
1495 6   
1496 7   
1497 85  
1498 3   
1499 9   
1500 5   
1501 2   
1502 3   
1503 5   
1504 2   
1505 5   
1506 3   
1507 85  
1508 5   
1509 10  
1510 4   
1511 1   
1512 57  
1513 5   
1514 2   
1515 3   
1516 79  
1517 10  
1518 8   
1519 98  
1520 8   
1521 87  
1522 1   
1523 1   
1524 1   
1525 2   
1526 6   
1527 3   
1528 5   
1529 8   
1530 7   
1531 9   
1532 9   
1533 5   
1534 62  
1535 2   
1536 2   
1537 1   
1538 10  
1539 4   
1540 8   
1541 3   
1542 5   
1543 61  
1544 6   
1545 6   
1546 10  
1547 4   
1548 1   
1549 5   
1550 5   
1551 6   
1552 6   
1553 55  
1554 6   
1555 8   
1556 5   
1557 2   
1558 6   
1559 1   
1560 84  
1561 4   
1562 1   
1563 3   
1564 9   
1565 52  
1566 70  
1567 9   
1568 4   
1569 79  
1570 2   
1571 8   
1572 7   
1573 5   
1574 4   
1575 68  
1576 10  
1577 4   
1578 3   
1579 3   
1580 10  
1581 4   
1582 3   
1583 10  
1584 9   
1585 60  
1586 8   
1587 4   
1588 8   
1589 8   
1590 9   
1591 2   
1592 6   
1593 7   
1594 3   
1595 10  
1596 2   
1597 1   
1598 8   
1599 5   
1600 10  
1601 4   
1602 3   
1603 92  
1604 3   
1605 2   
1606 1   
1607 6   
1608 1   
1609 1   
1610 4   
1611 75  
1612 4   
1613 2   
1614 10  
1615 65  
1616 4   
1617 80  
1618 3   
1619 3   
1620 1   
1621 6   
1622 2   
1623 3   
1624 4   
1625 67  
1626 6   
1627 9   
1628 6   
1629 72  
1630 62  
1631 1   
1632 8   
1633 76  
1634 80  
1635 2   
1636 6   
1637 10  
1638 7   
1639 81  
1640 9   
1641 8   
1642 1   
1643 10  
1644 6   
1645 10  
1646 3   
1647 5   
1648 5   
1649 9   
1650 7   
1651 3   
1652 4   
1653 8   
1654 6   
1655 99  
1656 7   
1657 4   
1658 8   
1659 1   
1660 69  
1661 2   
1662 88  
1663 77  
1664 89  
1665 9   
1666 90  
1667 3   
1668 2   
1669 8   
1670 9   
1671 1   
1672 8   
1673 1   
1674 3   
1675 81  
1676 9   
1677 1   
1678 5   
1679 9   
1680 4   
1681 6   
1682 75  
1683 3   
1684 2   
1685 6   
1686 9   
1687 10  
1688 4   
1689 7   
1690 9   
1691 6   
1692 10  
1693 10  
1694 8   
1695 7   
1696 5   
1697 78  
1698 3   
1699 1   
1700 10  
1701 2   
1702 6   
1703 85  
1704 71  
1705 5   
1706 4   
1707 5   
1708 7   
1709 10  
1710 63  
1711 3   
1712 2   
1713 1   
1714 67  
1715 4   
1716 66  
1717 8   
1718 8   
1719 7   
1720 59  
1721 3   
1722 96  
1723 5   
1724 4   
1725 8   
1726 52  
1727 100 
1728 78  
1729 4   
1730 5   
1731 9   
1732 6   
1733 9   
1734 58  
1735 77  
1736 64  
1737 100 
1738 72  
1739 7   
1740 4   
1741 6   
1742 5   
1743 4   
1744 9   
1745 10  
1746 10  
1747 10  
1748 9   
1749 5   
1750 8   
1751 9   
1752 91  
1753 6   
1754 6   
1755 55  
1756 8   
1757 8   
1758 6   
1759 2   
1760 1   
1761 2   
1762 9   
1763 4   
1764 4   
1765 4   
1766 9   
1767 1   
1768 6   
1769 9   
1770 10  
1771 8   
1772 7   
1773 3   
1774 8   
1775 9   
1776 9   
1777 95  
1778 5   
1779 4   
1780 7   
1781 71  
1782 8   
1783 2   
1784 6   
1785 5   
1786 65  
1787 3   
1788 9   
1789 2   
1790 89  
1791 4   
1792 9   
1793 2   
1794 1   
1795 7   
1796 7   
1797 4   
1798 77  
1799 3   
1800 6   
1801 9   
1802 66  
1803 1   
1804 62  
1805 6   
1806 7   
1807 62  
1808 9   
1809 1   
1810 3   
1811 51  
1812 88  
1813 67  
1814 2   
1815 3   
1816 4   
1817 1   
1818 9   
1819 4   
1820 94  
1821 3   
1822 1   
1823 4   
1824 80  
1825 6   
1826 5   
1827 10  
1828 4   
1829 2   
1830 4   
1831 79  
1832 2   
1833 7   
1834 5   
1835 5   
1836 83  
1837 1   
1838 6   
1839 5   
1840 9   
1841 7   
1842 4   
1843 58  
1844 4   
1845 50  
1846 9   
1847 5   
1848 5   
1849 2   
1850 3   
1851 2   
1852 52  
1853 3   
1854 5   
1855 4   
1856 72  
1857 6   
1858 6   
1859 3   
1860 74  
1861 1   
1862 2   
1863 100 
1864 93  
1865 5   
1866 98  
1867 3   
1868 3   
1869 2   
1870 3   
1871 52  
1872 6   
1873 4   
1874 6   
1875 3   
1876 72  
1877 8   
1878 3   
1879 6   
1880 9   
1881 77  
1882 9   
1883 5   
1884 1   
1885 3   
1886 55  
1887 9   
1888 6   
1889 8   
1890 7   
1891 3   
1892 74  
1893 4   
1894 8   
1895 6   
1896 75  
1897 7   
1898 7   
1899 2   
1900 8   
1901 8   
1902 4   
1903 3   
1904 98  
1905 3   
1906 10  
1907 6   
1908 89  
1909 5   
1910 8   
1911 2   
1912 4   
1913 10  
1914 8   
1915 7   
1916 73  
1917 3   
1918 5   
1919 3   
1920 3   
1921 2   
1922 1   
1923 57  
1924 8   
1925 1   
1926 10  
1927 6   
1928 2   
1929 10  
1930 9   
1931 3   
1932 10  
1933 1   
1934 62  
1935 10  
1936 5   
1937 4   
1938 8   
1939 4   
1940 3   
1941 6   
1942 2   
1943 9   
1944 82  
1945 10  
1946 1   
1947 6   
1948 9   
1949 3   
1950 1   
1951 5   
1952 8   
1953 10  
1954 3   
1955 10  
1956 4   
1957 53  
1958 67  
1959 9   
1960 73  
1961 4   
1962 78  
1963 100 
1964 4   
1965 2   
1966 64  
1967 1   
1968 7   
1969 8   
1970 61  
1971 51  
1972 80  
1973 5   
1974 8   
1975 3   
1976 79  
1977 10  
1978 10  
1979 72  
1980 6   
1981 6   
1982 9   
1983 9   
1984 6   
1985 8   
1986 1   
1987 6   
1988 8   
1989 2   
1990 4   
1991 9   
1992 3   
1993 70  
1994 72  
1995 6   
1996 9   
1997 8   
1998 8   
1999 3   
2000 5   
2001 8   
2002 6   
2003 2   
2004 7   
2005 80  
2006 1   
2007 4   
2008 2   
2009 87  
2010 10  
2011 2   
2012 79  
2013 8   
2014 5   
2015 7   
2016 7   
2017 10  
2018 1   
2019 95  
2020 9   
2021 10  
2022 6   
2023 74  
2024 92  
2025 89  
2026 1   
2027 7   
2028 90  
2029 5   
2030 5   
2031 66  
2032 6   
2033 9   
2034 10  
2035 88  
2036 8   
2037 7   
2038 7   
2039 91  
2040 7   
2041 9   
2042 62  
2043 7   
2044 7   
2045 4   
2046 4   
2047 8   
2048 76  
2049 8   
2050 2   
2051 1   
2052 9   
2053 7   
2054 62  
2055 8   
2056 76  
2057 8   
2058 10  
2059 83  
2060 91  
2061 1   
2062 8   
2063 100 
2064 10  
2065 6   
2066 4   
2067 5   
2068 82  
2069 10  
2070 6   
2071 7   
2072 57  
2073 2   
2074 7   
2075 5   
2076 1   
2077 10  
2078 3   
2079 4   
2080 1   
2081 6   
2082 63  
2083 2   
2084 8   
2085 10  
2086 54  
2087 7   
2088 9   
2089 8   
2090 66  
2091 10  
2092 7   
2093 78  
2094 2   
2095 3   
2096 1   
2097 76  
2098 8   
2099 2   
2100 5   
2101 4   
2102 3   
2103 4   
2104 51  
2105 9   
2106 4   
2107 5   
2108 4   
2109 81  
2110 81  
2111 6   
2112 1   
2113 2   
2114 5   
2115 2   
2116 10  
2117 3   
2118 1   
2119 10  
2120 9   
2121 8   
2122 55  
2123 1   
2124 96  
2125 5   
2126 1   
2127 3   
2128 8   
2129 7   
2130 5   
2131 10  
2132 8   
2133 87  
2134 8   
2135 7   
2136 3   
2137 4   
2138 10  
2139 8   
2140 4   
2141 8   
2142 4   
2143 1   
2144 2   
2145 10  
2146 67  
2147 1   
2148 2   
2149 9   
2150 3   
2151 5   
2152 6   
2153 78  
2154 4   
2155 6   
2156 2   
2157 9   
2158 6   
2159 10  
2160 3   
2161 9   
2162 9   
2163 7   
2164 1   
2165 2   
2166 87  
2167 6   
2168 81  
2169 2   
2170 92  
2171 4   
2172 3   
2173 9   
2174 8   
2175 3   
2176 9   
2177 9   
2178 5   
2179 2   
2180 3   
2181 7   
2182 7   
2183 3   
2184 4   
2185 3   
2186 6   
2187 3   
2188 1   
2189 4   
2190 8   
2191 6   
2192 95  
2193 77  
2194 1   
2195 6   
2196 8   
2197 7   
2198 2   
2199 58  
2200 6   
2201 7   
2202 10  
2203 1   
2204 6   
2205 6   
2206 2   
2207 9   
2208 5   
2209 81  
2210 10  
2211 1   
2212 10  
2213 78  
2214 4   
2215 4   
2216 3   
2217 6   
2218 8   
2219 4   
2220 6   
2221 84  
2222 7   
2223 10  
2224 9   
2225 7   
2226 2   
2227 1   
2228 6   
2229 3   
2230 10  
2231 3   
2232 8   
2233 4   
2234 9   
2235 94  
2236 7   
2237 2   
2238 81  
2239 6   
2240 1   
2241 7   
2242 8   
2243 8   
2244 10  
2245 4   
2246 5   
2247 1   
2248 9   
2249 2   
2250 1   
2251 83  
2252 3   
2253 5   
2254 6   
2255 3   
2256 6   
2257 7   
2258 2   
2259 7   
2260 9   
2261 53  
2262 5   
2263 4   
2264 6   
2265 7   
2266 95  
2267 6   
2268 61  
2269 88  
2270 85  
2271 90  
2272 5   
2273 1   
2274 4   
2275 10  
2276 79  
2277 10  
2278 7   
2279 4   
2280 3   
2281 5   
2282 6   
2283 9   
2284 2   
2285 7   
2286 86  
2287 7   
2288 3   
2289 2   
2290 1   
2291 99  
2292 3   
2293 3   
2294 10  
2295 3   
2296 6   
2297 9   
2298 5   
2299 9   
2300 87  
2301 10  
2302 5   
2303 10  
2304 2   
2305 96  
2306 5   
2307 1   
2308 7   
2309 8   
2310 5   
2311 8   
2312 58  
2313 76  
2314 54  
2315 5   
2316 81  
2317 1   
2318 4   
2319 8   
2320 4   
2321 87  
2322 91  
2323 5   
2324 2   
2325 8   
2326 59  
2327 10  
2328 71  
2329 75  
2330 1   
2331 6   
2332 9   
2333 94  
2334 62  
2335 7   
2336 70  
2337 4   
2338 6   
2339 99  
2340 7   
2341 3   
2342 69  
2343 4   
2344 10  
2345 1   
2346 6   
2347 5   
2348 6   
2349 61  
2350 10  
2351 10  
2352 6   
2353 10  
2354 6   
2355 5   
2356 10  
2357 5   
2358 2   
2359 7   
2360 7   
2361 5   
2362 4   
2363 2   
2364 1   
2365 8   
2366 62  
2367 1   
2368 9   
2369 94  
2370 7   
2371 2   
2372 1   
2373 1   
2374 4   
2375 2   
2376 8   
2377 1   
2378 98  
2379 7   
2380 98  
2381 8   
2382 7   
2383 8   
2384 86  
2385 6   
2386 1   
2387 57  
2388 10  
2389 77  
2390 5   
2391 85  
2392 6   
2393 7   
2394 7   
2395 4   
2396 100 
2397 4   
2398 50  
2399 8   
2400 9   
2401 1   
2402 5   
2403 10  
2404 6   
2405 63  
2406 8   
2407 79  
2408 5   
2409 8   
2410 85  
2411 3   
2412 7   
2413 9   
2414 53  
2415 5   
2416 5   
2417 7   
2418 79  
2419 6   
2420 9   
2421 89  
2422 71  
2423 5   
2424 8   
2425 96  
2426 4   
2427 94  
2428 10  
2429 5   
2430 6   
2431 8   
2432 10  
2433 2   
2434 6   
2435 2   
2436 2   
2437 1   
2438 9   
2439 97  
2440 1   
2441 59  
2442 8   
2443 2   
2444 6   
2445 74  
2446 2   
2447 56  
2448 9   
2449 5   
2450 6   
2451 3   
2452 6   
2453 10  
2454 5   
2455 6   
2456 6   
2457 6   
2458 75  
2459 3   
2460 5   
2461 10  
2462 95  
2463 6   
2464 7   
2465 3   
2466 4   
2467 5   
2468 7   
2469 7   
2470 55  
2471 10  
2472 8   
2473 2   
2474 61  
2475 1   
2476 6   
2477 7   
2478 3   
2479 8   
2480 4   
2481 3   
2482 9   
2483 5   
2484 10  
2485 7   
2486 75  
2487 3   
2488 4   
2489 6   
2490 9   
2491 10  
2492 51  
2493 6   
2494 80  
2495 2   
2496 8   
2497 3   
2498 6   
2499 97  
2500 5   
2501 7   
2502 10  
2503 9   
2504 5   
2505 9   
2506 5   
2507 8   
2508 2   
2509 3   
2510 9   
2511 1   
2512 10  
2513 79  
2514 7   
2515 6   
2516 5   
2517 94  
2518 53  
2519 10  
2520 83  
2521 5   
2522 1   
2523 3   
2524 7   
2525 3   
2526 80  
2527 68  
2528 1   
2529 8   
2530 80  
2531 1   
2532 52  
2533 5   
2534 3   
2535 4   
2536 9   
2537 7   
2538 6   
2539 1   
2540 3   
2541 1   
2542 3   
2543 2   
2544 5   
2545 92  
2546 87  
2547 1   
2548 71  
2549 9   
2550 6   
2551 4   
2552 4   
2553 9   
2554 5   
2555 2   
2556 52  
2557 92  
2558 1   
2559 7   
2560 5   
2561 1   
2562 66  
2563 10  
2564 1   
2565 8   
2566 5   
2567 60  
2568 10  
2569 8   
2570 10  
2571 9   
2572 5   
2573 2   
2574 10  
2575 6   
2576 9   
2577 65  
2578 67  
2579 100 
2580 5   
2581 7   
2582 4   
2583 5   
2584 4   
2585 1   
2586 5   
2587 4   
2588 3   
2589 1   
2590 6   
2591 5   
2592 10  
2593 2   
2594 5   
2595 9   
2596 6   
2597 7   
2598 3   
2599 7   
2600 1   
2601 9   
2602 1   
2603 79  
2604 97  
2605 74  
2606 6   
2607 5   
2608 91  
2609 10  
2610 5   
2611 88  
2612 3   
2613 4   
2614 77  
2615 5   
2616 5   
2617 3   
2618 8   
2619 9   
2620 1   
2621 65  
2622 5   
2623 2   
2624 71  
2625 70  
2626 5   
2627 3   
2628 5   
2629 7   
2630 7   
2631 6   
2632 53  
2633 8   
2634 10  
2635 4   
2636 2   
2637 8   
2638 2   
2639 3   
2640 4   
2641 60  
2642 67  
2643 2   
2644 4   
2645 4   
2646 61  
2647 6   
2648 6   
2649 9   
2650 9   
2651 7   
2652 9   
2653 78  
2654 3   
2655 1   
2656 5   
2657 10  
2658 7   
2659 51  
2660 2   
2661 93  
2662 9   
2663 87  
2664 88  
2665 1   
2666 1   
2667 7   
2668 8   
2669 8   
2670 2   
2671 7   
2672 9   
2673 6   
2674 4   
2675 62  
2676 7   
2677 7   
2678 10  
2679 3   
2680 2   
2681 3   
2682 4   
2683 2   
2684 7   
2685 1   
2686 3   
2687 7   
2688 2   
2689 2   
2690 5   
2691 5   
2692 8   
2693 77  
2694 4   
2695 3   
2696 72  
2697 10  
2698 8   
2699 6   
2700 9   
2701 9   
2702 6   
2703 1   
2704 10  
2705 3   
2706 7   
2707 7   
2708 66  
2709 74  
2710 80  
2711 7   
2712 76  
2713 2   
2714 8   
2715 1   
2716 5   
2717 5   
2718 2   
2719 7   
2720 4   
2721 6   
2722 4   
2723 54  
2724 5   
2725 5   
2726 7   
2727 7   
2728 8   
2729 6   
2730 1   
2731 7   
2732 6   
2733 5   
2734 4   
2735 1   
2736 9   
2737 9   
2738 76  
2739 8   
2740 1   
2741 61  
2742 1   
2743 10  
2744 7   
2745 8   
2746 2   
2747 5   
2748 8   
2749 5   
2750 57  
2751 7   
2752 5   
2753 8   
2754 77  
2755 4   
2756 55  
2757 4   
2758 7   
2759 4   
2760 9   
2761 3   
2762 4   
2763 7   
2764 3   
2765 3   
2766 1   
2767 9   
2768 8   
2769 2   
2770 2   
2771 1   
2772 2   
2773 51  
2774 9   
2775 2   
2776 57  
2777 53  
2778 7   
2779 3   
2780 71  
2781 8   
2782 8   
2783 1   
2784 8   
2785 6   
2786 6   
2787 3   
2788 7   
2789 8   
2790 57  
2791 4   
2792 4   
2793 8   
2794 8   
2795 1   
2796 78  
2797 82  
2798 4   
2799 5   
2800 3   
2801 1   
2802 71  
2803 4   
2804 9   
2805 8   
2806 61  
2807 2   
2808 1   
2809 6   
2810 8   
2811 1   
2812 5   
2813 4   
2814 7   
2815 1   
2816 8   
2817 3   
2818 97  
2819 3   
2820 2   
2821 9   
2822 3   
2823 70  
2824 7   
2825 3   
2826 2   
2827 9   
2828 10  
2829 10  
2830 7   
2831 9   
2832 7   
2833 8   
2834 6   
2835 9   
2836 5   
2837 50  
2838 4   
2839 8   
2840 3   
2841 6   
2842 5   
2843 10  
2844 5   
2845 8   
2846 8   
2847 8   
2848 9   
2849 6   
2850 4   
2851 10  
2852 8   
2853 6   
2854 6   
2855 7   
2856 95  
2857 7   
2858 10  
2859 8   
2860 4   
2861 3   
2862 50  
2863 10  
2864 10  
2865 94  
2866 2   
2867 52  
2868 5   
2869 8   
2870 7   
2871 9   
2872 4   
2873 4   
2874 4   
2875 9   
2876 1   
2877 60  
2878 8   
2879 9   
2880 10  
2881 8   
2882 3   
2883 52  
2884 7   
2885 7   
2886 7   
2887 2   
2888 7   
2889 4   
2890 1   
2891 6   
2892 8   
2893 4   
2894 77  
2895 8   
2896 10  
2897 7   
2898 2   
2899 8   
2900 65  
2901 3   
2902 88  
2903 3   
2904 10  
2905 2   
2906 3   
2907 10  
2908 10  
2909 6   
2910 10  
2911 8   
2912 2   
2913 2   
2914 2   
2915 10  
2916 1   
2917 4   
2918 10  
2919 2   
2920 8   
2921 58  
2922 5   
2923 9   
2924 7   
2925 83  
2926 58  
2927 2   
2928 4   
2929 6   
2930 5   
2931 8   
2932 7   
2933 9   
2934 7   
2935 5   
2936 5   
2937 7   
2938 78  
2939 93  
2940 10  
2941 10  
2942 84  
2943 8   
2944 10  
2945 3   
2946 1   
2947 8   
2948 100 
2949 2   
2950 91  
2951 52  
2952 8   
2953 6   
2954 6   
2955 3   
2956 10  
2957 76  
2958 8   
2959 7   
2960 6   
2961 7   
2962 69  
2963 7   
2964 7   
2965 3   
2966 1   
2967 95  
2968 8   
2969 8   
2970 10  
2971 95  
2972 2   
2973 2   
2974 10  
2975 83  
2976 2   
2977 4   
2978 6   
2979 71  
2980 10  
2981 3   
2982 64  
2983 3   
2984 8   
2985 1   
2986 5   
2987 5   
2988 68  
2989 3   
2990 3   
2991 8   
2992 8   
2993 7   
2994 2   
2995 8   
2996 4   
2997 99  
2998 9   
2999 10  
3000 67  
3001 1   
3002 8   
3003 2   
3004 60  
3005 9   
3006 98  
3007 5   
3008 7   
3009 4   
3010 4   
3011 6   
3012 1   
3013 10  
3014 2   
3015 10  
3016 8   
3017 8   
3018 3   
3019 10  
3020 2   
3021 10  
3022 72  
3023 6   
3024 10  
3025 1   
3026 10  
3027 2   
3028 6   
3029 81  
3030 1   
3031 3   
3032 77  
3033 62  
3034 52  
3035 5   
3036 8   
3037 75  
3038 8   
3039 53  
3040 53  
3041 10  
3042 69  
3043 9   
3044 51  
3045 7   
3046 1   
3047 6   
3048 5   
3049 2   
3050 6   
3051 5   
3052 9   
3053 4   
3054 9   
3055 2   
3056 6   
3057 96  
3058 99  
3059 9   
3060 51  
3061 4   
3062 3   
3063 2   
3064 3   
3065 9   
3066 4   
3067 60  
3068 97  
3069 61  
3070 50  
3071 92  
3072 4   
3073 1   
3074 3   
3075 1   
3076 3   
3077 5   
3078 7   
3079 1   
3080 8   
3081 9   
3082 10  
3083 8   
3084 1   
3085 10  
3086 76  
3087 79  
3088 3   
3089 70  
3090 2   
3091 1   
3092 56  
3093 67  
3094 59  
3095 4   
3096 72  
3097 6   
3098 8   
3099 2   
3100 6   
3101 9   
3102 96  
3103 7   
3104 51  
3105 5   
3106 6   
3107 93  
3108 10  
3109 6   
3110 2   
3111 2   
3112 6   
3113 6   
3114 5   
3115 6   
3116 57  
3117 2   
3118 4   
3119 78  
3120 4   
3121 10  
3122 4   
3123 4   
3124 8   
3125 2   
3126 9   
3127 3   
3128 5   
3129 7   
3130 5   
3131 1   
3132 97  
3133 10  
3134 1   
3135 7   
3136 8   
3137 10  
3138 10  
3139 70  
3140 91  
3141 6   
3142 52  
3143 78  
3144 4   
3145 4   
3146 7   
3147 3   
3148 4   
3149 2   
3150 6   
3151 4   
3152 72  
3153 10  
3154 1   
3155 89  
3156 7   
3157 2   
3158 9   
3159 2   
3160 9   
3161 3   
3162 1   
3163 2   
3164 7   
3165 62  
3166 7   
3167 9   
3168 2   
3169 71  
3170 2   
3171 3   
3172 4   
3173 3   
3174 7   
3175 1   
3176 10  
3177 7   
3178 6   
3179 2   
3180 9   
3181 65  
3182 76  
3183 5   
3184 3   
3185 9   
3186 4   
3187 5   
3188 100 
3189 7   
3190 69  
3191 10  
3192 9   
3193 4   
3194 9   
3195 7   
3196 5   
3197 8   
3198 7   
3199 3   
3200 4   
3201 2   
3202 8   
3203 10  
3204 10  
3205 5   
3206 3   
3207 10  
3208 9   
3209 1   
3210 5   
3211 9   
3212 8   
3213 67  
3214 3   
3215 3   
3216 6   
3217 6   
3218 7   
3219 5   
3220 5   
3221 8   
3222 3   
3223 5   
3224 8   
3225 8   
3226 5   
3227 68  
3228 74  
3229 9   
3230 6   
3231 80  
3232 9   
3233 8   
3234 2   
3235 2   
3236 5   
3237 68  
3238 3   
3239 1   
3240 52  
3241 3   
3242 4   
3243 99  
3244 86  
3245 9   
3246 6   
3247 95  
3248 6   
3249 100 
3250 7   
3251 6   
3252 7   
3253 5   
3254 10  
3255 66  
3256 4   
3257 9   
3258 5   
3259 72  
3260 6   
3261 3   
3262 2   
3263 7   
3264 10  
3265 88  
3266 60  
3267 9   
3268 8   
3269 6   
3270 3   
3271 2   
3272 9   
3273 9   
3274 97  
3275 6   
3276 2   
3277 97  
3278 9   
3279 95  
3280 2   
3281 1   
3282 4   
3283 2   
3284 96  
3285 2   
3286 2   
3287 10  
3288 7   
3289 2   
3290 98  
3291 2   
3292 1   
3293 7   
3294 64  
3295 4   
3296 7   
3297 60  
3298 2   
3299 3   
3300 2   
3301 6   
3302 6   
3303 2   
3304 5   
3305 7   
3306 6   
3307 79  
3308 3   
3309 6   
3310 1   
3311 3   
3312 1   
3313 8   
3314 55  
3315 10  
3316 3   
3317 5   
3318 90  
3319 7   
3320 7   
3321 7   
3322 3   
3323 82  
3324 9   
3325 7   
3326 7   
3327 4   
3328 6   
3329 1   
3330 5   
3331 1   
3332 92  
3333 50  
3334 1   
3335 4   
3336 68  
3337 1   
3338 2   
3339 3   
3340 10  
3341 6   
3342 8   
3343 5   
3344 7   
3345 8   
3346 6   
3347 2   
3348 5   
3349 8   
3350 69  
3351 9   
3352 4   
3353 78  
3354 7   
3355 66  
3356 9   
3357 3   
3358 59  
3359 6   
3360 6   
3361 10  
3362 4   
3363 9   
3364 6   
3365 3   
3366 8   
3367 79  
3368 8   
3369 1   
3370 69  
3371 9   
3372 10  
3373 1   
3374 6   
3375 100 
3376 3   
3377 3   
3378 64  
3379 5   
3380 68  
3381 5   
3382 8   
3383 3   
3384 6   
3385 2   
3386 66  
3387 2   
3388 76  
3389 1   
3390 4   
3391 1   
3392 1   
3393 6   
3394 5   
3395 10  
3396 3   
3397 2   
3398 8   
3399 8   
3400 95  
3401 6   
3402 6   
3403 4   
3404 8   
3405 1   
3406 2   
3407 5   
3408 3   
3409 9   
3410 3   
3411 1   
3412 100 
3413 5   
3414 8   
3415 5   
3416 9   
3417 67  
3418 9   
3419 8   
3420 2   
3421 60  
3422 4   
3423 5   
3424 7   
3425 8   
3426 3   
3427 4   
3428 9   
3429 9   
3430 10  
3431 58  
3432 8   
3433 98  
3434 70  
3435 59  
3436 7   
3437 68  
3438 90  
3439 81  
3440 3   
3441 10  
3442 10  
3443 9   
3444 4   
3445 7   
3446 1   
3447 3   
3448 3   
3449 9   
3450 5   
3451 5   
3452 1   
3453 58  
3454 6   
3455 4   
3456 2   
3457 3   
3458 1   
3459 10  
3460 4   
3461 9   
3462 6   
3463 4   
3464 61  
3465 7   
3466 10  
3467 4   
3468 4   
3469 2   
3470 2   
3471 97  
3472 83  
3473 6   
3474 100 
3475 4   
3476 97  
3477 9   
3478 2   
3479 3   
3480 1   
3481 10  
3482 5   
3483 4   
3484 62  
3485 10  
3486 2   
3487 9   
3488 2   
3489 9   
3490 9   
3491 1   
3492 1   
3493 95  
3494 3   
3495 4   
3496 10  
3497 5   
3498 8   
3499 1   
3500 9   
3501 4   
3502 7   
3503 6   
3504 2   
3505 7   
3506 4   
3507 7   
3508 6   
3509 3   
3510 3   
3511 7   
3512 10  
3513 8   
3514 73  
3515 4   
3516 6   
3517 2   
3518 92  
3519 1   
3520 1   
3521 9   
3522 9   
3523 2   
3524 4   
3525 5   
3526 5   
3527 7   
3528 62  
3529 4   
3530 99  
3531 4   
3532 7   
3533 3   
3534 7   
3535 84  
3536 4   
3537 8   
3538 2   
3539 2   
3540 10  
3541 50  
3542 7   
3543 99  
3544 5   
3545 8   
3546 59  
3547 3   
3548 2   
3549 5   
3550 7   
3551 4   
3552 10  
3553 57  
3554 2   
3555 9   
3556 8   
3557 4   
3558 5   
3559 9   
3560 9   
3561 1   
3562 2   
3563 2   
3564 7   
3565 1   
3566 9   
3567 3   
3568 84  
3569 1   
3570 7   
3571 10  
3572 3   
3573 80  
3574 7   
3575 2   
3576 2   
3577 65  
3578 9   
3579 2   
3580 9   
3581 7   
3582 4   
3583 4   
3584 50  
3585 1   
3586 2   
3587 1   
3588 7   
3589 4   
3590 1   
3591 5   
3592 10  
3593 1   
3594 2   
3595 10  
3596 4   
3597 10  
3598 3   
3599 77  
3600 2   
3601 10  
3602 50  
3603 3   
3604 4   
3605 2   
3606 2   
3607 3   
3608 4   
3609 4   
3610 5   
3611 10  
3612 1   
3613 62  
3614 10  
3615 7   
3616 78  
3617 1   
3618 67  
3619 7   
3620 5   
3621 9   
3622 4   
3623 59  
3624 10  
3625 4   
3626 1   
3627 9   
3628 4   
3629 10  
3630 2   
3631 8   
3632 8   
3633 7   
3634 7   
3635 2   
3636 5   
3637 10  
3638 1   
3639 63  
3640 2   
3641 94  
3642 3   
3643 52  
3644 9   
3645 6   
3646 5   
3647 10  
3648 3   
3649 6   
3650 5   
3651 5   
3652 54  
3653 78  
3654 1   
3655 7   
3656 6   
3657 68  
3658 5   
3659 10  
3660 8   
3661 2   
3662 2   
3663 4   
3664 9   
3665 7   
3666 73  
3667 2   
3668 82  
3669 4   
3670 5   
3671 5   
3672 51  
3673 8   
3674 6   
3675 8   
3676 1   
3677 2   
3678 1   
3679 4   
3680 4   
3681 95  
3682 63  
3683 1   
3684 63  
3685 10  
3686 3   
3687 5   
3688 2   
3689 9   
3690 8   
3691 8   
3692 6   
3693 5   
3694 63  
3695 6   
3696 9   
3697 73  
3698 10  
3699 4   
3700 1   
3701 1   
3702 66  
3703 6   
3704 4   
3705 8   
3706 2   
3707 90  
3708 66  
3709 8   
3710 2   
3711 1   
3712 1   
3713 5   
3714 2   
3715 5   
3716 77  
3717 69  
3718 93  
3719 6   
3720 5   
3721 4   
3722 3   
3723 9   
3724 4   
3725 10  
3726 2   
3727 71  
3728 6   
3729 10  
3730 8   
3731 7   
3732 99  
3733 5   
3734 10  
3735 6   
3736 78  
3737 4   
3738 5   
3739 2   
3740 8   
3741 9   
3742 7   
3743 9   
3744 2   
3745 5   
3746 8   
3747 2   
3748 7   
3749 6   
3750 3   
3751 58  
3752 59  
3753 55  
3754 6   
3755 94  
3756 6   
3757 8   
3758 10  
3759 95  
3760 5   
3761 97  
3762 10  
3763 4   
3764 1   
3765 3   
3766 89  
3767 59  
3768 6   
3769 1   
3770 2   
3771 7   
3772 9   
3773 3   
3774 62  
3775 5   
3776 7   
3777 82  
3778 5   
3779 3   
3780 3   
3781 5   
3782 4   
3783 1   
3784 74  
3785 79  
3786 7   
3787 3   
3788 52  
3789 4   
3790 9   
3791 7   
3792 2   
3793 8   
3794 3   
3795 7   
3796 9   
3797 4   
3798 50  
3799 4   
3800 5   
3801 88  
3802 10  
3803 92  
3804 69  
3805 8   
3806 1   
3807 1   
3808 10  
3809 5   
3810 3   
3811 82  
3812 3   
3813 93  
3814 5   
3815 9   
3816 59  
3817 3   
3818 3   
3819 8   
3820 2   
3821 2   
3822 66  
3823 3   
3824 2   
3825 2   
3826 4   
3827 4   
3828 6   
3829 5   
3830 1   
3831 6   
3832 7   
3833 4   
3834 95  
3835 8   
3836 6   
3837 10  
3838 61  
3839 2   
3840 7   
3841 6   
3842 1   
3843 7   
3844 64  
3845 5   
3846 4   
3847 2   
3848 4   
3849 9   
3850 95  
3851 1   
3852 1   
3853 66  
3854 8   
3855 8   
3856 9   
3857 4   
3858 9   
3859 5   
3860 9   
3861 52  
3862 4   
3863 4   
3864 77  
3865 7   
3866 5   
3867 6   
3868 53  
3869 4   
3870 1   
3871 6   
3872 3   
3873 78  
3874 1   
3875 7   
3876 10  
3877 5   
3878 10  
3879 9   
3880 7   
3881 78  
3882 7   
3883 5   
3884 9   
3885 2   
3886 2   
3887 72  
3888 2   
3889 1   
3890 2   
3891 10  
3892 2   
3893 7   
3894 10  
3895 1   
3896 3   
3897 4   
3898 8   
3899 9   
3900 8   
3901 4   
3902 68  
3903 6   
3904 10  
3905 9   
3906 7   
3907 6   
3908 8   
3909 6   
3910 3   
3911 3   
3912 4   
3913 4   
3914 1   
3915 51  
3916 3   
3917 2   
3918 6   
3919 6   
3920 8   
3921 5   
3922 5   
3923 5   
3924 3   
3925 7   
3926 81  
3927 80  
3928 1   
3929 53  
3930 4   
3931 8   
3932 73  
3933 9   
3934 1   
3935 2   
3936 4   
3937 8   
3938 9   
3939 86  
3940 10  
3941 7   
3942 9   
3943 8   
3944 9   
3945 1   
3946 91  
3947 74  
3948 7   
3949 8   
3950 98  
3951 3   
3952 77  
3953 3   
3954 4   
3955 7   
3956 2   
3957 3   
3958 91  
3959 84  
3960 75  
3961 5   
3962 9   
3963 9   
3964 82  
3965 2   
3966 7   
3967 93  
3968 7   
3969 1   
3970 85  
3971 3   
3972 10  
3973 6   
3974 77  
3975 74  
3976 3   
3977 2   
3978 7   
3979 8   
3980 1   
3981 5   
3982 2   
3983 4   
3984 10  
3985 4   
3986 1   
3987 8   
3988 86  
3989 3   
3990 1   
3991 8   
3992 3   
3993 1   
3994 1   
3995 6   
3996 1   
3997 1   
3998 10  
3999 3   
4000 1   
4001 3   
4002 9   
4003 7   
4004 1   
4005 4   
4006 5   
4007 6   
4008 2   
4009 2   
4010 9   
4011 5   
4012 1   
4013 4   
4014 5   
4015 5   
4016 8   
4017 10  
4018 1   
4019 8   
4020 10  
4021 9   
4022 10  
4023 6   
4024 3   
4025 9   
4026 5   
4027 2   
4028 2   
4029 4   
4030 10  
4031 73  
4032 1   
4033 75  
4034 9   
4035 93  
4036 4   
4037 3   
4038 7   
4039 3   
4040 4   
4041 1   
4042 3   
4043 52  
4044 1   
4045 10  
4046 7   
4047 1   
4048 8   
4049 7   
4050 82  
4051 4   
4052 73  
4053 1   
4054 10  
4055 2   
4056 3   
4057 8   
4058 8   
4059 99  
4060 5   
4061 81  
4062 9   
4063 9   
4064 8   
4065 2   
4066 3   
4067 10  
4068 81  
4069 10  
4070 76  
4071 7   
4072 7   
4073 7   
4074 9   
4075 72  
4076 10  
4077 4   
4078 4   
4079 8   
4080 1   
4081 8   
4082 4   
4083 6   
4084 4   
4085 7   
4086 2   
4087 9   
4088 9   
4089 6   
4090 5   
4091 6   
4092 10  
4093 10  
4094 8   
4095 5   
4096 10  
4097 4   
4098 3   
4099 10  
4100 67  
4101 52  
4102 2   
4103 2   
4104 6   
4105 93  
4106 7   
4107 5   
4108 3   
4109 2   
4110 91  
4111 4   
4112 10  
4113 10  
4114 4   
4115 4   
4116 7   
4117 6   
4118 10  
4119 3   
4120 9   
4121 6   
4122 5   
4123 2   
4124 3   
4125 9   
4126 9   
4127 10  
4128 6   
4129 5   
4130 5   
4131 85  
4132 8   
4133 1   
4134 1   
4135 9   
4136 9   
4137 9   
4138 1   
4139 67  
4140 4   
4141 3   
4142 2   
4143 4   
4144 10  
4145 8   
4146 78  
4147 7   
4148 3   
4149 8   
4150 54  
4151 3   
4152 8   
4153 83  
4154 69  
4155 10  
4156 4   
4157 4   
4158 7   
4159 50  
4160 6   
4161 4   
4162 3   
4163 8   
4164 8   
4165 3   
4166 6   
4167 3   
4168 1   
4169 3   
4170 7   
4171 4   
4172 56  
4173 9   
4174 88  
4175 95  
4176 5   
4177 82  
4178 6   
4179 100 
4180 96  
4181 5   
4182 10  
4183 10  
4184 5   
4185 4   
4186 8   
4187 6   
4188 97  
4189 2   
4190 4   
4191 3   
4192 6   
4193 1   
4194 7   
4195 4   
4196 7   
4197 10  
4198 4   
4199 9   
4200 6   
4201 90  
4202 2   
4203 2   
4204 6   
4205 4   
4206 10  
4207 76  
4208 9   
4209 8   
4210 1   
4211 10  
4212 6   
4213 1   
4214 4   
4215 7   
4216 2   
4217 4   
4218 1   
4219 5   
4220 67  
4221 90  
4222 63  
4223 10  
4224 6   
4225 3   
4226 4   
4227 2   
4228 4   
4229 8   
4230 7   
4231 7   
4232 1   
4233 10  
4234 8   
4235 4   
4236 94  
4237 6   
4238 68  
4239 9   
4240 8   
4241 80  
4242 8   
4243 88  
4244 7   
4245 2   
4246 1   
4247 5   
4248 5   
4249 90  
4250 57  
4251 7   
4252 7   
4253 86  
4254 1   
4255 51  
4256 52  
4257 2   
4258 57  
4259 80  
4260 1   
4261 6   
4262 6   
4263 2   
4264 2   
4265 7   
4266 1   
4267 4   
4268 10  
4269 10  
4270 5   
4271 10  
4272 2   
4273 82  
4274 4   
4275 6   
4276 4   
4277 9   
4278 1   
4279 75  
4280 100 
4281 2   
4282 57  
4283 7   
4284 10  
4285 94  
4286 6   
4287 5   
4288 4   
4289 9   
4290 7   
4291 2   
4292 3   
4293 8   
4294 8   
4295 8   
4296 7   
4297 5   
4298 89  
4299 1   
4300 1   
4301 3   
4302 6   
4303 4   
4304 96  
4305 52  
4306 5   
4307 7   
4308 2   
4309 4   
4310 1   
4311 3   
4312 1   
4313 71  
4314 9   
4315 5   
4316 9   
4317 6   
4318 4   
4319 5   
4320 3   
4321 7   
4322 4   
4323 59  
4324 1   
4325 8   
4326 7   
4327 4   
4328 4   
4329 7   
4330 5   
4331 3   
4332 8   
4333 87  
4334 1   
4335 1   
4336 9   
4337 9   
4338 10  
4339 3   
4340 8   
4341 70  
4342 2   
4343 61  
4344 10  
4345 2   
4346 2   
4347 3   
4348 8   
4349 62  
4350 2   
4351 6   
4352 66  
4353 1   
4354 6   
4355 91  
4356 5   
4357 8   
4358 3   
4359 3   
4360 3   
4361 5   
4362 5   
4363 58  
4364 10  
4365 7   
4366 98  
4367 4   
4368 7   
4369 2   
4370 1   
4371 7   
4372 55  
4373 3   
4374 9   
4375 7   
4376 6   
4377 7   
4378 2   
4379 4   
4380 5   
4381 8   
4382 6   
4383 6   
4384 3   
4385 3   
4386 4   
4387 1   
4388 10  
4389 4   
4390 10  
4391 6   
4392 10  
4393 1   
4394 5   
4395 8   
4396 4   
4397 2   
4398 1   
4399 8   
4400 8   
4401 94  
4402 4   
4403 7   
4404 3   
4405 6   
4406 9   
4407 72  
4408 8   
4409 6   
4410 6   
4411 1   
4412 60  
4413 9   
4414 6   
4415 1   
4416 1   
4417 8   
4418 2   
4419 8   
4420 1   
4421 7   
4422 1   
4423 8   
4424 8   
4425 9   
4426 4   
4427 2   
4428 3   
4429 8   
4430 80  
4431 7   
4432 9   
4433 9   
4434 6   
4435 8   
4436 2   
4437 7   
4438 10  
4439 4   
4440 5   
4441 2   
4442 1   
4443 5   
4444 52  
4445 9   
4446 70  
4447 2   
4448 8   
4449 5   
4450 8   
4451 5   
4452 4   
4453 2   
4454 9   
4455 5   
4456 5   
4457 50  
4458 8   
4459 9   
4460 6   
4461 4   
4462 6   
4463 5   
4464 5   
4465 1   
4466 5   
4467 5   
4468 7   
4469 7   
4470 10  
4471 5   
4472 5   
4473 7   
4474 73  
4475 3   
4476 2   
4477 6   
4478 2   
4479 4   
4480 2   
4481 10  
4482 3   
4483 10  
4484 2   
4485 4   
4486 2   
4487 7   
4488 74  
4489 90  
4490 5   
4491 2   
4492 6   
4493 68  
4494 1   
4495 9   
4496 8   
4497 4   
4498 3   
4499 10  
4500 2   
4501 6   
4502 1   
4503 7   
4504 4   
4505 2   
4506 93  
4507 2   
4508 64  
4509 1   
4510 95  
4511 6   
4512 10  
4513 5   
4514 8   
4515 88  
4516 5   
4517 1   
4518 6   
4519 7   
4520 4   
4521 4   
4522 10  
4523 8   
4524 1   
4525 3   
4526 8   
4527 63  
4528 10  
4529 71  
4530 5   
4531 76  
4532 2   
4533 3   
4534 10  
4535 8   
4536 9   
4537 9   
4538 7   
4539 68  
4540 64  
4541 7   
4542 5   
4543 7   
4544 99  
4545 6   
4546 2   
4547 4   
4548 1   
4549 2   
4550 1   
4551 4   
4552 9   
4553 97  
4554 4   
4555 1   
4556 4   
4557 68  
4558 9   
4559 10  
4560 69  
4561 94  
4562 2   
4563 67  
4564 99  
4565 8   
4566 76  
4567 5   
4568 10  
4569 3   
4570 6   
4571 2   
4572 2   
4573 10  
4574 9   
4575 2   
4576 7   
4577 7   
4578 5   
4579 65  
4580 2   
4581 1   
4582 1   
4583 82  
4584 4   
4585 7   
4586 9   
4587 4   
4588 6   
4589 84  
4590 4   
4591 8   
4592 8   
4593 5   
4594 6   
4595 5   
4596 10  
4597 75  
4598 93  
4599 57  
4600 9   
4601 6   
4602 8   
4603 56  
4604 72  
4605 4   
4606 9   
4607 7   
4608 52  
4609 9   
4610 10  
4611 4   
4612 57  
4613 77  
4614 8   
4615 8   
4616 4   
4617 9   
4618 2   
4619 4   
4620 2   
4621 76  
4622 5   
4623 2   
4624 7   
4625 2   
4626 98  
4627 10  
4628 3   
4629 6   
4630 10  
4631 9   
4632 8   
4633 5   
4634 8   
4635 4   
4636 9   
4637 8   
4638 6   
4639 6   
4640 2   
4641 75  
4642 5   
4643 2   
4644 8   
4645 7   
4646 1   
4647 3   
4648 9   
4649 59  
4650 5   
4651 69  
4652 3   
4653 10  
4654 4   
4655 1   
4656 2   
4657 7   
4658 82  
4659 4   
4660 3   
4661 8   
4662 9   
4663 5   
4664 2   
4665 7   
4666 3   
4667 6   
4668 6   
4669 1   
4670 2   
4671 70  
4672 9   
4673 5   
4674 3   
4675 91  
4676 8   
4677 74  
4678 4   
4679 6   
4680 7   
4681 9   
4682 3   
4683 3   
4684 8   
4685 6   
4686 1   
4687 7   
4688 6   
4689 4   
4690 6   
4691 51  
4692 5   
4693 8   
4694 2   
4695 80  
4696 9   
4697 9   
4698 2   
4699 98  
4700 10  
4701 4   
4702 1   
4703 10  
4704 5   
4705 4   
4706 2   
4707 96  
4708 93  
4709 5   
4710 10  
4711 99  
4712 54  
4713 60  
4714 7   
4715 6   
4716 5   
4717 2   
4718 50  
4719 3   
4720 5   
4721 5   
4722 10  
4723 2   
4724 8   
4725 8   
4726 4   
4727 9   
4728 10  
4729 5   
4730 10  
4731 7   
4732 2   
4733 59  
4734 7   
4735 4   
4736 2   
4737 5   
4738 7   
4739 7   
4740 5   
4741 8   
4742 6   
4743 69  
4744 2   
4745 10  
4746 2   
4747 1   
4748 8   
4749 10  
4750 2   
4751 6   
4752 88  
4753 72  
4754 56  
4755 7   
4756 9   
4757 6   
4758 1   
4759 6   
4760 4   
4761 3   
4762 1   
4763 9   
4764 3   
4765 6   
4766 7   
4767 9   
4768 7   
4769 68  
4770 2   
4771 96  
4772 9   
4773 84  
4774 5   
4775 9   
4776 2   
4777 5   
4778 9   
4779 57  
4780 1   
4781 5   
4782 10  
4783 7   
4784 1   
4785 6   
4786 3   
4787 5   
4788 6   
4789 3   
4790 9   
4791 3   
4792 4   
4793 7   
4794 2   
4795 6   
4796 3   
4797 72  
4798 7   
4799 7   
4800 4   
4801 5   
4802 7   
4803 75  
4804 8   
4805 79  
4806 10  
4807 4   
4808 62  
4809 91  
4810 73  
4811 8   
4812 8   
4813 3   
4814 9   
4815 3   
4816 6   
4817 7   
4818 1   
4819 75  
4820 3   
4821 8   
4822 5   
4823 6   
4824 71  
4825 6   
4826 3   
4827 3   
4828 73  
4829 61  
4830 62  
4831 4   
4832 8   
4833 9   
4834 3   
4835 55  
4836 6   
4837 2   
4838 8   
4839 59  
4840 7   
4841 3   
4842 96  
4843 8   
4844 10  
4845 6   
4846 9   
4847 3   
4848 59  
4849 2   
4850 2   
4851 8   
4852 2   
4853 2   
4854 2   
4855 3   
4856 68  
4857 3   
4858 5   
4859 3   
4860 9   
4861 6   
4862 8   
4863 8   
4864 92  
4865 9   
4866 76  
4867 2   
4868 2   
4869 7   
4870 8   
4871 2   
4872 75  
4873 9   
4874 53  
4875 3   
4876 10  
4877 6   
4878 8   
4879 5   
4880 10  
4881 6   
4882 5   
4883 7   
4884 3   
4885 6   
4886 85  
4887 7   
4888 7   
4889 97  
4890 2   
4891 4   
4892 10  
4893 77  
4894 5   
4895 80  
4896 1   
4897 8   
4898 6   
4899 4   
4900 61  
4901 100 
4902 7   
4903 90  
4904 8   
4905 4   
4906 10  
4907 4   
4908 4   
4909 6   
4910 3   
4911 8   
4912 100 
4913 8   
4914 10  
4915 4   
4916 8   
4917 7   
4918 75  
4919 7   
4920 2   
4921 4   
4922 62  
4923 8   
4924 5   
4925 7   
4926 3   
4927 7   
4928 7   
4929 6   
4930 76  
4931 69  
4932 3   
4933 4   
4934 2   
4935 1   
4936 4   
4937 5   
4938 54  
4939 10  
4940 7   
4941 9   
4942 2   
4943 9   
4944 91  
4945 4   
4946 1   
4947 76  
4948 6   
4949 4   
4950 10  
4951 6   
4952 5   
4953 7   
4954 1   
4955 10  
4956 6   
4957 4   
4958 7   
4959 1   
4960 94  
4961 6   
4962 69  
4963 82  
4964 2   
4965 2   
4966 54  
4967 5   
4968 3   
4969 2   
4970 2   
4971 5   
4972 9   
4973 10  
4974 6   
4975 55  
4976 71  
4977 61  
4978 5   
4979 10  
4980 8   
4981 3   
4982 10  
4983 8   
4984 8   
4985 75  
4986 10  
4987 7   
4988 1   
4989 8   
4990 10  
4991 7   
4992 6   
4993 5   
4994 9   
4995 4   
4996 84  
4997 4   
4998 4   
4999 9   
5000 5   
5001 3   
5002 6   
5003 4   
5004 5   
5005 6   
5006 3   
5007 3   
5008 4   
5009 63  
5010 4   
5011 8   
5012 10  
5013 7   
5014 63  
5015 3   
5016 1   
5017 10  
5018 4   
5019 54  
5020 97  
5021 4   
5022 4   
5023 9   
5024 9   
5025 8   
5026 1   
5027 9   
5028 8   
5029 93  
5030 2   
5031 7   
5032 1   
5033 3   
5034 99  
5035 2   
5036 8   
5037 7   
5038 5   
5039 9   
5040 5   
5041 5   
5042 4   
5043 50  
5044 5   
5045 6   
5046 8   
5047 3   
5048 2   
5049 66  
5050 4   
5051 98  
5052 2   
5053 3   
5054 76  
5055 50  
5056 1   
5057 71  
5058 5   
5059 78  
5060 2   
5061 1   
5062 6   
5063 6   
5064 95  
5065 1   
5066 70  
5067 9   
5068 78  
5069 6   
5070 79  
5071 10  
5072 6   
5073 95  
5074 8   
5075 6   
5076 3   
5077 4   
5078 2   
5079 5   
5080 6   
5081 4   
5082 1   
5083 2   
5084 93  
5085 5   
5086 6   
5087 7   
5088 91  
5089 2   
5090 4   
5091 7   
5092 6   
5093 5   
5094 1   
5095 1   
5096 58  
5097 3   
5098 9   
5099 5   
5100 81  
5101 8   
5102 6   
5103 9   
5104 1   
5105 1   
5106 1   
5107 1   
5108 6   
5109 64  
5110 8   
5111 5   
5112 5   
5113 1   
5114 1   
5115 7   
5116 2   
5117 8   
5118 5   
5119 6   
5120 8   
5121 7   
5122 10  
5123 10  
5124 61  
5125 7   
5126 9   
5127 7   
5128 1   
5129 2   
5130 5   
5131 9   
5132 10  
5133 4   
5134 9   
5135 2   
5136 9   
5137 1   
5138 10  
5139 4   
5140 1   
5141 8   
5142 91  
5143 3   
5144 8   
5145 8   
5146 86  
5147 1   
5148 10  
5149 6   
5150 10  
5151 62  
5152 8   
5153 8   
5154 3   
5155 4   
5156 98  
5157 4   
5158 1   
5159 6   
5160 4   
5161 1   
5162 1   
5163 7   
5164 7   
5165 10  
5166 3   
5167 4   
5168 10  
5169 5   
5170 52  
5171 3   
5172 85  
5173 81  
5174 10  
5175 2   
5176 10  
5177 10  
5178 3   
5179 10  
5180 9   
5181 9   
5182 6   
5183 2   
5184 5   
5185 4   
5186 7   
5187 1   
5188 3   
5189 58  
5190 4   
5191 5   
5192 7   
5193 1   
5194 8   
5195 8   
5196 50  
5197 1   
5198 87  
5199 9   
5200 2   
5201 3   
5202 60  
5203 3   
5204 4   
5205 8   
5206 3   
5207 6   
5208 10  
5209 6   
5210 10  
5211 1   
5212 1   
5213 5   
5214 4   
5215 9   
5216 3   
5217 79  
5218 9   
5219 6   
5220 2   
5221 7   
5222 9   
5223 2   
5224 9   
5225 1   
5226 4   
5227 7   
5228 88  
5229 75  
5230 57  
5231 8   
5232 2   
5233 71  
5234 61  
5235 6   
5236 6   
5237 9   
5238 52  
5239 75  
5240 6   
5241 2   
5242 89  
5243 7   
5244 74  
5245 7   
5246 6   
5247 6   
5248 9   
5249 3   
5250 52  
5251 4   
5252 4   
5253 67  
5254 10  
5255 9   
5256 1   
5257 52  
5258 9   
5259 62  
5260 8   
5261 67  
5262 3   
5263 9   
5264 4   
5265 1   
5266 52  
5267 5   
5268 94  
5269 1   
5270 4   
5271 10  
5272 6   
5273 82  
5274 2   
5275 93  
5276 55  
5277 7   
5278 9   
5279 6   
5280 8   
5281 9   
5282 9   
5283 6   
5284 79  
5285 3   
5286 2   
5287 10  
5288 6   
5289 6   
5290 5   
5291 3   
5292 1   
5293 66  
5294 72  
5295 70  
5296 7   
5297 4   
5298 7   
5299 1   
5300 4   
5301 4   
5302 1   
5303 7   
5304 1   
5305 7   
5306 3   
5307 7   
5308 8   
5309 2   
5310 9   
5311 98  
5312 9   
5313 8   
5314 3   
5315 7   
5316 1   
5317 9   
5318 10  
5319 6   
5320 10  
5321 4   
5322 6   
5323 1   
5324 9   
5325 1   
5326 10  
5327 7   
5328 3   
5329 1   
5330 9   
5331 1   
5332 5   
5333 82  
5334 8   
5335 57  
5336 10  
5337 1   
5338 1   
5339 5   
5340 88  
5341 75  
5342 3   
5343 7   
5344 4   
5345 3   
5346 5   
5347 2   
5348 74  
5349 3   
5350 1   
5351 9   
5352 10  
5353 61  
5354 2   
5355 8   
5356 1   
5357 3   
5358 10  
5359 77  
5360 7   
5361 2   
5362 8   
5363 51  
5364 10  
5365 6   
5366 10  
5367 3   
5368 2   
5369 4   
5370 90  
5371 4   
5372 8   
5373 4   
5374 9   
5375 7   
5376 87  
5377 10  
5378 5   
5379 90  
5380 8   
5381 1   
5382 8   
5383 2   
5384 10  
5385 7   
5386 87  
5387 9   
5388 10  
5389 8   
5390 3   
5391 3   
5392 2   
5393 5   
5394 1   
5395 8   
5396 4   
5397 6   
5398 1   
5399 5   
5400 7   
5401 1   
5402 60  
5403 2   
5404 3   
5405 5   
5406 6   
5407 7   
5408 4   
5409 3   
5410 7   
5411 9   
5412 4   
5413 2   
5414 2   
5415 92  
5416 2   
5417 6   
5418 94  
5419 86  
5420 1   
5421 9   
5422 2   
5423 57  
5424 80  
5425 4   
5426 98  
5427 2   
5428 9   
5429 99  
5430 99  
5431 71  
5432 5   
5433 56  
5434 62  
5435 7   
5436 2   
5437 81  
5438 10  
5439 6   
5440 8   
5441 6   
5442 1   
5443 5   
5444 96  
5445 8   
5446 2   
5447 55  
5448 1   
5449 1   
5450 4   
5451 64  
5452 50  
5453 1   
5454 3   
5455 88  
5456 7   
5457 4   
5458 9   
5459 1   
5460 3   
5461 1   
5462 6   
5463 4   
5464 3   
5465 9   
5466 52  
5467 8   
5468 86  
5469 74  
5470 4   
5471 5   
5472 58  
5473 3   
5474 67  
5475 97  
5476 10  
5477 1   
5478 5   
5479 9   
5480 3   
5481 4   
5482 3   
5483 7   
5484 3   
5485 7   
5486 6   
5487 1   
5488 68  
5489 64  
5490 2   
5491 76  
5492 76  
5493 4   
5494 4   
5495 3   
5496 10  
5497 54  
5498 7   
5499 1   
5500 9   
5501 7   
5502 1   
5503 9   
5504 5   
5505 92  
5506 71  
5507 1   
5508 5   
5509 4   
5510 86  
5511 5   
5512 10  
5513 10  
5514 4   
5515 8   
5516 67  
5517 6   
5518 4   
5519 7   
5520 1   
5521 6   
5522 1   
5523 8   
5524 9   
5525 4   
5526 6   
5527 3   
5528 3   
5529 6   
5530 8   
5531 6   
5532 66  
5533 2   
5534 9   
5535 4   
5536 8   
5537 2   
5538 6   
5539 4   
5540 2   
5541 6   
5542 10  
5543 62  
5544 4   
5545 6   
5546 2   
5547 4   
5548 5   
5549 9   
5550 58  
5551 7   
5552 1   
5553 9   
5554 2   
5555 84  
5556 6   
5557 9   
5558 7   
5559 3   
5560 2   
5561 2   
5562 6   
5563 3   
5564 97  
5565 3   
5566 100 
5567 2   
5568 5   
5569 10  
5570 7   
5571 54  
5572 63  
5573 8   
5574 9   
5575 5   
5576 86  
5577 74  
5578 5   
5579 3   
5580 10  
5581 77  
5582 2   
5583 10  
5584 56  
5585 73  
5586 2   
5587 3   
5588 10  
5589 8   
5590 66  
5591 8   
5592 5   
5593 89  
5594 10  
5595 8   
5596 9   
5597 5   
5598 9   
5599 10  
5600 92  
5601 3   
5602 5   
5603 4   
5604 2   
5605 8   
5606 1   
5607 4   
5608 2   
5609 7   
5610 57  
5611 69  
5612 10  
5613 73  
5614 63  
5615 3   
5616 8   
5617 62  
5618 2   
5619 73  
5620 6   
5621 7   
5622 8   
5623 1   
5624 2   
5625 4   
5626 3   
5627 2   
5628 10  
5629 8   
5630 7   
5631 3   
5632 4   
5633 10  
5634 6   
5635 2   
5636 10  
5637 2   
5638 8   
5639 3   
5640 89  
5641 3   
5642 6   
5643 8   
5644 3   
5645 3   
5646 5   
5647 8   
5648 9   
5649 51  
5650 4   
5651 6   
5652 7   
5653 3   
5654 5   
5655 5   
5656 58  
5657 5   
5658 6   
5659 5   
5660 9   
5661 8   
5662 3   
5663 2   
5664 4   
5665 4   
5666 5   
5667 9   
5668 5   
5669 6   
5670 6   
5671 3   
5672 2   
5673 2   
5674 10  
5675 1   
5676 6   
5677 9   
5678 9   
5679 9   
5680 8   
5681 57  
5682 3   
5683 7   
5684 5   
5685 86  
5686 3   
5687 10  
5688 93  
5689 9   
5690 77  
5691 4   
5692 6   
5693 6   
5694 2   
5695 3   
5696 6   
5697 4   
5698 2   
5699 74  
5700 9   
5701 2   
5702 1   
5703 9   
5704 82  
5705 4   
5706 10  
5707 4   
5708 5   
5709 9   
5710 4   
5711 2   
5712 5   
5713 70  
5714 3   
5715 77  
5716 2   
5717 4   
5718 94  
5719 8   
5720 8   
5721 2   
5722 9   
5723 3   
5724 5   
5725 1   
5726 3   
5727 3   
5728 3   
5729 2   
5730 4   
5731 10  
5732 4   
5733 6   
5734 50  
5735 1   
5736 65  
5737 8   
5738 10  
5739 4   
5740 6   
5741 4   
5742 87  
5743 4   
5744 6   
5745 5   
5746 7   
5747 61  
5748 10  
5749 74  
5750 63  
5751 4   
5752 9   
5753 3   
5754 1   
5755 7   
5756 7   
5757 10  
5758 6   
5759 1   
5760 59  
5761 78  
5762 9   
5763 6   
5764 6   
5765 8   
5766 8   
5767 85  
5768 5   
5769 5   
5770 85  
5771 54  
5772 4   
5773 10  
5774 10  
5775 7   
5776 10  
5777 85  
5778 8   
5779 5   
5780 1   
5781 4   
5782 8   
5783 9   
5784 9   
5785 2   
5786 1   
5787 9   
5788 7   
5789 2   
5790 3   
5791 9   
5792 6   
5793 8   
5794 2   
5795 99  
5796 2   
5797 1   
5798 2   
5799 2   
5800 9   
5801 99  
5802 4   
5803 10  
5804 10  
5805 2   
5806 67  
5807 10  
5808 9   
5809 6   
5810 3   
5811 8   
5812 3   
5813 2   
5814 94  
5815 91  
5816 50  
5817 80  
5818 2   
5819 2   
5820 7   
5821 8   
5822 64  
5823 2   
5824 8   
5825 6   
5826 10  
5827 4   
5828 5   
5829 9   
5830 5   
5831 72  
5832 5   
5833 4   
5834 4   
5835 5   
5836 7   
5837 85  
5838 88  
5839 8   
5840 2   
5841 8   
5842 8   
5843 8   
5844 5   
5845 1   
5846 7   
5847 5   
5848 8   
5849 5   
5850 9   
5851 10  
5852 5   
5853 85  
5854 96  
5855 4   
5856 6   
5857 2   
5858 2   
5859 51  
5860 87  
5861 85  
5862 6   
5863 4   
5864 10  
5865 1   
5866 96  
5867 1   
5868 6   
5869 8   
5870 84  
5871 2   
5872 4   
5873 3   
5874 1   
5875 8   
5876 6   
5877 5   
5878 71  
5879 2   
5880 7   
5881 9   
5882 3   
5883 6   
5884 7   
5885 6   
5886 69  
5887 9   
5888 7   
5889 4   
5890 10  
5891 9   
5892 8   
5893 84  
5894 74  
5895 7   
5896 10  
5897 2   
5898 9   
5899 4   
5900 6   
5901 50  
5902 6   
5903 8   
5904 2   
5905 2   
5906 67  
5907 2   
5908 83  
5909 60  
5910 10  
5911 71  
5912 57  
5913 3   
5914 1   
5915 10  
5916 2   
5917 71  
5918 2   
5919 9   
5920 5   
5921 96  
5922 4   
5923 50  
5924 10  
5925 1   
5926 64  
5927 57  
5928 8   
5929 7   
5930 4   
5931 10  
5932 9   
5933 2   
5934 1   
5935 9   
5936 69  
5937 4   
5938 8   
5939 92  
5940 6   
5941 92  
5942 7   
5943 80  
5944 5   
5945 7   
5946 2   
5947 8   
5948 50  
5949 10  
5950 3   
5951 1   
5952 4   
5953 61  
5954 96  
5955 6   
5956 5   
5957 5   
5958 7   
5959 80  
5960 4   
5961 5   
5962 9   
5963 4   
5964 4   
5965 3   
5966 84  
5967 9   
5968 5   
5969 3   
5970 10  
5971 50  
5972 7   
5973 72  
5974 3   
5975 4   
5976 1   
5977 3   
5978 10  
5979 5   
5980 5   
5981 1   
5982 61  
5983 62  
5984 3   
5985 2   
5986 4   
5987 6   
5988 4   
5989 2   
5990 8   
5991 9   
5992 6   
5993 3   
5994 58  
5995 1   
5996 7   
5997 2   
5998 6   
5999 3   
6000 75  
6001 1   
6002 90  
6003 72  
6004 4   
6005 8   
6006 4   
6007 10  
6008 67  
6009 10  
6010 4   
6011 8   
6012 7   
6013 63  
6014 4   
6015 77  
6016 75  
6017 3   
6018 6   
6019 9   
6020 1   
6021 6   
6022 10  
6023 67  
6024 2   
6025 84  
6026 84  
6027 10  
6028 3   
6029 95  
6030 77  
6031 6   
6032 6   
6033 2   
6034 9   
6035 3   
6036 3   
6037 4   
6038 2   
6039 7   
6040 1   
6041 2   
6042 56  
6043 10  
6044 8   
6045 6   
6046 3   
6047 2   
6048 6   
6049 1   
6050 5   
6051 6   
6052 3   
6053 9   
6054 2   
6055 9   
6056 2   
6057 7   
6058 7   
6059 5   
6060 88  
6061 55  
6062 8   
6063 3   
6064 3   
6065 97  
6066 9   
6067 9   
6068 51  
6069 94  
6070 1   
6071 86  
6072 7   
6073 3   
6074 7   
6075 2   
6076 1   
6077 10  
6078 1   
6079 7   
6080 4   
6081 65  
6082 7   
6083 4   
6084 3   
6085 9   
6086 7   
6087 82  
6088 9   
6089 1   
6090 5   
6091 4   
6092 6   
6093 10  
6094 2   
6095 10  
6096 4   
6097 52  
6098 4   
6099 1   
6100 70  
6101 6   
6102 10  
6103 2   
6104 6   
6105 6   
6106 6   
6107 50  
6108 2   
6109 6   
6110 66  
6111 7   
6112 5   
6113 56  
6114 5   
6115 1   
6116 53  
6117 8   
6118 76  
6119 7   
6120 8   
6121 8   
6122 3   
6123 2   
6124 10  
6125 85  
6126 1   
6127 7   
6128 3   
6129 4   
6130 52  
6131 72  
6132 54  
6133 6   
6134 83  
6135 6   
6136 1   
6137 7   
6138 5   
6139 84  
6140 8   
6141 6   
6142 6   
6143 1   
6144 6   
6145 95  
6146 59  
6147 72  
6148 7   
6149 9   
6150 78  
6151 6   
6152 94  
6153 5   
6154 6   
6155 3   
6156 85  
6157 98  
6158 6   
6159 8   
6160 3   
6161 3   
6162 6   
6163 2   
6164 6   
6165 5   
6166 8   
6167 4   
6168 1   
6169 9   
6170 5   
6171 1   
6172 95  
6173 1   
6174 8   
6175 6   
6176 60  
6177 8   
6178 67  
6179 9   
6180 3   
6181 8   
6182 6   
6183 4   
6184 6   
6185 7   
6186 6   
6187 8   
6188 75  
6189 5   
6190 2   
6191 4   
6192 76  
6193 8   
6194 6   
6195 4   
6196 4   
6197 10  
6198 1   
6199 1   
6200 6   
6201 1   
6202 2   
6203 4   
6204 2   
6205 56  
6206 67  
6207 5   
6208 10  
6209 6   
6210 72  
6211 9   
6212 4   
6213 3   
6214 10  
6215 7   
6216 3   
6217 8   
6218 4   
6219 6   
6220 7   
6221 2   
6222 10  
6223 3   
6224 8   
6225 2   
6226 3   
6227 60  
6228 8   
6229 6   
6230 59  
6231 4   
6232 6   
6233 6   
6234 4   
6235 85  
6236 65  
6237 9   
6238 88  
6239 10  
6240 81  
6241 84  
6242 2   
6243 2   
6244 8   
6245 7   
6246 5   
6247 6   
6248 6   
6249 7   
6250 6   
6251 59  
6252 3   
6253 2   
6254 70  
6255 8   
6256 6   
6257 4   
6258 4   
6259 1   
6260 62  
6261 68  
6262 6   
6263 6   
6264 2   
6265 4   
6266 64  
6267 4   
6268 6   
6269 8   
6270 1   
6271 9   
6272 80  
6273 3   
6274 2   
6275 8   
6276 10  
6277 7   
6278 6   
6279 9   
6280 1   
6281 3   
6282 1   
6283 10  
6284 4   
6285 9   
6286 8   
6287 5   
6288 9   
6289 99  
6290 7   
6291 8   
6292 98  
6293 3   
6294 7   
6295 7   
6296 8   
6297 54  
6298 6   
6299 70  
6300 4   
6301 9   
6302 90  
6303 10  
6304 9   
6305 7   
6306 54  
6307 2   
6308 7   
6309 5   
6310 7   
6311 84  
6312 66  
6313 3   
6314 8   
6315 7   
6316 9   
6317 2   
6318 75  
6319 96  
6320 7   
6321 5   
6322 53  
6323 1   
6324 8   
6325 5   
6326 5   
6327 9   
6328 7   
6329 7   
6330 8   
6331 7   
6332 9   
6333 1   
6334 9   
6335 4   
6336 2   
6337 4   
6338 4   
6339 9   
6340 71  
6341 10  
6342 58  
6343 98  
6344 5   
6345 1   
6346 90  
6347 6   
6348 8   
6349 7   
6350 73  
6351 8   
6352 8   
6353 4   
6354 4   
6355 1   
6356 2   
6357 3   
6358 6   
6359 10  
6360 85  
6361 62  
6362 4   
6363 10  
6364 6   
6365 9   
6366 50  
6367 6   
6368 6   
6369 2   
6370 8   
6371 6   
6372 6   
6373 9   
6374 59  
6375 60  
6376 4   
6377 2   
6378 5   
6379 2   
6380 6   
6381 9   
6382 7   
6383 71  
6384 68  
6385 3   
6386 6   
6387 1   
6388 2   
6389 4   
6390 72  
6391 6   
6392 8   
6393 6   
6394 6   
6395 9   
6396 69  
6397 2   
6398 2   
6399 6   
6400 6   
6401 9   
6402 7   
6403 1   
6404 5   
6405 9   
6406 3   
6407 90  
6408 3   
6409 4   
6410 1   
6411 10  
6412 4   
6413 5   
6414 8   
6415 9   
6416 96  
6417 2   
6418 72  
6419 4   
6420 9   
6421 68  
6422 55  
6423 7   
6424 2   
6425 80  
6426 6   
6427 9   
6428 3   
6429 9   
6430 61  
6431 10  
6432 3   
6433 3   
6434 9   
6435 6   
6436 9   
6437 5   
6438 4   
6439 68  
6440 7   
6441 5   
6442 3   
6443 61  
6444 3   
6445 2   
6446 9   
6447 3   
6448 93  
6449 2   
6450 7   
6451 1   
6452 91  
6453 5   
6454 5   
6455 8   
6456 81  
6457 2   
6458 53  
6459 8   
6460 9   
6461 3   
6462 3   
6463 10  
6464 87  
6465 7   
6466 2   
6467 9   
6468 5   
6469 5   
6470 5   
6471 6   
6472 1   
6473 6   
6474 5   
6475 9   
6476 5   
6477 58  
6478 10  
6479 8   
6480 2   
6481 3   
6482 10  
6483 3   
6484 6   
6485 9   
6486 6   
6487 52  
6488 3   
6489 2   
6490 54  
6491 1   
6492 8   
6493 7   
6494 64  
6495 8   
6496 2   
6497 6   
6498 9   
6499 63  
6500 6   
6501 56  
6502 74  
6503 5   
6504 9   
6505 9   
6506 2   
6507 6   
6508 4   
6509 2   
6510 8   
6511 5   
6512 4   
6513 3   
6514 7   
6515 2   
6516 87  
6517 6   
6518 5   
6519 9   
6520 9   
6521 3   
6522 7   
6523 8   
6524 8   
6525 4   
6526 5   
6527 75  
6528 1   
6529 3   
6530 52  
6531 64  
6532 7   
6533 9   
6534 63  
6535 81  
6536 6   
6537 9   
6538 2   
6539 1   
6540 3   
6541 3   
6542 5   
6543 7   
6544 3   
6545 3   
6546 1   
6547 9   
6548 2   
6549 4   
6550 6   
6551 90  
6552 5   
6553 51  
6554 3   
6555 6   
6556 10  
6557 1   
6558 82  
6559 100 
6560 70  
6561 2   
6562 1   
6563 2   
6564 3   
6565 1   
6566 7   
6567 1   
6568 6   
6569 97  
6570 3   
6571 4   
6572 6   
6573 1   
6574 100 
6575 7   
6576 7   
6577 7   
6578 4   
6579 2   
6580 3   
6581 9   
6582 88  
6583 9   
6584 5   
6585 3   
6586 93  
6587 2   
6588 5   
6589 7   
6590 10  
6591 8   
6592 6   
6593 2   
6594 96  
6595 89  
6596 9   
6597 1   
6598 4   
6599 93  
6600 10  
6601 1   
6602 1   
6603 9   
6604 9   
6605 4   
6606 1   
6607 10  
6608 2   
6609 4   
6610 9   
6611 6   
6612 7   
6613 69  
6614 2   
6615 2   
6616 2   
6617 1   
6618 4   
6619 5   
6620 1   
6621 67  
6622 8   
6623 84  
6624 96  
6625 10  
6626 8   
6627 6   
6628 7   
6629 5   
6630 5   
6631 4   
6632 10  
6633 7   
6634 8   
6635 68  
6636 83  
6637 7   
6638 5   
6639 4   
6640 5   
6641 2   
6642 1   
6643 10  
6644 8   
6645 8   
6646 5   
6647 3   
6648 10  
6649 3   
6650 4   
6651 5   
6652 7   
6653 3   
6654 3   
6655 7   
6656 6   
6657 6   
6658 98  
6659 57  
6660 100 
6661 72  
6662 8   
6663 7   
6664 7   
6665 3   
6666 4   
6667 10  
6668 9   
6669 7   
6670 3   
6671 10  
6672 3   
6673 8   
6674 86  
6675 9   
6676 65  
6677 3   
6678 75  
6679 4   
6680 2   
6681 5   
6682 7   
6683 6   
6684 4   
6685 2   
6686 1   
6687 7   
6688 4   
6689 1   
6690 8   
6691 7   
6692 10  
6693 2   
6694 10  
6695 53  
6696 10  
6697 4   
6698 9   
6699 6   
6700 90  
6701 3   
6702 5   
6703 5   
6704 2   
6705 1   
6706 60  
6707 9   
6708 93  
6709 10  
6710 1   
6711 3   
6712 2   
6713 7   
6714 9   
6715 76  
6716 4   
6717 7   
6718 8   
6719 96  
6720 1   
6721 4   
6722 64  
6723 1   
6724 5   
6725 2   
6726 6   
6727 3   
6728 79  
6729 7   
6730 4   
6731 3   
6732 9   
6733 55  
6734 5   
6735 9   
6736 9   
6737 4   
6738 5   
6739 2   
6740 3   
6741 1   
6742 9   
6743 92  
6744 76  
6745 70  
6746 5   
6747 8   
6748 75  
6749 1   
6750 1   
6751 3   
6752 55  
6753 3   
6754 9   
6755 4   
6756 8   
6757 2   
6758 10  
6759 1   
6760 5   
6761 80  
6762 4   
6763 8   
6764 96  
6765 2   
6766 7   
6767 1   
6768 1   
6769 1   
6770 5   
6771 8   
6772 9   
6773 85  
6774 9   
6775 68  
6776 6   
6777 74  
6778 10  
6779 8   
6780 8   
6781 2   
6782 10  
6783 8   
6784 5   
6785 3   
6786 2   
6787 10  
6788 4   
6789 9   
6790 70  
6791 6   
6792 5   
6793 94  
6794 8   
6795 6   
6796 98  
6797 10  
6798 9   
6799 79  
6800 10  
6801 2   
6802 63  
6803 10  
6804 50  
6805 2   
6806 77  
6807 1   
6808 4   
6809 58  
6810 66  
6811 75  
6812 53  
6813 1   
6814 5   
6815 10  
6816 6   
6817 5   
6818 8   
6819 3   
6820 8   
6821 6   
6822 6   
6823 1   
6824 2   
6825 10  
6826 3   
6827 3   
6828 8   
6829 58  
6830 1   
6831 4   
6832 3   
6833 3   
6834 6   
6835 7   
6836 1   
6837 6   
6838 5   
6839 73  
6840 1   
6841 51  
6842 4   
6843 1   
6844 6   
6845 7   
6846 1   
6847 4   
6848 2   
6849 54  
6850 2   
6851 99  
6852 9   
6853 1   
6854 9   
6855 72  
6856 5   
6857 4   
6858 62  
6859 5   
6860 6   
6861 8   
6862 3   
6863 3   
6864 2   
6865 3   
6866 10  
6867 8   
6868 4   
6869 62  
6870 6   
6871 87  
6872 4   
6873 57  
6874 4   
6875 60  
6876 52  
6877 7   
6878 1   
6879 4   
6880 7   
6881 8   
6882 88  
6883 5   
6884 1   
6885 3   
6886 1   
6887 4   
6888 10  
6889 6   
6890 2   
6891 2   
6892 7   
6893 88  
6894 2   
6895 5   
6896 7   
6897 2   
6898 75  
6899 51  
6900 3   
6901 3   
6902 3   
6903 71  
6904 64  
6905 7   
6906 2   
6907 3   
6908 5   
6909 7   
6910 10  
6911 2   
6912 6   
6913 55  
6914 3   
6915 71  
6916 82  
6917 75  
6918 96  
6919 53  
6920 4   
6921 1   
6922 6   
6923 61  
6924 1   
6925 5   
6926 7   
6927 2   
6928 5   
6929 6   
6930 6   
6931 10  
6932 89  
6933 3   
6934 3   
6935 10  
6936 8   
6937 4   
6938 3   
6939 7   
6940 71  
6941 6   
6942 5   
6943 6   
6944 88  
6945 62  
6946 8   
6947 7   
6948 3   
6949 5   
6950 7   
6951 7   
6952 81  
6953 8   
6954 6   
6955 1   
6956 4   
6957 9   
6958 9   
6959 5   
6960 6   
6961 10  
6962 2   
6963 7   
6964 2   
6965 3   
6966 9   
6967 5   
6968 10  
6969 83  
6970 5   
6971 1   
6972 8   
6973 81  
6974 4   
6975 3   
6976 73  
6977 9   
6978 9   
6979 4   
6980 7   
6981 6   
6982 10  
6983 6   
6984 10  
6985 5   
6986 10  
6987 6   
6988 4   
6989 6   
6990 6   
6991 7   
6992 3   
6993 6   
6994 54  
6995 6   
6996 7   
6997 1   
6998 8   
6999 3   
7000 2   
7001 3   
7002 69  
7003 7   
7004 7   
7005 1   
7006 2   
7007 2   
7008 8   
7009 7   
7010 1   
7011 51  
7012 8   
7013 6   
7014 10  
7015 5   
7016 5   
7017 8   
7018 9   
7019 1   
7020 1   
7021 6   
7022 2   
7023 6   
7024 3   
7025 7   
7026 3   
7027 9   
7028 4   
7029 4   
7030 1   
7031 5   
7032 10  
7033 10  
7034 10  
7035 10  
7036 5   
7037 4   
7038 59  
7039 5   
7040 7   
7041 3   
7042 50  
7043 2   
7044 6   
7045 2   
7046 2   
7047 10  
7048 2   
7049 7   
7050 5   
7051 5   
7052 77  
7053 91  
7054 5   
7055 6   
7056 1   
7057 77  
7058 7   
7059 4   
7060 7   
7061 3   
7062 7   
7063 8   
7064 7   
7065 1   
7066 1   
7067 8   
7068 6   
7069 7   
7070 1   
7071 9   
7072 7   
7073 9   
7074 2   
7075 3   
7076 3   
7077 5   
7078 4   
7079 73  
7080 5   
7081 4   
7082 52  
7083 53  
7084 2   
7085 89  
7086 91  
7087 2   
7088 88  
7089 4   
7090 7   
7091 8   
7092 8   
7093 7   
7094 8   
7095 2   
7096 3   
7097 10  
7098 8   
7099 7   
7100 10  
7101 71  
7102 72  
7103 10  
7104 7   
7105 3   
7106 58  
7107 6   
7108 9   
7109 7   
7110 80  
7111 6   
7112 95  
7113 6   
7114 1   
7115 9   
7116 3   
7117 9   
7118 9   
7119 9   
7120 10  
7121 8   
7122 9   
7123 51  
7124 9   
7125 10  
7126 7   
7127 4   
7128 6   
7129 10  
7130 8   
7131 9   
7132 9   
7133 3   
7134 7   
7135 54  
7136 83  
7137 1   
7138 5   
7139 70  
7140 1   
7141 51  
7142 4   
7143 9   
7144 10  
7145 9   
7146 88  
7147 3   
7148 10  
7149 3   
7150 61  
7151 9   
7152 2   
7153 10  
7154 7   
7155 2   
7156 5   
7157 8   
7158 4   
7159 1   
7160 4   
7161 2   
7162 6   
7163 53  
7164 7   
7165 56  
7166 6   
7167 3   
7168 9   
7169 1   
7170 7   
7171 8   
7172 2   
7173 8   
7174 9   
7175 3   
7176 3   
7177 4   
7178 9   
7179 5   
7180 1   
7181 9   
7182 5   
7183 1   
7184 6   
7185 9   
7186 10  
7187 4   
7188 6   
7189 76  
7190 9   
7191 10  
7192 2   
7193 8   
7194 76  
7195 6   
7196 7   
7197 3   
7198 91  
7199 4   
7200 4   
7201 9   
7202 68  
7203 8   
7204 78  
7205 8   
7206 73  
7207 4   
7208 3   
7209 7   
7210 2   
7211 1   
7212 7   
7213 92  
7214 95  
7215 7   
7216 7   
7217 10  
7218 66  
7219 3   
7220 1   
7221 7   
7222 1   
7223 83  
7224 10  
7225 3   
7226 10  
7227 1   
7228 8   
7229 88  
7230 4   
7231 10  
7232 63  
7233 6   
7234 89  
7235 1   
7236 10  
7237 4   
7238 8   
7239 6   
7240 5   
7241 1   
7242 9   
7243 1   
7244 71  
7245 6   
7246 2   
7247 4   
7248 4   
7249 4   
7250 65  
7251 5   
7252 6   
7253 10  
7254 1   
7255 10  
7256 3   
7257 1   
7258 7   
7259 5   
7260 1   
7261 8   
7262 52  
7263 8   
7264 3   
7265 6   
7266 3   
7267 4   
7268 8   
7269 8   
7270 6   
7271 7   
7272 52  
7273 50  
7274 1   
7275 73  
7276 9   
7277 9   
7278 69  
7279 4   
7280 9   
7281 10  
7282 5   
7283 7   
7284 92  
7285 9   
7286 2   
7287 6   
7288 9   
7289 71  
7290 1   
7291 8   
7292 5   
7293 7   
7294 8   
7295 4   
7296 3   
7297 7   
7298 6   
7299 5   
7300 8   
7301 10  
7302 60  
7303 7   
7304 6   
7305 9   
7306 3   
7307 83  
7308 7   
7309 4   
7310 4   
7311 4   
7312 6   
7313 10  
7314 7   
7315 56  
7316 66  
7317 10  
7318 9   
7319 8   
7320 10  
7321 10  
7322 10  
7323 10  
7324 8   
7325 6   
7326 2   
7327 61  
7328 1   
7329 2   
7330 3   
7331 84  
7332 4   
7333 9   
7334 2   
7335 2   
7336 4   
7337 7   
7338 7   
7339 8   
7340 94  
7341 6   
7342 1   
7343 9   
7344 9   
7345 72  
7346 1   
7347 2   
7348 59  
7349 88  
7350 2   
7351 6   
7352 2   
7353 3   
7354 8   
7355 5   
7356 9   
7357 10  
7358 5   
7359 6   
7360 73  
7361 9   
7362 10  
7363 2   
7364 1   
7365 8   
7366 80  
7367 9   
7368 3   
7369 10  
7370 3   
7371 52  
7372 6   
7373 4   
7374 9   
7375 6   
7376 4   
7377 85  
7378 52  
7379 1   
7380 10  
7381 6   
7382 9   
7383 3   
7384 52  
7385 4   
7386 7   
7387 7   
7388 8   
7389 1   
7390 10  
7391 6   
7392 5   
7393 7   
7394 10  
7395 2   
7396 7   
7397 82  
7398 57  
7399 8   
7400 5   
7401 8   
7402 5   
7403 1   
7404 7   
7405 2   
7406 10  
7407 63  
7408 4   
7409 54  
7410 5   
7411 10  
7412 6   
7413 76  
7414 2   
7415 3   
7416 8   
7417 2   
7418 1   
7419 1   
7420 60  
7421 7   
7422 7   
7423 100 
7424 1   
7425 64  
7426 8   
7427 6   
7428 1   
7429 10  
7430 8   
7431 3   
7432 5   
7433 56  
7434 83  
7435 9   
7436 2   
7437 1   
7438 5   
7439 74  
7440 5   
7441 5   
7442 4   
7443 5   
7444 2   
7445 8   
7446 2   
7447 6   
7448 60  
7449 7   
7450 9   
7451 58  
7452 9   
7453 75  
7454 4   
7455 3   
7456 5   
7457 6   
7458 3   
7459 1   
7460 6   
7461 3   
7462 9   
7463 70  
7464 8   
7465 5   
7466 2   
7467 10  
7468 4   
7469 1   
7470 5   
7471 6   
7472 69  
7473 6   
7474 64  
7475 6   
7476 97  
7477 9   
7478 6   
7479 1   
7480 1   
7481 10  
7482 4   
7483 3   
7484 9   
7485 9   
7486 4   
7487 5   
7488 2   
7489 92  
7490 10  
7491 8   
7492 1   
7493 1   
7494 4   
7495 3   
7496 7   
7497 6   
7498 51  
7499 1   
7500 8   
7501 6   
7502 10  
7503 2   
7504 4   
7505 6   
7506 9   
7507 6   
7508 8   
7509 10  
7510 7   
7511 2   
7512 10  
7513 9   
7514 65  
7515 7   
7516 4   
7517 91  
7518 7   
7519 92  
7520 7   
7521 3   
7522 8   
7523 10  
7524 6   
7525 3   
7526 5   
7527 2   
7528 4   
7529 9   
7530 5   
7531 3   
7532 6   
7533 10  
7534 5   
7535 3   
7536 5   
7537 56  
7538 9   
7539 5   
7540 8   
7541 3   
7542 1   
7543 10  
7544 5   
7545 2   
7546 9   
7547 4   
7548 1   
7549 5   
7550 6   
7551 4   
7552 3   
7553 10  
7554 70  
7555 9   
7556 6   
7557 8   
7558 10  
7559 1   
7560 2   
7561 4   
7562 8   
7563 7   
7564 87  
7565 6   
7566 5   
7567 1   
7568 77  
7569 7   
7570 7   
7571 5   
7572 8   
7573 2   
7574 9   
7575 8   
7576 5   
7577 2   
7578 3   
7579 69  
7580 8   
7581 6   
7582 2   
7583 3   
7584 4   
7585 4   
7586 6   
7587 78  
7588 10  
7589 6   
7590 1   
7591 10  
7592 4   
7593 3   
7594 59  
7595 80  
7596 75  
7597 98  
7598 5   
7599 2   
7600 3   
7601 1   
7602 10  
7603 9   
7604 6   
7605 8   
7606 9   
7607 59  
7608 3   
7609 4   
7610 10  
7611 8   
7612 6   
7613 65  
7614 10  
7615 6   
7616 10  
7617 100 
7618 52  
7619 5   
7620 7   
7621 50  
7622 3   
7623 85  
7624 74  
7625 10  
7626 81  
7627 3   
7628 82  
7629 1   
7630 7   
7631 5   
7632 1   
7633 8   
7634 5   
7635 2   
7636 5   
7637 7   
7638 10  
7639 52  
7640 6   
7641 6   
7642 6   
7643 82  
7644 5   
7645 83  
7646 10  
7647 3   
7648 5   
7649 8   
7650 5   
7651 1   
7652 1   
7653 8   
7654 7   
7655 6   
7656 5   
7657 9   
7658 6   
7659 4   
7660 4   
7661 9   
7662 8   
7663 1   
7664 6   
7665 4   
7666 6   
7667 53  
7668 68  
7669 4   
7670 1   
7671 3   
7672 3   
7673 8   
7674 6   
7675 10  
7676 8   
7677 7   
7678 8   
7679 7   
7680 2   
7681 4   
7682 91  
7683 6   
7684 2   
7685 5   
7686 8   
7687 3   
7688 70  
7689 4   
7690 2   
7691 6   
7692 5   
7693 53  
7694 5   
7695 9   
7696 10  
7697 7   
7698 6   
7699 9   
7700 2   
7701 8   
7702 10  
7703 7   
7704 9   
7705 8   
7706 3   
7707 1   
7708 7   
7709 7   
7710 62  
7711 8   
7712 69  
7713 2   
7714 5   
7715 80  
7716 5   
7717 8   
7718 7   
7719 6   
7720 2   
7721 5   
7722 10  
7723 7   
7724 8   
7725 10  
7726 7   
7727 1   
7728 4   
7729 74  
7730 58  
7731 1   
7732 3   
7733 61  
7734 1   
7735 1   
7736 96  
7737 5   
7738 7   
7739 4   
7740 1   
7741 8   
7742 9   
7743 54  
7744 8   
7745 6   
7746 2   
7747 10  
7748 8   
7749 7   
7750 8   
7751 68  
7752 10  
7753 4   
7754 71  
7755 70  
7756 10  
7757 10  
7758 92  
7759 5   
7760 4   
7761 6   
7762 9   
7763 5   
7764 72  
7765 1   
7766 3   
7767 9   
7768 4   
7769 9   
7770 2   
7771 2   
7772 10  
7773 52  
7774 5   
7775 6   
7776 8   
7777 81  
7778 6   
7779 99  
7780 5   
7781 2   
7782 50  
7783 9   
7784 8   
7785 3   
7786 79  
7787 10  
7788 10  
7789 1   
7790 60  
7791 4   
7792 79  
7793 10  
7794 8   
7795 1   
7796 8   
7797 5   
7798 1   
7799 98  
7800 5   
7801 9   
7802 8   
7803 8   
7804 7   
7805 5   
7806 5   
7807 6   
7808 8   
7809 1   
7810 9   
7811 6   
7812 3   
7813 8   
7814 8   
7815 73  
7816 5   
7817 71  
7818 60  
7819 79  
7820 7   
7821 10  
7822 9   
7823 2   
7824 2   
7825 1   
7826 73  
7827 91  
7828 8   
7829 7   
7830 1   
7831 2   
7832 8   
7833 75  
7834 6   
7835 10  
7836 4   
7837 7   
7838 5   
7839 5   
7840 9   
7841 6   
7842 97  
7843 8   
7844 4   
7845 8   
7846 10  
7847 10  
7848 4   
7849 5   
7850 9   
7851 5   
7852 3   
7853 10  
7854 4   
7855 68  
7856 7   
7857 6   
7858 5   
7859 3   
7860 3   
7861 2   
7862 64  
7863 1   
7864 9   
7865 3   
7866 4   
7867 7   
7868 8   
7869 6   
7870 4   
7871 6   
7872 5   
7873 9   
7874 10  
7875 3   
7876 7   
7877 10  
7878 5   
7879 3   
7880 88  
7881 6   
7882 10  
7883 3   
7884 3   
7885 3   
7886 10  
7887 4   
7888 9   
7889 8   
7890 2   
7891 9   
7892 61  
7893 3   
7894 65  
7895 83  
7896 6   
7897 7   
7898 8   
7899 5   
7900 7   
7901 6   
7902 85  
7903 2   
7904 5   
7905 8   
7906 7   
7907 5   
7908 5   
7909 55  
7910 9   
7911 9   
7912 4   
7913 2   
7914 1   
7915 82  
7916 91  
7917 3   
7918 5   
7919 55  
7920 7   
7921 2   
7922 58  
7923 6   
7924 9   
7925 5   
7926 1   
7927 1   
7928 60  
7929 6   
7930 4   
7931 4   
7932 5   
7933 7   
7934 10  
7935 1   
7936 3   
7937 9   
7938 62  
7939 10  
7940 10  
7941 2   
7942 55  
7943 6   
7944 2   
7945 9   
7946 2   
7947 4   
7948 2   
7949 8   
7950 7   
7951 74  
7952 5   
7953 8   
7954 10  
7955 5   
7956 8   
7957 5   
7958 10  
7959 3   
7960 5   
7961 4   
7962 2   
7963 9   
7964 5   
7965 8   
7966 7   
7967 3   
7968 6   
7969 7   
7970 8   
7971 4   
7972 10  
7973 9   
7974 5   
7975 10  
7976 8   
7977 6   
7978 6   
7979 7   
7980 5   
7981 3   
7982 81  
7983 5   
7984 2   
7985 3   
7986 4   
7987 1   
7988 71  
7989 1   
7990 7   
7991 8   
7992 88  
7993 55  
7994 87  
7995 97  
7996 9   
7997 5   
7998 5   
7999 9   
8000 1   
8001 8   
8002 10  
8003 1   
8004 2   
8005 1   
8006 5   
8007 4   
8008 9   
8009 3   
8010 96  
8011 6   
8012 5   
8013 10  
8014 1   
8015 8   
8016 8   
8017 87  
8018 100 
8019 4   
8020 6   
8021 2   
8022 4   
8023 51  
8024 3   
8025 1   
8026 5   
8027 9   
8028 9   
8029 6   
8030 1   
8031 6   
8032 8   
8033 3   
8034 2   
8035 3   
8036 3   
8037 1   
8038 10  
8039 7   
8040 5   
8041 3   
8042 8   
8043 10  
8044 9   
8045 3   
8046 50  
8047 5   
8048 10  
8049 4   
8050 9   
8051 78  
8052 8   
8053 1   
8054 58  
8055 7   
8056 99  
8057 71  
8058 5   
8059 2   
8060 6   
8061 100 
8062 87  
8063 8   
8064 4   
8065 1   
8066 6   
8067 6   
8068 8   
8069 3   
8070 1   
8071 9   
8072 4   
8073 8   
8074 6   
8075 2   
8076 9   
8077 10  
8078 1   
8079 7   
8080 7   
8081 7   
8082 4   
8083 6   
8084 2   
8085 91  
8086 8   
8087 3   
8088 8   
8089 58  
8090 65  
8091 83  
8092 10  
8093 6   
8094 58  
8095 1   
8096 88  
8097 2   
8098 5   
8099 6   
8100 8   
8101 72  
8102 68  
8103 72  
8104 6   
8105 65  
8106 4   
8107 50  
8108 6   
8109 6   
8110 83  
8111 7   
8112 7   
8113 7   
8114 2   
8115 3   
8116 4   
8117 1   
8118 5   
8119 3   
8120 4   
8121 6   
8122 55  
8123 7   
8124 94  
8125 9   
8126 10  
8127 10  
8128 1   
8129 7   
8130 7   
8131 82  
8132 6   
8133 55  
8134 1   
8135 1   
8136 4   
8137 9   
8138 9   
8139 8   
8140 85  
8141 3   
8142 1   
8143 4   
8144 1   
8145 89  
8146 9   
8147 2   
8148 7   
8149 64  
8150 3   
8151 9   
8152 4   
8153 5   
8154 75  
8155 1   
8156 4   
8157 3   
8158 9   
8159 7   
8160 7   
8161 10  
8162 2   
8163 10  
8164 98  
8165 6   
8166 3   
8167 7   
8168 9   
8169 59  
8170 4   
8171 3   
8172 2   
8173 9   
8174 75  
8175 9   
8176 10  
8177 5   
8178 9   
8179 6   
8180 3   
8181 1   
8182 5   
8183 95  
8184 3   
8185 97  
8186 4   
8187 98  
8188 73  
8189 1   
8190 2   
8191 4   
8192 1   
8193 77  
8194 1   
8195 10  
8196 2   
8197 5   
8198 54  
8199 9   
8200 9   
8201 4   
8202 9   
8203 3   
8204 3   
8205 7   
8206 4   
8207 3   
8208 5   
8209 83  
8210 5   
8211 7   
8212 5   
8213 7   
8214 8   
8215 5   
8216 2   
8217 6   
8218 4   
8219 8   
8220 6   
8221 3   
8222 1   
8223 9   
8224 9   
8225 100 
8226 7   
8227 4   
8228 10  
8229 3   
8230 5   
8231 7   
8232 3   
8233 7   
8234 6   
8235 7   
8236 7   
8237 50  
8238 7   
8239 5   
8240 3   
8241 1   
8242 3   
8243 4   
8244 6   
8245 73  
8246 1   
8247 96  
8248 62  
8249 6   
8250 2   
8251 7   
8252 85  
8253 100 
8254 97  
8255 7   
8256 80  
8257 4   
8258 5   
8259 2   
8260 91  
8261 5   
8262 1   
8263 8   
8264 3   
8265 51  
8266 3   
8267 92  
8268 57  
8269 55  
8270 7   
8271 66  
8272 3   
8273 8   
8274 1   
8275 79  
8276 10  
8277 10  
8278 100 
8279 8   
8280 7   
8281 3   
8282 6   
8283 83  
8284 4   
8285 7   
8286 9   
8287 7   
8288 4   
8289 1   
8290 5   
8291 8   
8292 2   
8293 9   
8294 5   
8295 2   
8296 4   
8297 2   
8298 91  
8299 1   
8300 9   
8301 99  
8302 3   
8303 9   
8304 3   
8305 90  
8306 4   
8307 8   
8308 6   
8309 4   
8310 7   
8311 75  
8312 10  
8313 6   
8314 5   
8315 98  
8316 4   
8317 7   
8318 2   
8319 1   
8320 72  
8321 52  
8322 84  
8323 2   
8324 1   
8325 2   
8326 7   
8327 3   
8328 6   
8329 3   
8330 7   
8331 7   
8332 5   
8333 2   
8334 92  
8335 10  
8336 7   
8337 3   
8338 4   
8339 51  
8340 92  
8341 3   
8342 2   
8343 2   
8344 1   
8345 72  
8346 5   
8347 56  
8348 3   
8349 7   
8350 5   
8351 2   
8352 5   
8353 10  
8354 1   
8355 9   
8356 7   
8357 64  
8358 2   
8359 2   
8360 56  
8361 2   
8362 3   
8363 1   
8364 1   
8365 10  
8366 5   
8367 91  
8368 100 
8369 6   
8370 4   
8371 5   
8372 5   
8373 5   
8374 8   
8375 8   
8376 5   
8377 7   
8378 4   
8379 62  
8380 2   
8381 1   
8382 59  
8383 10  
8384 5   
8385 10  
8386 6   
8387 1   
8388 58  
8389 4   
8390 7   
8391 57  
8392 9   
8393 3   
8394 7   
8395 9   
8396 10  
8397 87  
8398 10  
8399 7   
8400 61  
8401 94  
8402 1   
8403 4   
8404 3   
8405 10  
8406 51  
8407 8   
8408 9   
8409 10  
8410 1   
8411 1   
8412 80  
8413 2   
8414 4   
8415 5   
8416 4   
8417 68  
8418 2   
8419 9   
8420 4   
8421 84  
8422 83  
8423 1   
8424 5   
8425 6   
8426 4   
8427 9   
8428 1   
8429 2   
8430 5   
8431 8   
8432 2   
8433 9   
8434 5   
8435 5   
8436 6   
8437 10  
8438 10  
8439 98  
8440 6   
8441 4   
8442 5   
8443 6   
8444 1   
8445 1   
8446 84  
8447 3   
8448 3   
8449 4   
8450 5   
8451 7   
8452 5   
8453 2   
8454 6   
8455 2   
8456 79  
8457 4   
8458 9   
8459 90  
8460 98  
8461 3   
8462 1   
8463 78  
8464 1   
8465 57  
8466 1   
8467 6   
8468 8   
8469 7   
8470 4   
8471 2   
8472 6   
8473 5   
8474 66  
8475 1   
8476 1   
8477 1   
8478 5   
8479 6   
8480 1   
8481 4   
8482 2   
8483 2   
8484 10  
8485 10  
8486 2   
8487 69  
8488 69  
8489 2   
8490 6   
8491 4   
8492 6   
8493 10  
8494 1   
8495 4   
8496 6   
8497 8   
8498 86  
8499 85  
8500 5   
8501 7   
8502 1   
8503 66  
8504 3   
8505 1   
8506 9   
8507 10  
8508 6   
8509 4   
8510 10  
8511 5   
8512 69  
8513 9   
8514 2   
8515 2   
8516 5   
8517 84  
8518 4   
8519 4   
8520 57  
8521 10  
8522 6   
8523 4   
8524 2   
8525 3   
8526 6   
8527 5   
8528 58  
8529 67  
8530 6   
8531 10  
8532 8   
8533 3   
8534 3   
8535 9   
8536 54  
8537 7   
8538 2   
8539 3   
8540 96  
8541 10  
8542 10  
8543 1   
8544 90  
8545 7   
8546 63  
8547 3   
8548 9   
8549 5   
8550 78  
8551 3   
8552 4   
8553 2   
8554 10  
8555 9   
8556 7   
8557 83  
8558 9   
8559 6   
8560 6   
8561 5   
8562 76  
8563 8   
8564 8   
8565 6   
8566 2   
8567 2   
8568 81  
8569 2   
8570 50  
8571 9   
8572 10  
8573 8   
8574 7   
8575 7   
8576 1   
8577 5   
8578 61  
8579 3   
8580 3   
8581 4   
8582 4   
8583 4   
8584 10  
8585 2   
8586 54  
8587 9   
8588 7   
8589 4   
8590 91  
8591 7   
8592 8   
8593 50  
8594 5   
8595 3   
8596 55  
8597 5   
8598 6   
8599 7   
8600 9   
8601 8   
8602 3   
8603 7   
8604 2   
8605 2   
8606 8   
8607 6   
8608 10  
8609 3   
8610 3   
8611 72  
8612 1   
8613 4   
8614 2   
8615 7   
8616 7   
8617 8   
8618 7   
8619 72  
8620 1   
8621 5   
8622 2   
8623 5   
8624 10  
8625 5   
8626 3   
8627 4   
8628 9   
8629 6   
8630 7   
8631 8   
8632 6   
8633 10  
8634 65  
8635 4   
8636 5   
8637 9   
8638 2   
8639 6   
8640 2   
8641 4   
8642 88  
8643 82  
8644 78  
8645 62  
8646 10  
8647 1   
8648 4   
8649 2   
8650 7   
8651 4   
8652 7   
8653 5   
8654 1   
8655 4   
8656 8   
8657 1   
8658 2   
8659 95  
8660 3   
8661 8   
8662 2   
8663 3   
8664 7   
8665 10  
8666 8   
8667 68  
8668 63  
8669 3   
8670 1   
8671 80  
8672 84  
8673 2   
8674 1   
8675 1   
8676 4   
8677 10  
8678 5   
8679 5   
8680 7   
8681 2   
8682 3   
8683 1   
8684 4   
8685 3   
8686 53  
8687 6   
8688 4   
8689 2   
8690 3   
8691 93  
8692 8   
8693 9   
8694 6   
8695 63  
8696 1   
8697 71  
8698 81  
8699 74  
8700 3   
8701 7   
8702 6   
8703 7   
8704 8   
8705 80  
8706 2   
8707 100 
8708 1   
8709 72  
8710 5   
8711 5   
8712 78  
8713 51  
8714 4   
8715 7   
8716 1   
8717 83  
8718 7   
8719 70  
8720 2   
8721 56  
8722 6   
8723 6   
8724 10  
8725 1   
8726 6   
8727 66  
8728 3   
8729 73  
8730 68  
8731 6   
8732 4   
8733 4   
8734 4   
8735 80  
8736 7   
8737 1   
8738 3   
8739 3   
8740 4   
8741 2   
8742 1   
8743 2   
8744 3   
8745 10  
8746 10  
8747 8   
8748 60  
8749 2   
8750 10  
8751 2   
8752 4   
8753 9   
8754 8   
8755 8   
8756 4   
8757 5   
8758 3   
8759 9   
8760 6   
8761 88  
8762 4   
8763 4   
8764 2   
8765 5   
8766 6   
8767 6   
8768 1   
8769 8   
8770 5   
8771 2   
8772 10  
8773 10  
8774 3   
8775 2   
8776 53  
8777 75  
8778 98  
8779 3   
8780 2   
8781 9   
8782 99  
8783 9   
8784 84  
8785 9   
8786 7   
8787 6   
8788 6   
8789 3   
8790 3   
8791 3   
8792 9   
8793 3   
8794 4   
8795 6   
8796 6   
8797 7   
8798 4   
8799 7   
8800 9   
8801 10  
8802 3   
8803 7   
8804 7   
8805 4   
8806 58  
8807 1   
8808 2   
8809 6   
8810 5   
8811 89  
8812 10  
8813 5   
8814 100 
8815 97  
8816 1   
8817 4   
8818 1   
8819 2   
8820 8   
8821 72  
8822 3   
8823 86  
8824 52  
8825 7   
8826 8   
8827 2   
8828 6   
8829 4   
8830 8   
8831 6   
8832 6   
8833 9   
8834 1   
8835 10  
8836 1   
8837 87  
8838 4   
8839 3   
8840 6   
8841 92  
8842 2   
8843 8   
8844 94  
8845 2   
8846 5   
8847 4   
8848 2   
8849 8   
8850 9   
8851 2   
8852 72  
8853 3   
8854 8   
8855 10  
8856 9   
8857 75  
8858 83  
8859 4   
8860 8   
8861 57  
8862 7   
8863 100 
8864 10  
8865 2   
8866 5   
8867 1   
8868 3   
8869 10  
8870 2   
8871 10  
8872 4   
8873 2   
8874 6   
8875 6   
8876 10  
8877 8   
8878 5   
8879 87  
8880 2   
8881 85  
8882 75  
8883 4   
8884 8   
8885 3   
8886 2   
8887 60  
8888 6   
8889 8   
8890 6   
8891 2   
8892 10  
8893 2   
8894 4   
8895 9   
8896 6   
8897 1   
8898 5   
8899 4   
8900 5   
8901 3   
8902 5   
8903 3   
8904 9   
8905 1   
8906 2   
8907 54  
8908 66  
8909 1   
8910 3   
8911 1   
8912 62  
8913 62  
8914 2   
8915 70  
8916 7   
8917 8   
8918 8   
8919 10  
8920 55  
8921 77  
8922 8   
8923 2   
8924 93  
8925 3   
8926 10  
8927 4   
8928 3   
8929 4   
8930 7   
8931 8   
8932 57  
8933 9   
8934 5   
8935 1   
8936 3   
8937 8   
8938 3   
8939 6   
8940 2   
8941 8   
8942 10  
8943 10  
8944 5   
8945 10  
8946 4   
8947 72  
8948 95  
8949 5   
8950 3   
8951 5   
8952 2   
8953 1   
8954 93  
8955 9   
8956 3   
8957 6   
8958 8   
8959 2   
8960 1   
8961 87  
8962 3   
8963 4   
8964 61  
8965 7   
8966 9   
8967 84  
8968 5   
8969 6   
8970 55  
8971 100 
8972 3   
8973 10  
8974 4   
8975 5   
8976 3   
8977 6   
8978 1   
8979 7   
8980 5   
8981 10  
8982 2   
8983 2   
8984 2   
8985 6   
8986 5   
8987 55  
8988 68  
8989 2   
8990 9   
8991 2   
8992 4   
8993 6   
8994 4   
8995 6   
8996 6   
8997 8   
8998 1   
8999 4   
9000 10  
9001 10  
9002 6   
9003 2   
9004 100 
9005 6   
9006 7   
9007 6   
9008 3   
9009 8   
9010 1   
9011 2   
9012 2   
9013 84  
9014 6   
9015 9   
9016 8   
9017 2   
9018 9   
9019 3   
9020 2   
9021 3   
9022 8   
9023 2   
9024 10  
9025 7   
9026 1   
9027 7   
9028 1   
9029 2   
9030 7   
9031 58  
9032 79  
9033 5   
9034 3   
9035 1   
9036 4   
9037 10  
9038 3   
9039 3   
9040 8   
9041 1   
9042 2   
9043 10  
9044 62  
9045 2   
9046 4   
9047 10  
9048 6   
9049 10  
9050 9   
9051 9   
9052 3   
9053 3   
9054 3   
9055 51  
9056 6   
9057 9   
9058 3   
9059 67  
9060 6   
9061 80  
9062 6   
9063 90  
9064 10  
9065 7   
9066 64  
9067 4   
9068 1   
9069 3   
9070 4   
9071 8   
9072 10  
9073 77  
9074 1   
9075 3   
9076 92  
9077 10  
9078 6   
9079 5   
9080 3   
9081 2   
9082 6   
9083 8   
9084 3   
9085 1   
9086 89  
9087 7   
9088 7   
9089 87  
9090 2   
9091 10  
9092 3   
9093 3   
9094 9   
9095 9   
9096 2   
9097 4   
9098 3   
9099 3   
9100 5   
9101 3   
9102 6   
9103 5   
9104 10  
9105 10  
9106 3   
9107 9   
9108 4   
9109 3   
9110 3   
9111 6   
9112 52  
9113 6   
9114 2   
9115 7   
9116 3   
9117 10  
9118 5   
9119 5   
9120 2   
9121 4   
9122 72  
9123 10  
9124 10  
9125 2   
9126 6   
9127 9   
9128 7   
9129 6   
9130 2   
9131 4   
9132 6   
9133 2   
9134 7   
9135 4   
9136 84  
9137 5   
9138 90  
9139 10  
9140 2   
9141 1   
9142 2   
9143 3   
9144 2   
9145 94  
9146 4   
9147 10  
9148 6   
9149 67  
9150 8   
9151 4   
9152 2   
9153 78  
9154 7   
9155 4   
9156 7   
9157 6   
9158 5   
9159 6   
9160 6   
9161 1   
9162 7   
9163 3   
9164 3   
9165 7   
9166 7   
9167 9   
9168 2   
9169 5   
9170 4   
9171 56  
9172 5   
9173 2   
9174 1   
9175 1   
9176 8   
9177 3   
9178 10  
9179 7   
9180 3   
9181 8   
9182 8   
9183 8   
9184 10  
9185 54  
9186 2   
9187 3   
9188 3   
9189 3   
9190 2   
9191 8   
9192 7   
9193 6   
9194 2   
9195 4   
9196 5   
9197 9   
9198 7   
9199 2   
9200 1   
9201 5   
9202 8   
9203 3   
9204 8   
9205 2   
9206 9   
9207 3   
9208 9   
9209 7   
9210 93  
9211 8   
9212 77  
9213 1   
9214 6   
9215 85  
9216 3   
9217 5   
9218 4   
9219 75  
9220 4   
9221 73  
9222 8   
9223 9   
9224 2   
9225 9   
9226 9   
9227 97  
9228 3   
9229 2   
9230 8   
9231 7   
9232 2   
9233 1   
9234 2   
9235 3   
9236 3   
9237 63  
9238 8   
9239 2   
9240 6   
9241 7   
9242 7   
9243 1   
9244 10  
9245 2   
9246 3   
9247 87  
9248 1   
9249 10  
9250 3   
9251 4   
9252 5   
9253 3   
9254 5   
9255 1   
9256 7   
9257 4   
9258 78  
9259 2   
9260 1   
9261 5   
9262 93  
9263 8   
9264 1   
9265 3   
9266 4   
9267 9   
9268 10  
9269 10  
9270 6   
9271 8   
9272 10  
9273 2   
9274 65  
9275 6   
9276 2   
9277 10  
9278 4   
9279 10  
9280 6   
9281 1   
9282 4   
9283 8   
9284 74  
9285 9   
9286 6   
9287 6   
9288 6   
9289 8   
9290 3   
9291 3   
9292 86  
9293 8   
9294 4   
9295 4   
9296 3   
9297 4   
9298 7   
9299 7   
9300 9   
9301 8   
9302 10  
9303 98  
9304 6   
9305 2   
9306 80  
9307 4   
9308 50  
9309 7   
9310 7   
9311 3   
9312 8   
9313 2   
9314 2   
9315 1   
9316 85  
9317 61  
9318 3   
9319 2   
9320 9   
9321 81  
9322 8   
9323 4   
9324 10  
9325 10  
9326 3   
9327 5   
9328 58  
9329 5   
9330 3   
9331 7   
9332 9   
9333 100 
9334 7   
9335 10  
9336 7   
9337 9   
9338 75  
9339 71  
9340 2   
9341 3   
9342 3   
9343 7   
9344 10  
9345 2   
9346 3   
9347 8   
9348 9   
9349 90  
9350 4   
9351 6   
9352 81  
9353 9   
9354 1   
9355 92  
9356 8   
9357 9   
9358 68  
9359 82  
9360 10  
9361 8   
9362 10  
9363 6   
9364 2   
9365 82  
9366 1   
9367 5   
9368 8   
9369 3   
9370 6   
9371 5   
9372 1   
9373 8   
9374 1   
9375 2   
9376 6   
9377 5   
9378 2   
9379 7   
9380 4   
9381 64  
9382 5   
9383 10  
9384 9   
9385 8   
9386 1   
9387 72  
9388 9   
9389 4   
9390 96  
9391 84  
9392 1   
9393 66  
9394 8   
9395 5   
9396 3   
9397 53  
9398 9   
9399 10  
9400 2   
9401 1   
9402 8   
9403 7   
9404 3   
9405 5   
9406 1   
9407 9   
9408 3   
9409 2   
9410 1   
9411 78  
9412 4   
9413 6   
9414 10  
9415 1   
9416 7   
9417 7   
9418 4   
9419 4   
9420 7   
9421 2   
9422 2   
9423 2   
9424 9   
9425 9   
9426 3   
9427 3   
9428 6   
9429 8   
9430 7   
9431 94  
9432 5   
9433 8   
9434 6   
9435 5   
9436 8   
9437 10  
9438 5   
9439 53  
9440 5   
9441 9   
9442 88  
9443 7   
9444 8   
9445 2   
9446 4   
9447 51  
9448 6   
9449 5   
9450 10  
9451 3   
9452 3   
9453 3   
9454 5   
9455 2   
9456 7   
9457 2   
9458 8   
9459 6   
9460 1   
9461 10  
9462 8   
9463 56  
9464 4   
9465 97  
9466 6   
9467 10  
9468 9   
9469 6   
9470 1   
9471 10  
9472 4   
9473 7   
9474 88  
9475 6   
9476 3   
9477 9   
9478 8   
9479 8   
9480 66  
9481 9   
9482 1   
9483 9   
9484 9   
9485 4   
9486 3   
9487 3   
9488 3   
9489 5   
9490 8   
9491 6   
9492 8   
9493 51  
9494 5   
9495 5   
9496 5   
9497 7   
9498 5   
9499 3   
9500 97  
9501 7   
9502 64  
9503 6   
9504 5   
9505 3   
9506 56  
9507 5   
9508 1   
9509 5   
9510 10  
9511 7   
9512 3   
9513 4   
9514 63  
9515 3   
9516 7   
9517 81  
9518 58  
9519 5   
9520 10  
9521 3   
9522 10  
9523 3   
9524 8   
9525 7   
9526 1   
9527 1   
9528 3   
9529 71  
9530 69  
9531 9   
9532 3   
9533 62  
9534 10  
9535 9   
9536 1   
9537 2   
9538 82  
9539 5   
9540 2   
9541 4   
9542 81  
9543 10  
9544 2   
9545 1   
9546 1   
9547 9   
9548 2   
9549 100 
9550 1   
9551 8   
9552 61  
9553 6   
9554 4   
9555 2   
9556 10  
9557 10  
9558 10  
9559 8   
9560 9   
9561 8   
9562 9   
9563 4   
9564 10  
9565 1   
9566 8   
9567 2   
9568 10  
9569 3   
9570 9   
9571 5   
9572 58  
9573 5   
9574 7   
9575 2   
9576 69  
9577 3   
9578 76  
9579 6   
9580 9   
9581 2   
9582 10  
9583 8   
9584 93  
9585 10  
9586 10  
9587 7   
9588 7   
9589 3   
9590 9   
9591 77  
9592 9   
9593 59  
9594 1   
9595 2   
9596 5   
9597 7   
9598 86  
9599 65  
9600 3   
9601 7   
9602 8   
9603 3   
9604 2   
9605 4   
9606 7   
9607 4   
9608 94  
9609 9   
9610 10  
9611 93  
9612 7   
9613 5   
9614 1   
9615 7   
9616 2   
9617 1   
9618 4   
9619 7   
9620 73  
9621 6   
9622 1   
9623 1   
9624 3   
9625 6   
9626 3   
9627 96  
9628 9   
9629 4   
9630 6   
9631 3   
9632 8   
9633 3   
9634 10  
9635 5   
9636 4   
9637 2   
9638 3   
9639 4   
9640 7   
9641 2   
9642 7   
9643 3   
9644 10  
9645 4   
9646 4   
9647 9   
9648 9   
9649 3   
9650 5   
9651 2   
9652 3   
9653 6   
9654 93  
9655 4   
9656 9   
9657 6   
9658 3   
9659 10  
9660 10  
9661 7   
9662 10  
9663 6   
9664 9   
9665 90  
9666 5   
9667 4   
9668 10  
9669 6   
9670 8   
9671 9   
9672 3   
9673 9   
9674 5   
9675 4   
9676 7   
9677 10  
9678 3   
9679 1   
9680 4   
9681 9   
9682 3   
9683 2   
9684 88  
9685 68  
9686 5   
9687 6   
9688 5   
9689 9   
9690 1   
9691 7   
9692 9   
9693 92  
9694 5   
9695 91  
9696 8   
9697 1   
9698 74  
9699 5   
9700 4   
9701 5   
9702 1   
9703 10  
9704 52  
9705 8   
9706 9   
9707 100 
9708 79  
9709 5   
9710 6   
9711 10  
9712 6   
9713 6   
9714 9   
9715 54  
9716 97  
9717 8   
9718 84  
9719 1   
9720 77  
9721 6   
9722 6   
9723 9   
9724 66  
9725 7   
9726 4   
9727 3   
9728 5   
9729 4   
9730 1   
9731 5   
9732 7   
9733 1   
9734 6   
9735 5   
9736 95  
9737 5   
9738 1   
9739 86  
9740 7   
9741 70  
9742 65  
9743 9   
9744 64  
9745 10  
9746 7   
9747 9   
9748 7   
9749 8   
9750 6   
9751 89  
9752 2   
9753 8   
9754 92  
9755 9   
9756 78  
9757 8   
9758 6   
9759 8   
9760 1   
9761 7   
9762 5   
9763 10  
9764 8   
9765 10  
9766 10  
9767 79  
9768 7   
9769 2   
9770 67  
9771 8   
9772 10  
9773 80  
9774 61  
9775 1   
9776 10  
9777 100 
9778 10  
9779 7   
9780 1   
9781 6   
9782 4   
9783 5   
9784 4   
9785 6   
9786 8   
9787 3   
9788 56  
9789 65  
9790 1   
9791 9   
9792 1   
9793 3   
9794 5   
9795 7   
9796 6   
9797 6   
9798 5   
9799 2   
9800 6   
9801 9   
9802 6   
9803 1   
9804 90  
9805 1   
9806 3   
9807 4   
9808 9   
9809 62  
9810 2   
9811 2   
9812 3   
9813 96  
9814 5   
9815 5   
9816 7   
9817 5   
9818 4   
9819 3   
9820 1   
9821 9   
9822 8   
9823 8   
9824 9   
9825 7   
9826 7   
9827 8   
9828 6   
9829 5   
9830 3   
9831 4   
9832 93  
9833 9   
9834 4   
9835 80  
9836 6   
9837 93  
9838 3   
9839 8   
9840 91  
9841 59  
9842 10  
9843 8   
9844 10  
9845 3   
9846 10  
9847 1   
9848 4   
9849 9   
9850 1   
9851 6   
9852 4   
9853 2   
9854 71  
9855 9   
9856 1   
9857 3   
9858 6   
9859 53  
9860 75  
9861 4   
9862 4   
9863 1   
9864 66  
9865 57  
9866 8   
9867 5   
9868 7   
9869 10  
9870 2   
9871 4   
9872 6   
9873 8   
9874 72  
9875 3   
9876 2   
9877 93  
9878 2   
9879 76  
9880 8   
9881 1   
9882 6   
9883 2   
9884 7   
9885 2   
9886 7   
9887 6   
9888 9   
9889 9   
9890 79  
9891 93  
9892 10  
9893 7   
9894 1   
9895 7   
9896 86  
9897 2   
9898 10  
9899 9   
9900 1   
9901 7   
9902 3   
9903 5   
9904 5   
9905 9   
9906 4   
9907 74  
9908 9   
9909 3   
9910 1   
9911 4   
9912 9   
9913 7   
9914 2   
9915 1   
9916 4   
9917 6   
9918 6   
9919 2   
9920 7   
9921 1   
9922 10  
9923 2   
9924 8   
9925 2   
9926 82  
9927 2   
9928 4   
9929 2   
9930 5   
9931 8   
9932 8   
9933 7   
9934 10  
9935 6   
9936 10  
9937 58  
9938 76  
9939 7   
9940 7   
9941 67  
9942 90  
9943 2   
9944 3   
9945 7   
9946 10  
9947 10  
9948 2   
9949 9   
9950 4   
9951 52  
9952 55  
9953 86  
9954 1   
9955 9   
9956 1   
9957 3   
9958 76  
9959 10  
9960 1   
9961 5   
9962 4   
9963 2   
9964 6   
9965 6   
9966 4   
9967 73  
9968 1   
9969 8   
9970 79  
9971 57  
9972 10  
9973 4   
9974 72  
9975 2   
9976 7   
9977 6   
9978 2   
9979 55  
9980 10  
9981 3   
9982 10  
9983 6   
9984 6   
9985 95  
9986 8   
9987 68  
9988 4   
9989 2   
9990 10  
9991 2   
9992 9   
9993 3   
9994 2   
9995 7   
9996 2   
9997 6   
9998 1   
9999 1   
10000 6   
10001 4   
DEPOT_SECTION
1
-1
EOF
