NAME : XML10000_2113_01
COMMENT : Generated as the XML100 dataset from the CVRPLIB
TYPE : CVRP
DIMENSION : 10001
EDGE_WEIGHT_TYPE : EUC_2D
CAPACITY : 8
NODE_COORD_SECTION
1    5000 5000
2    2375 8590
3    7093 6671
4    8535 6780
5    2846 9513
6    6520 5968
7    6403 7262
8    820  2109
9    4993 1701
10   8443 8169
11   7195 2748
12   4990 9773
13   7401 1723
14   4977 2375
15   3737 3125
16   9055 6848
17   8724 8174
18   8997 7330
19   6407 8648
20   6099 5055
21   3273 9824
22   3125 8565
23   2792 1250
24   5396 6078
25   1385 5084
26   8711 5465
27   9664 3088
28   5342 2122
29   1530 711 
30   9417 1912
31   8661 1838
32   5913 4989
33   7627 8837
34   3472 2788
35   2724 8018
36   5601 8048
37   833  8667
38   9544 9226
39   3338 6389
40   8225 147 
41   4873 9547
42   2259 9537
43   8647 4040
44   6542 2045
45   9150 7532
46   224  6774
47   7527 4032
48   4778 2375
49   847  9055
50   6878 840 
51   8441 7673
52   1094 761 
53   2439 6544
54   8321 9889
55   3436 3510
56   5964 2838
57   9182 2657
58   7843 6978
59   3229 6303
60   8326 4341
61   5000 7519
62   165  3040
63   7548 5179
64   6605 3626
65   794  5103
66   4223 8051
67   2622 3316
68   4652 9061
69   3392 998 
70   8778 7732
71   6343 2783
72   184  8908
73   5656 8545
74   539  9468
75   9054 5176
76   1438 1243
77   3649 7034
78   9261 9081
79   8862 6184
80   7031 2563
81   6716 5569
82   2517 3888
83   2331 4616
84   8442 6288
85   482  4869
86   1874 1684
87   7764 667 
88   8820 8024
89   810  5926
90   9634 5899
91   302  4187
92   6584 1027
93   473  3547
94   5747 1612
95   5497 2849
96   4252 4762
97   6171 841 
98   9479 6018
99   8114 5453
100  3627 7153
101  9393 8700
102  7005 9651
103  146  5893
104  3292 9500
105  1906 8388
106  4370 4017
107  1785 7610
108  8028 7234
109  1637 9434
110  2286 4023
111  4642 7408
112  8381 4455
113  3019 8158
114  208  6080
115  662  7591
116  4946 7410
117  591  3091
118  45   3683
119  5645 9870
120  4051 6085
121  6007 9824
122  4090 9743
123  4461 9528
124  1995 9886
125  1145 4184
126  222  2859
127  9010 6162
128  6569 5280
129  2342 5055
130  6421 1544
131  192  2769
132  9640 787 
133  3479 6956
134  2795 8358
135  1343 7718
136  4869 1381
137  7889 2580
138  2472 3732
139  7112 2292
140  5868 1694
141  5516 6411
142  7054 6382
143  3958 8486
144  3874 8689
145  7993 5354
146  5946 1240
147  8583 7150
148  1457 7401
149  6925 2371
150  7125 5407
151  3702 6504
152  4904 9095
153  1446 5959
154  4587 9186
155  2509 1959
156  9174 3125
157  4041 3041
158  3538 1378
159  577  8881
160  7252 395 
161  4894 5238
162  1878 4423
163  4708 6773
164  4970 9879
165  7033 2928
166  874  3761
167  4543 7593
168  5291 2622
169  3534 8836
170  617  3496
171  8334 8178
172  6880 9132
173  5457 8098
174  3741 5665
175  2919 7664
176  3846 1368
177  2138 5804
178  4342 725 
179  811  9502
180  626  5720
181  1148 4021
182  7768 5187
183  8312 7265
184  7726 8119
185  5375 6891
186  8494 6482
187  2550 7054
188  6944 9990
189  586  9240
190  9127 6335
191  1728 9513
192  5193 8805
193  6511 6864
194  8609 4673
195  5046 8149
196  1204 461 
197  7952 2783
198  7898 7071
199  9351 5541
200  3954 8838
201  5308 1998
202  4732 5652
203  4388 3765
204  3928 7734
205  8337 8176
206  2544 7630
207  2265 5859
208  7610 7581
209  9186 5982
210  8060 4674
211  9348 3960
212  3291 7400
213  2118 7083
214  2564 4581
215  8541 6687
216  5897 9353
217  7972 2042
218  9147 5802
219  8465 118 
220  6949 9500
221  9722 262 
222  1898 1027
223  4631 9234
224  6759 3220
225  53   7546
226  5897 4335
227  9447 7609
228  9921 4581
229  4101 9242
230  2957 5108
231  5404 8076
232  7126 9951
233  7812 5052
234  5285 7856
235  6648 8379
236  8707 9461
237  4295 7123
238  8437 6916
239  2716 2612
240  4213 4138
241  6861 8391
242  813  3371
243  3008 9441
244  5130 5151
245  7484 9419
246  288  3886
247  465  2753
248  5484 7571
249  9005 2205
250  5431 1900
251  1935 1263
252  1834 1218
253  7740 9579
254  7352 3749
255  7990 3056
256  8066 5888
257  8256 2443
258  7802 7144
259  5252 4099
260  1837 2314
261  8153 1578
262  4566 6905
263  2778 1557
264  6152 8333
265  6910 6229
266  8799 1107
267  6570 5613
268  8121 7576
269  6759 6779
270  6546 1178
271  6431 1   
272  2455 8403
273  4477 8616
274  6205 9619
275  4248 815 
276  4141 7600
277  9602 4953
278  4670 5310
279  7160 426 
280  262  4169
281  2340 6153
282  5121 8886
283  1813 4352
284  8457 4061
285  4455 438 
286  7922 7532
287  4769 9751
288  4866 8919
289  6005 3147
290  9268 3077
291  118  3644
292  8646 2725
293  8467 2546
294  1153 3308
295  2768 2180
296  6535 9197
297  5334 5892
298  5922 4588
299  386  7256
300  7439 2067
301  3696 7667
302  3190 8981
303  9007 8771
304  4316 28  
305  1670 1141
306  3237 2579
307  7927 4265
308  8653 2578
309  1911 751 
310  8324 3574
311  6379 3416
312  6257 5157
313  4930 7603
314  8223 1384
315  6629 784 
316  4028 4157
317  982  4433
318  4594 444 
319  2844 2285
320  1192 7942
321  5414 7079
322  5405 9416
323  799  2355
324  566  7770
325  1222 4490
326  6026 8018
327  2944 6603
328  8919 6165
329  7933 611 
330  1657 6536
331  3262 82  
332  9058 3482
333  4521 5312
334  6180 9350
335  9368 4327
336  2956 7968
337  7824 1348
338  8277 8865
339  6912 4878
340  3083 9313
341  6608 1105
342  9371 9236
343  6543 825 
344  4795 752 
345  4477 2529
346  2526 8996
347  7624 5584
348  1161 2918
349  8664 4415
350  8087 5316
351  470  438 
352  182  8987
353  5714 1924
354  1187 7806
355  7143 4729
356  1436 9686
357  7436 8753
358  5433 5332
359  4016 7245
360  3751 9338
361  6786 7346
362  1235 8016
363  2279 2267
364  1027 1399
365  8472 9186
366  5632 4778
367  1886 3769
368  4371 3764
369  7143 7700
370  5841 1833
371  1386 6308
372  2836 5493
373  9812 4639
374  2946 2772
375  5560 5123
376  3032 5932
377  5374 8926
378  8168 6449
379  8274 2669
380  7120 5246
381  1104 2115
382  6526 8503
383  4787 2094
384  8010 3282
385  8838 5142
386  4281 5973
387  8298 8182
388  8597 1880
389  8079 5553
390  4721 7570
391  4422 7411
392  3034 3607
393  9647 4053
394  3229 426 
395  9051 6477
396  4224 7787
397  8595 7744
398  1961 9766
399  2108 819 
400  2528 5902
401  5493 8988
402  2072 5136
403  4512 5004
404  2129 2005
405  297  805 
406  4064 8264
407  5978 856 
408  4525 9879
409  1571 2198
410  3129 57  
411  9151 9210
412  9639 5892
413  675  8850
414  4817 8515
415  8061 8327
416  5889 6455
417  443  3250
418  4692 7487
419  4314 1873
420  8885 843 
421  9808 6482
422  1406 7457
423  5646 8108
424  1686 4850
425  1790 5229
426  4211 8606
427  1467 1537
428  9091 3990
429  3989 9757
430  2805 6141
431  3218 6692
432  7259 1808
433  2104 8494
434  9711 806 
435  1844 2248
436  8578 3138
437  3456 6270
438  2472 2107
439  1807 6579
440  9540 9533
441  9358 9564
442  404  4663
443  3436 5268
444  8942 8991
445  4855 9669
446  1620 3819
447  4569 7244
448  8094 9930
449  976  7509
450  6103 9690
451  3501 6568
452  6698 1794
453  3517 4945
454  3888 4683
455  1599 3403
456  8878 2515
457  6604 5305
458  7991 6562
459  5965 3867
460  7112 8479
461  4650 8085
462  6524 2708
463  6283 4564
464  7371 4974
465  6921 946 
466  2969 5429
467  2124 2378
468  1850 9139
469  651  4944
470  2293 3225
471  3392 4372
472  9234 1637
473  4122 1884
474  150  4691
475  3533 9431
476  2206 4623
477  2605 355 
478  1373 2070
479  7436 3716
480  234  8564
481  7833 9295
482  5855 3491
483  203  4076
484  5121 2868
485  4634 8500
486  6317 1241
487  4960 6040
488  1937 7413
489  9800 595 
490  4737 488 
491  9740 5067
492  2688 383 
493  6163 5376
494  4536 5247
495  5400 9254
496  6044 4060
497  8956 4092
498  3841 3311
499  9335 8437
500  8349 7970
501  3277 1545
502  9875 1857
503  6810 2828
504  3482 2775
505  2297 357 
506  4798 2216
507  3724 2803
508  3561 7703
509  8983 6069
510  3633 630 
511  272  2451
512  264  3191
513  4986 535 
514  8142 1508
515  5223 6098
516  3980 4223
517  475  7390
518  6241 3068
519  6092 4400
520  7786 4790
521  5907 1716
522  4910 1256
523  1075 2763
524  7097 1067
525  5985 6297
526  7560 6572
527  7904 2484
528  6187 3167
529  7278 1113
530  3892 7938
531  2565 8626
532  4147 5873
533  6904 6127
534  7553 8207
535  7175 7466
536  8912 5684
537  5734 9521
538  195  5664
539  85   157 
540  1800 8989
541  9160 6162
542  9850 2317
543  3835 3849
544  5387 4019
545  8440 9289
546  4243 2844
547  5776 7402
548  6649 895 
549  1342 116 
550  3077 4204
551  3995 9061
552  6741 9931
553  4927 5855
554  3000 2398
555  6612 7551
556  1997 3282
557  7488 6345
558  1359 6629
559  2027 4243
560  6633 2401
561  6511 8697
562  1068 4429
563  6828 9575
564  7416 1303
565  1019 3773
566  1354 6878
567  8619 4164
568  1351 4762
569  7184 3196
570  2125 5275
571  7332 5716
572  4636 4339
573  2151 8788
574  6390 8759
575  3079 769 
576  7599 5150
577  7944 8234
578  7598 8559
579  4695 9607
580  1459 7871
581  199  3502
582  4347 7829
583  4753 4864
584  998  4074
585  4929 8433
586  845  8934
587  1548 946 
588  5468 6720
589  5238 1099
590  8496 216 
591  8881 2606
592  9958 9316
593  9115 2381
594  1028 8153
595  3790 4288
596  9489 4972
597  7832 9324
598  8876 330 
599  7057 2139
600  5296 3628
601  1942 2708
602  8544 5225
603  4003 2695
604  1802 150 
605  8249 5424
606  4158 5071
607  9797 5585
608  2909 9535
609  185  2158
610  3727 2120
611  5182 9733
612  5580 1898
613  7466 4957
614  8199 2070
615  1508 2749
616  8259 4719
617  9775 534 
618  7960 2940
619  2962 8612
620  4645 6093
621  4322 247 
622  2500 7320
623  8305 2618
624  9345 5949
625  336  6631
626  6922 130 
627  6982 7022
628  2355 5756
629  414  6787
630  9852 3773
631  6338 5557
632  2597 9837
633  8546 5558
634  2437 2171
635  201  2675
636  6002 9377
637  8263 3394
638  7109 5386
639  8043 644 
640  718  4174
641  1499 8959
642  813  3914
643  2984 7429
644  8826 4953
645  2613 7759
646  3674 3467
647  1451 4953
648  6863 3537
649  7138 3280
650  2160 9094
651  8696 5512
652  6755 5548
653  580  3114
654  1734 252 
655  8591 3811
656  8795 3245
657  152  4856
658  667  3243
659  2146 1977
660  5640 1478
661  6134 7777
662  1034 3030
663  138  6716
664  6006 1571
665  9002 5476
666  2418 8312
667  4015 8867
668  2039 2484
669  2583 2464
670  6034 7721
671  4539 7906
672  6379 2727
673  4523 7682
674  2365 8481
675  2008 9475
676  1234 2867
677  4140 3037
678  3209 1619
679  2903 3000
680  897  7809
681  7243 7084
682  3464 8132
683  5126 5138
684  6116 5436
685  1130 6694
686  422  7519
687  1848 1082
688  9354 4345
689  4856 1071
690  3165 3254
691  5820 4835
692  8980 6176
693  3306 9757
694  1277 9050
695  7272 9348
696  4540 6181
697  1432 5396
698  1786 7637
699  191  5810
700  1493 6460
701  2966 4048
702  964  697 
703  5749 1165
704  9315 3653
705  5394 7318
706  5472 6362
707  3848 8876
708  3858 8423
709  5770 1985
710  6693 4800
711  7981 7539
712  2641 9039
713  8747 2443
714  6904 9244
715  4141 6170
716  5374 1980
717  1623 3630
718  7325 5623
719  7311 7016
720  8555 7066
721  1237 427 
722  3554 1425
723  5010 2273
724  485  6922
725  2253 2734
726  6505 2261
727  9205 1601
728  6388 7167
729  6235 7373
730  6846 9291
731  5763 8944
732  4941 6560
733  1351 3957
734  6220 5358
735  8321 7769
736  5387 8031
737  1311 4622
738  4982 6607
739  2051 2814
740  6504 6865
741  2804 6981
742  5587 32  
743  9497 1379
744  7867 2176
745  9035 3024
746  6901 698 
747  965  2480
748  6024 4287
749  9037 8710
750  1362 368 
751  2177 7077
752  9306 7665
753  4208 1236
754  6952 7707
755  608  9397
756  4609 2902
757  6520 4742
758  1421 7321
759  8921 2771
760  1016 9946
761  5426 6951
762  303  1259
763  7445 901 
764  5473 5863
765  292  632 
766  8701 4752
767  2597 835 
768  7467 8166
769  7982 6987
770  2019 5976
771  4796 5707
772  5084 4331
773  8934 5419
774  8820 258 
775  85   580 
776  7646 4816
777  6338 1036
778  6816 6248
779  5727 9564
780  2551 7428
781  7260 2718
782  6130 6104
783  7714 1519
784  8803 3247
785  3248 2022
786  261  9578
787  5991 5857
788  7133 7582
789  6870 3820
790  8241 1706
791  8300 4288
792  1422 9427
793  3697 4866
794  6117 4719
795  2553 5870
796  3888 6714
797  82   8926
798  5203 9569
799  8998 4175
800  7154 6122
801  7550 8908
802  7083 4773
803  834  9834
804  8404 3100
805  7701 8197
806  6092 2493
807  7379 7403
808  1510 8816
809  8588 3618
810  8095 454 
811  9389 7224
812  6373 43  
813  7114 3155
814  1141 3369
815  2544 4251
816  248  568 
817  1260 8606
818  8977 1594
819  6792 3963
820  9231 7725
821  9606 5286
822  3690 6221
823  6063 446 
824  9322 3471
825  9281 8264
826  4969 3966
827  1658 3723
828  2615 7535
829  1506 5551
830  57   9899
831  8043 4260
832  6774 8367
833  8302 7142
834  7625 7184
835  3762 700 
836  8293 6524
837  2089 3475
838  5213 9028
839  2584 3370
840  8534 3253
841  2699 6547
842  9855 885 
843  5157 7550
844  3571 156 
845  673  6103
846  1496 7204
847  109  4358
848  7859 9913
849  3145 5732
850  9237 849 
851  6446 7031
852  2615 4103
853  6653 8592
854  5181 8338
855  4478 2484
856  7329 6286
857  8834 8340
858  7913 1392
859  166  1058
860  766  8946
861  3524 4071
862  9773 2765
863  7740 3435
864  2691 510 
865  7107 8693
866  426  3797
867  7156 5606
868  4857 5743
869  2008 7946
870  967  2914
871  5831 7354
872  4596 1368
873  1033 3976
874  1964 2729
875  9359 6298
876  3271 9   
877  6351 2275
878  1679 4515
879  3997 671 
880  920  8420
881  1480 1757
882  9603 5510
883  1570 7522
884  7398 3119
885  2018 7569
886  8966 3950
887  8880 5324
888  9544 7203
889  6368 7381
890  5510 1350
891  7016 8693
892  9812 8394
893  5321 1309
894  4697 27  
895  7246 3738
896  555  2296
897  64   8286
898  3076 1666
899  7088 3896
900  862  4839
901  4367 1605
902  8578 4881
903  6089 8539
904  2995 6909
905  6244 2097
906  6918 4920
907  675  7856
908  5651 9623
909  1775 9297
910  8003 1359
911  3693 4673
912  964  1062
913  9148 2941
914  6856 2986
915  5171 4741
916  3487 9809
917  8964 5431
918  4296 1469
919  5930 5473
920  157  3363
921  1907 8950
922  6947 622 
923  3278 7965
924  9583 5851
925  3568 1125
926  9933 3053
927  9324 961 
928  8492 1248
929  2365 2502
930  2515 7706
931  7004 7830
932  1992 3337
933  4778 6094
934  4801 8019
935  105  7377
936  6477 8105
937  761  6775
938  5448 4857
939  3259 3607
940  975  5627
941  8034 1682
942  2163 2032
943  8223 7219
944  6769 32  
945  8266 2342
946  8873 3926
947  9671 5479
948  5717 2923
949  5267 8555
950  4435 3755
951  9359 567 
952  1396 6466
953  5334 7088
954  8857 3911
955  2489 4526
956  5136 5236
957  7493 577 
958  2306 1712
959  2903 6494
960  6614 4913
961  9400 666 
962  2618 9116
963  3370 172 
964  5253 5935
965  6535 6026
966  5688 2860
967  4356 9789
968  1690 8597
969  1537 3864
970  938  3051
971  4781 6787
972  8174 6526
973  7771 6457
974  9719 936 
975  6719 1519
976  8933 4032
977  4066 8733
978  9921 5475
979  238  7679
980  3710 6581
981  5927 5626
982  1466 7808
983  3876 2543
984  9836 978 
985  3356 5211
986  9333 7468
987  580  1413
988  9869 5285
989  8078 5901
990  1867 7841
991  4814 8026
992  6491 9860
993  3101 5102
994  1517 2761
995  7547 802 
996  7580 8716
997  6191 9423
998  8680 271 
999  8502 8032
1000 1452 5384
1001 8787 4050
1002 1441 4440
1003 8386 1685
1004 5946 8009
1005 3405 8219
1006 2122 9170
1007 4415 6587
1008 260  3129
1009 8636 4942
1010 5103 4841
1011 6106 2224
1012 1770 1910
1013 776  7695
1014 4334 1821
1015 6224 8625
1016 7534 6186
1017 5171 8102
1018 3927 1596
1019 5325 2681
1020 6610 7077
1021 1566 9667
1022 7277 4635
1023 4680 6750
1024 9692 3073
1025 6900 2310
1026 9642 2370
1027 8300 4949
1028 2921 877 
1029 3895 6076
1030 9577 9757
1031 2991 7431
1032 2219 7609
1033 9074 7966
1034 4397 844 
1035 2816 1753
1036 9507 714 
1037 6234 4861
1038 812  2513
1039 811  9999
1040 1639 5949
1041 3688 2234
1042 7671 5727
1043 7953 7068
1044 1508 3717
1045 3847 4923
1046 2538 975 
1047 7314 9   
1048 6288 8942
1049 794  9683
1050 2365 122 
1051 6002 1802
1052 2810 5690
1053 6720 3342
1054 4621 1476
1055 3124 2804
1056 9359 4192
1057 2835 5634
1058 1429 3588
1059 1846 263 
1060 9562 9566
1061 2962 7895
1062 5577 1371
1063 3298 6131
1064 2274 8190
1065 6729 6582
1066 6167 8143
1067 805  4289
1068 8225 7096
1069 3997 583 
1070 7527 7212
1071 8299 4127
1072 9426 7847
1073 431  9116
1074 239  7110
1075 8537 9184
1076 2337 5929
1077 9408 8361
1078 7502 713 
1079 7511 5656
1080 2656 2108
1081 1517 7951
1082 351  9616
1083 5658 2044
1084 5577 9770
1085 1722 2024
1086 4960 8656
1087 388  6764
1088 7551 7097
1089 9918 8452
1090 8590 1597
1091 3806 1638
1092 4899 8367
1093 8927 465 
1094 9562 144 
1095 5467 3322
1096 1254 8872
1097 6949 8944
1098 5507 8906
1099 3448 5424
1100 7366 3104
1101 9176 3962
1102 8022 1168
1103 3661 532 
1104 4080 6348
1105 1530 5237
1106 4799 5902
1107 5945 2540
1108 977  2384
1109 5213 8848
1110 8635 765 
1111 780  9474
1112 8637 8348
1113 5622 3927
1114 5477 624 
1115 7805 4671
1116 462  5240
1117 1960 8191
1118 4086 6821
1119 4285 5750
1120 243  9624
1121 2787 3465
1122 5157 7611
1123 9111 7212
1124 7568 9454
1125 6589 388 
1126 71   7357
1127 9311 8949
1128 9102 1954
1129 7081 52  
1130 5328 8388
1131 2329 6495
1132 8828 3356
1133 1813 407 
1134 9981 6069
1135 4500 8432
1136 4329 5229
1137 4927 8715
1138 6854 1638
1139 2187 2319
1140 6124 2569
1141 7252 1580
1142 833  4058
1143 351  2149
1144 8938 7257
1145 665  7809
1146 520  4252
1147 2816 4380
1148 5983 8683
1149 1578 5032
1150 6917 2631
1151 4518 9919
1152 287  8879
1153 5719 7598
1154 8987 7813
1155 871  3560
1156 4443 2621
1157 5909 3439
1158 6174 1583
1159 5687 2321
1160 8149 7521
1161 3936 8595
1162 7176 6592
1163 1171 229 
1164 6398 2736
1165 1058 2141
1166 9654 9017
1167 9858 4479
1168 9462 8940
1169 9396 5794
1170 4768 2066
1171 2844 4513
1172 4121 1684
1173 6397 2009
1174 5347 5722
1175 4035 9585
1176 5159 2871
1177 1306 5845
1178 5423 3510
1179 184  7056
1180 4725 1719
1181 2823 8914
1182 116  2507
1183 6860 9029
1184 7952 4823
1185 3886 5697
1186 4076 9412
1187 7023 7143
1188 2842 5681
1189 9082 273 
1190 9412 6453
1191 6610 1045
1192 1751 3058
1193 9605 105 
1194 7594 9322
1195 1462 3003
1196 6505 4642
1197 3751 1254
1198 8049 2347
1199 3209 6923
1200 77   5014
1201 1523 6440
1202 3961 555 
1203 180  5826
1204 6067 4913
1205 1072 9757
1206 1177 3110
1207 4072 8039
1208 6115 4125
1209 3097 8209
1210 3315 9030
1211 3069 4223
1212 561  7458
1213 7662 2171
1214 9671 5395
1215 3748 6348
1216 9556 7644
1217 2217 5745
1218 9988 4022
1219 9251 3069
1220 8446 4639
1221 2052 5814
1222 2337 2379
1223 6098 5367
1224 4093 3825
1225 631  1822
1226 8240 4945
1227 6179 5654
1228 174  1989
1229 3213 6616
1230 4177 3964
1231 3825 5440
1232 8142 6823
1233 5302 1742
1234 1500 4673
1235 5160 8594
1236 8463 7675
1237 6    3945
1238 7545 5617
1239 2873 4127
1240 7191 1590
1241 8330 9049
1242 7975 7486
1243 3343 3111
1244 4876 9963
1245 8391 1169
1246 6795 2246
1247 1012 6320
1248 7654 659 
1249 5991 640 
1250 3410 684 
1251 4903 4603
1252 4425 5640
1253 1077 6723
1254 5926 5716
1255 1051 4305
1256 5981 5015
1257 7535 6409
1258 8301 7689
1259 9332 1755
1260 6142 4762
1261 6518 3735
1262 9668 8646
1263 111  5623
1264 9419 3461
1265 4557 1177
1266 7323 4882
1267 4553 3989
1268 5503 5936
1269 9252 4880
1270 1454 1825
1271 6353 5091
1272 9780 8069
1273 9918 824 
1274 6320 199 
1275 2846 4909
1276 4996 6304
1277 325  7497
1278 1985 8216
1279 4570 4312
1280 8772 7017
1281 5107 5107
1282 4242 7139
1283 8400 4   
1284 3887 8081
1285 6345 3872
1286 5587 558 
1287 4450 1569
1288 1661 2041
1289 7376 1939
1290 6441 1510
1291 8422 1232
1292 7214 9846
1293 8409 5459
1294 9211 9485
1295 4065 9970
1296 3696 5167
1297 7331 8893
1298 5637 4028
1299 9076 1968
1300 2433 3938
1301 406  3   
1302 147  1937
1303 3617 1073
1304 2434 9537
1305 4092 4864
1306 5495 8518
1307 9184 9399
1308 8034 8698
1309 6673 9957
1310 6940 2288
1311 9434 2172
1312 5545 2919
1313 9406 6689
1314 9707 5329
1315 9973 7610
1316 2974 1283
1317 999  7547
1318 716  3719
1319 7611 9561
1320 7962 6563
1321 9372 8072
1322 7937 8275
1323 8952 4909
1324 2271 121 
1325 6812 4653
1326 6784 990 
1327 4187 7548
1328 4576 1152
1329 1256 4098
1330 9325 2072
1331 8263 8364
1332 348  2069
1333 2109 7864
1334 6860 5271
1335 940  1640
1336 7203 5858
1337 8003 8428
1338 1728 391 
1339 4614 7732
1340 5869 2834
1341 10000 3665
1342 4208 5233
1343 1776 6463
1344 3630 5854
1345 2247 5691
1346 6011 2226
1347 7894 8433
1348 9899 3593
1349 8218 6460
1350 7510 7047
1351 6022 7601
1352 8759 3911
1353 6575 8706
1354 3587 8414
1355 8370 9801
1356 1757 4111
1357 597  6707
1358 8331 6704
1359 1661 7336
1360 3760 9993
1361 3979 1302
1362 4141 1403
1363 8355 3071
1364 3779 4412
1365 4060 7278
1366 619  9678
1367 1074 4139
1368 3501 3031
1369 9598 9902
1370 3686 416 
1371 5323 5949
1372 1537 4325
1373 484  9599
1374 1522 8355
1375 5263 633 
1376 1823 868 
1377 1779 4135
1378 2030 9357
1379 5504 4171
1380 7190 7570
1381 9751 7835
1382 4764 5804
1383 6406 4346
1384 8635 8064
1385 563  8530
1386 1332 588 
1387 8115 3123
1388 4576 9999
1389 412  875 
1390 9189 7032
1391 1019 3528
1392 5799 5558
1393 8887 1170
1394 9754 4955
1395 6777 9252
1396 3933 7038
1397 7262 3230
1398 3665 7127
1399 7357 5787
1400 4236 5909
1401 216  1321
1402 6931 957 
1403 6401 5839
1404 5205 1279
1405 6027 1953
1406 3879 3813
1407 9280 255 
1408 4576 6852
1409 6097 6672
1410 2508 8410
1411 6304 1614
1412 530  7621
1413 1275 6596
1414 5274 683 
1415 5791 130 
1416 7035 7647
1417 2076 8229
1418 8926 4698
1419 2125 5667
1420 4546 2625
1421 3243 6358
1422 7626 2389
1423 5608 1755
1424 2461 3941
1425 764  2822
1426 4748 3392
1427 5793 68  
1428 7634 6879
1429 6205 1146
1430 1338 3123
1431 5761 7491
1432 7558 2443
1433 6147 725 
1434 1286 7234
1435 1079 6892
1436 6340 9887
1437 8997 4297
1438 6790 2568
1439 2367 379 
1440 9140 9970
1441 3908 6178
1442 9735 136 
1443 6219 2445
1444 8487 3412
1445 4535 2897
1446 1290 6314
1447 5173 5723
1448 7313 6659
1449 3234 9123
1450 9540 5708
1451 9943 2010
1452 6410 4890
1453 1489 6674
1454 9618 9440
1455 3871 7900
1456 7292 5361
1457 2930 7779
1458 2327 3519
1459 4826 3329
1460 605  4905
1461 6003 1041
1462 3928 4805
1463 683  4416
1464 3650 855 
1465 7262 752 
1466 6157 925 
1467 9089 4159
1468 8687 6476
1469 2300 9151
1470 5979 1209
1471 1147 1164
1472 8786 2846
1473 7340 1480
1474 7997 2833
1475 7092 2170
1476 8936 7736
1477 2000 1411
1478 2368 5784
1479 4560 8887
1480 3406 7974
1481 3334 8293
1482 9056 315 
1483 3267 729 
1484 4018 678 
1485 5546 8995
1486 4723 8414
1487 2264 9748
1488 9690 3189
1489 806  6281
1490 3258 2747
1491 1047 8426
1492 7834 631 
1493 9849 2808
1494 8167 7864
1495 7446 1605
1496 7453 1067
1497 148  4970
1498 7529 8464
1499 9541 2874
1500 2014 8688
1501 70   8973
1502 3729 9818
1503 3183 4179
1504 9629 2863
1505 6815 5290
1506 7579 9178
1507 67   9241
1508 1764 8079
1509 6724 7248
1510 2244 278 
1511 7024 5901
1512 7474 1940
1513 4416 156 
1514 8990 5766
1515 6491 2240
1516 8086 3831
1517 5375 6025
1518 1755 9554
1519 8889 6630
1520 1710 7527
1521 7253 3848
1522 5401 4411
1523 3435 8590
1524 4318 5267
1525 8359 7223
1526 9905 8015
1527 1171 8712
1528 6012 6174
1529 1717 8695
1530 5321 5718
1531 7933 8683
1532 4740 813 
1533 7946 6671
1534 8017 6361
1535 2858 2851
1536 7323 1084
1537 7025 7880
1538 7353 773 
1539 4115 4337
1540 6973 6347
1541 1085 5698
1542 2069 5322
1543 5046 9383
1544 4813 3123
1545 5234 6079
1546 2178 9144
1547 931  647 
1548 1010 7112
1549 9980 5722
1550 8251 3741
1551 5306 1720
1552 3774 6223
1553 5882 8890
1554 6358 5627
1555 321  6473
1556 614  7340
1557 2948 6241
1558 6046 8568
1559 2607 6060
1560 5790 1116
1561 4285 8620
1562 2913 8616
1563 4306 316 
1564 9923 2500
1565 6670 3592
1566 2019 6040
1567 9245 5373
1568 8010 3864
1569 7521 6789
1570 2280 4860
1571 3001 8099
1572 8291 9144
1573 665  9917
1574 6991 685 
1575 6887 2272
1576 8137 2715
1577 7562 689 
1578 603  376 
1579 5975 331 
1580 6235 3949
1581 8600 9742
1582 7111 2096
1583 1394 3868
1584 1503 7102
1585 3999 8117
1586 1670 9402
1587 5020 6252
1588 6189 9237
1589 8078 5020
1590 8236 1940
1591 7338 747 
1592 2954 8580
1593 1857 3692
1594 7553 2839
1595 5816 4326
1596 6762 2285
1597 5308 2659
1598 6840 1091
1599 9883 874 
1600 1023 5674
1601 8806 3496
1602 5802 944 
1603 6420 350 
1604 3115 9339
1605 6455 9415
1606 6189 5355
1607 1961 673 
1608 18   2513
1609 8317 5782
1610 9012 5994
1611 5103 841 
1612 3018 672 
1613 8688 2253
1614 5805 6497
1615 8875 9412
1616 8208 3620
1617 693  3361
1618 3732 6978
1619 1268 7595
1620 1992 4564
1621 1523 4054
1622 5983 6932
1623 5976 2283
1624 2242 5636
1625 1893 7229
1626 9378 2385
1627 6252 6901
1628 4308 1591
1629 5504 7085
1630 3137 1061
1631 9916 9377
1632 161  806 
1633 1433 1716
1634 2699 8687
1635 5687 3896
1636 1731 2491
1637 2174 1318
1638 1545 3367
1639 4352 3552
1640 497  4947
1641 9589 1441
1642 8427 5347
1643 5808 6167
1644 4311 386 
1645 7672 7481
1646 679  7594
1647 2867 2829
1648 9640 529 
1649 6102 924 
1650 4964 1528
1651 2346 8681
1652 1790 8545
1653 9253 9292
1654 7311 7754
1655 8962 9399
1656 190  6161
1657 9054 5221
1658 2652 1531
1659 5967 7012
1660 6459 1733
1661 394  3901
1662 4595 1601
1663 5510 716 
1664 3536 8903
1665 1354 4715
1666 1814 5275
1667 9524 9698
1668 3448 5925
1669 2873 6171
1670 5896 9359
1671 5474 1370
1672 6674 9807
1673 4519 6646
1674 509  2053
1675 6994 8259
1676 2160 9924
1677 4153 2450
1678 5588 8116
1679 7074 1470
1680 8195 520 
1681 7373 4467
1682 5882 8679
1683 3099 9890
1684 441  5251
1685 3930 7341
1686 3726 1974
1687 3847 4245
1688 7441 4646
1689 8725 3392
1690 9434 1306
1691 8972 8634
1692 665  7800
1693 5618 2382
1694 4100 8740
1695 9023 3916
1696 1086 8209
1697 2906 6053
1698 961  5416
1699 1645 947 
1700 4561 4816
1701 3758 4002
1702 4219 7580
1703 4810 9866
1704 6354 5262
1705 6205 8704
1706 8927 4209
1707 2802 1328
1708 5650 8998
1709 12   1220
1710 4356 825 
1711 4249 5283
1712 8951 7588
1713 7030 1123
1714 7865 3658
1715 3799 956 
1716 3920 6428
1717 8883 6383
1718 2562 4625
1719 3760 7148
1720 2742 7299
1721 8019 2494
1722 6460 6212
1723 7963 6939
1724 8046 3941
1725 5648 2762
1726 4986 4906
1727 3568 9977
1728 5534 2766
1729 8886 4187
1730 5143 9181
1731 9232 1469
1732 9403 1104
1733 5390 9114
1734 6197 2570
1735 8672 1662
1736 7623 4471
1737 2108 4339
1738 2065 911 
1739 3134 3949
1740 2357 239 
1741 845  7074
1742 5328 2608
1743 6864 3428
1744 7233 2285
1745 4604 9046
1746 6624 1329
1747 8496 7687
1748 7261 8180
1749 8456 5013
1750 2190 5400
1751 9959 690 
1752 3333 5338
1753 4621 5704
1754 7519 4693
1755 2804 7601
1756 4303 5869
1757 9800 1432
1758 9705 9141
1759 8103 7897
1760 2769 9270
1761 6336 7658
1762 9886 9427
1763 5631 1716
1764 3777 5770
1765 582  6503
1766 9182 3651
1767 5061 1831
1768 6409 4547
1769 9714 4516
1770 5847 5320
1771 3913 4240
1772 6088 2480
1773 8029 5370
1774 1674 3106
1775 7114 9954
1776 8061 4093
1777 8588 525 
1778 8679 588 
1779 6095 7883
1780 9700 2042
1781 2838 3666
1782 2617 3362
1783 2532 4191
1784 3632 7815
1785 6287 3761
1786 7868 2610
1787 7515 2842
1788 7161 1670
1789 6607 3845
1790 5914 4469
1791 5968 9695
1792 9344 7348
1793 9623 2806
1794 6992 8264
1795 2545 4158
1796 4158 5320
1797 949  3138
1798 2541 8125
1799 1059 4134
1800 4820 4688
1801 2979 239 
1802 1520 9904
1803 7125 1434
1804 5688 6888
1805 3658 2983
1806 3767 8386
1807 4165 7086
1808 8584 19  
1809 4979 9250
1810 7840 9712
1811 6947 7015
1812 473  8264
1813 4238 3394
1814 2525 9381
1815 5463 1479
1816 476  5521
1817 979  1629
1818 7980 82  
1819 369  6252
1820 3580 7642
1821 6552 5940
1822 8583 5417
1823 9517 1464
1824 3725 5338
1825 9735 7742
1826 5657 2523
1827 8374 745 
1828 3860 2195
1829 1138 3723
1830 5161 7929
1831 8087 4281
1832 7675 416 
1833 2709 8276
1834 9518 2213
1835 5623 6908
1836 4966 5940
1837 9243 4682
1838 7484 2861
1839 7191 3597
1840 3163 2601
1841 2654 5613
1842 5099 9456
1843 9062 2760
1844 6900 3032
1845 8951 1460
1846 2960 533 
1847 8720 500 
1848 4330 5632
1849 6893 726 
1850 1070 273 
1851 2556 1117
1852 6340 6545
1853 3100 4775
1854 2057 7737
1855 2347 7955
1856 4893 8102
1857 6248 5772
1858 883  3933
1859 8881 9182
1860 1588 8011
1861 3070 8310
1862 8060 8355
1863 8992 4038
1864 8048 9883
1865 5001 177 
1866 2949 1782
1867 9023 2275
1868 8639 7669
1869 8059 8067
1870 1611 9799
1871 3680 6299
1872 8205 8557
1873 9969 2695
1874 7906 9864
1875 7516 9308
1876 3964 2312
1877 182  4553
1878 655  9582
1879 3310 4290
1880 1670 6800
1881 4384 9308
1882 205  8971
1883 2567 2921
1884 1758 7974
1885 1332 7116
1886 9044 9525
1887 3848 9035
1888 4336 5692
1889 5293 9406
1890 5832 1989
1891 6151 6548
1892 880  433 
1893 558  2890
1894 9024 8500
1895 1470 9859
1896 3233 6512
1897 6951 7270
1898 9017 8987
1899 5531 2486
1900 6222 438 
1901 9731 3791
1902 6751 4189
1903 7658 1886
1904 538  509 
1905 5094 3658
1906 8316 4380
1907 8198 4653
1908 2967 1176
1909 9438 5560
1910 7306 7522
1911 8077 1100
1912 4496 2148
1913 5956 1103
1914 4592 6909
1915 368  8962
1916 2409 3955
1917 9328 1453
1918 6959 383 
1919 4404 6899
1920 4487 2108
1921 5597 4050
1922 2390 5816
1923 7164 574 
1924 8487 780 
1925 6215 9613
1926 156  8552
1927 3134 2198
1928 5263 7997
1929 3875 5532
1930 624  6547
1931 7203 844 
1932 6320 7299
1933 7824 9275
1934 2598 2722
1935 8724 4295
1936 6265 2529
1937 9341 4613
1938 7185 4882
1939 2553 6928
1940 6423 5509
1941 8271 344 
1942 5309 893 
1943 8629 4790
1944 9977 5586
1945 3979 800 
1946 5042 8445
1947 9888 7688
1948 3141 8130
1949 8628 730 
1950 9958 4006
1951 6836 2968
1952 7099 6901
1953 9685 8599
1954 9501 2552
1955 9596 5787
1956 6307 231 
1957 5768 1008
1958 5192 4634
1959 6530 8273
1960 8917 973 
1961 593  7442
1962 2255 7469
1963 3929 9279
1964 7352 785 
1965 1123 9642
1966 7307 7702
1967 5893 7961
1968 4062 9745
1969 9760 7140
1970 3188 7249
1971 1037 3050
1972 3103 6045
1973 8421 912 
1974 8776 9014
1975 9969 4674
1976 7290 7112
1977 544  9801
1978 8461 2270
1979 4337 3515
1980 4943 6737
1981 761  287 
1982 5263 5859
1983 8393 4117
1984 8714 7725
1985 7887 7423
1986 7575 4361
1987 5083 9288
1988 3040 4958
1989 2653 1306
1990 898  9852
1991 9576 821 
1992 8119 4392
1993 9292 9982
1994 3200 3620
1995 5038 2056
1996 960  6752
1997 7942 1729
1998 5643 1620
1999 6438 983 
2000 7112 8134
2001 4669 729 
2002 9617 2491
2003 2496 1728
2004 1495 6480
2005 3081 2997
2006 8507 6994
2007 9244 4969
2008 5276 1366
2009 3036 1302
2010 1458 757 
2011 6488 7466
2012 4943 4212
2013 7064 3459
2014 9381 9716
2015 720  6261
2016 3725 3882
2017 2215 7194
2018 332  8729
2019 3184 1589
2020 1954 1571
2021 1726 7175
2022 8949 3949
2023 6502 2021
2024 2495 5956
2025 9899 1855
2026 32   345 
2027 1166 5670
2028 6643 4901
2029 6474 1909
2030 5293 6461
2031 7062 166 
2032 8401 1840
2033 9637 1047
2034 5726 8513
2035 2649 1905
2036 5447 5414
2037 7434 1452
2038 2720 5740
2039 5094 7870
2040 2392 4162
2041 5593 5174
2042 7228 5043
2043 6133 2003
2044 6272 7388
2045 7702 8941
2046 3535 4736
2047 727  6615
2048 3282 2269
2049 7679 1566
2050 9927 809 
2051 3774 6491
2052 9785 9021
2053 4115 9714
2054 9382 4018
2055 1679 7437
2056 5220 582 
2057 1770 4849
2058 9943 3959
2059 6158 4398
2060 8248 5900
2061 6058 5917
2062 5631 5877
2063 6760 7449
2064 46   7185
2065 8213 890 
2066 4889 6097
2067 8354 4201
2068 922  3679
2069 2105 7904
2070 3894 9404
2071 3822 1172
2072 3992 341 
2073 2635 8691
2074 3579 2465
2075 8901 5610
2076 5754 482 
2077 8226 9536
2078 7141 6427
2079 2925 8095
2080 2230 4223
2081 9131 8563
2082 5883 8564
2083 1189 805 
2084 3350 1389
2085 385  177 
2086 3053 7163
2087 4871 4665
2088 6774 370 
2089 2462 6465
2090 7841 396 
2091 6330 1082
2092 5829 8556
2093 794  5821
2094 6795 1052
2095 3791 2783
2096 8230 9845
2097 9870 4952
2098 523  85  
2099 8774 239 
2100 3008 8189
2101 617  2726
2102 7725 3319
2103 8646 2342
2104 310  7214
2105 9919 8717
2106 8136 4934
2107 8497 5486
2108 8011 2471
2109 4871 1934
2110 3902 225 
2111 5049 2283
2112 6943 295 
2113 8352 1114
2114 6015 4940
2115 5797 6645
2116 2826 6039
2117 4540 7949
2118 8915 3178
2119 270  163 
2120 4973 2485
2121 8581 6659
2122 4982 3833
2123 725  8442
2124 6875 4571
2125 8736 9850
2126 7457 3436
2127 3190 81  
2128 7003 9523
2129 6464 4107
2130 9471 9081
2131 8454 2225
2132 9457 5660
2133 9001 4195
2134 7558 4084
2135 6109 3458
2136 2483 4406
2137 3802 3953
2138 517  2177
2139 7290 2392
2140 3267 9228
2141 389  2991
2142 2438 9765
2143 6965 5614
2144 8964 1874
2145 8052 9057
2146 8713 3798
2147 564  6698
2148 2865 7926
2149 8485 5562
2150 1711 7753
2151 8307 4896
2152 9807 1129
2153 6085 9473
2154 2111 2410
2155 1759 7900
2156 1566 4012
2157 2690 5788
2158 5123 7574
2159 161  1787
2160 2117 6041
2161 2651 226 
2162 267  499 
2163 3514 4436
2164 9002 9159
2165 3382 7180
2166 4825 6387
2167 6041 7129
2168 8931 7477
2169 2849 3635
2170 7482 9835
2171 1431 6009
2172 374  8948
2173 3894 5517
2174 9511 4132
2175 617  989 
2176 4905 3076
2177 3961 1908
2178 385  2795
2179 1875 52  
2180 736  7640
2181 5764 5681
2182 4576 781 
2183 235  7939
2184 6599 9982
2185 5748 156 
2186 8463 3912
2187 8932 9206
2188 108  1014
2189 1984 7511
2190 2041 1834
2191 5451 1579
2192 5521 5821
2193 195  318 
2194 7609 8590
2195 5    2421
2196 9181 493 
2197 7534 3668
2198 5395 6913
2199 1299 6675
2200 3250 5370
2201 5958 8493
2202 7887 270 
2203 9330 5323
2204 6779 3451
2205 7577 0   
2206 7234 2725
2207 8195 5828
2208 6629 6738
2209 2244 2417
2210 6699 9755
2211 5378 7320
2212 2630 529 
2213 6831 7863
2214 3116 5324
2215 6585 2285
2216 1986 1625
2217 2326 2645
2218 6316 3522
2219 9545 3137
2220 6518 8685
2221 2851 4298
2222 547  7169
2223 3403 4489
2224 2291 5538
2225 8499 1590
2226 3485 6532
2227 1430 5846
2228 1967 7385
2229 374  2703
2230 7845 7545
2231 8134 4770
2232 3154 3090
2233 560  7289
2234 3068 9690
2235 2133 7057
2236 4791 2029
2237 5783 7724
2238 4881 5969
2239 9660 4679
2240 2604 591 
2241 139  4849
2242 408  1906
2243 8185 9284
2244 4695 2673
2245 8805 4313
2246 2937 2555
2247 6449 8310
2248 8698 4592
2249 1155 4378
2250 7264 1391
2251 9017 1093
2252 626  1381
2253 2091 578 
2254 976  9271
2255 2201 5735
2256 6946 4279
2257 4125 5206
2258 8690 6726
2259 8143 4584
2260 6430 6512
2261 8477 7279
2262 807  9064
2263 4302 6935
2264 9325 7851
2265 6810 7855
2266 2863 17  
2267 504  9843
2268 9438 2741
2269 9885 2026
2270 4061 4650
2271 2925 4880
2272 5819 2739
2273 339  4453
2274 8830 5226
2275 5837 7571
2276 2545 6893
2277 8579 5905
2278 3196 7340
2279 744  3770
2280 9144 8703
2281 6553 6492
2282 7476 1006
2283 3854 60  
2284 8122 3444
2285 7439 7947
2286 8932 2124
2287 4786 3433
2288 888  1132
2289 4477 7833
2290 9614 1826
2291 9753 2198
2292 7466 4962
2293 7183 1302
2294 714  8357
2295 8138 3436
2296 6501 3693
2297 4890 2242
2298 7597 2876
2299 8369 8472
2300 7252 4563
2301 7569 7671
2302 3198 2131
2303 9651 6251
2304 9909 600 
2305 2773 6233
2306 7840 9307
2307 9936 522 
2308 6544 8892
2309 6829 9319
2310 3937 9929
2311 5398 3073
2312 2396 492 
2313 4668 5926
2314 3113 4524
2315 3947 941 
2316 9226 4063
2317 7329 5048
2318 4851 6332
2319 5101 8045
2320 7768 8434
2321 1945 9523
2322 5832 1216
2323 4363 2237
2324 5430 4009
2325 918  306 
2326 9136 1400
2327 666  7430
2328 5634 6353
2329 190  5057
2330 2857 7200
2331 5574 9159
2332 9517 5671
2333 3920 9383
2334 8095 8252
2335 4410 7034
2336 3848 4501
2337 8923 4486
2338 4917 6730
2339 74   5243
2340 1651 9888
2341 5481 6758
2342 7207 3892
2343 7112 2627
2344 2907 8206
2345 914  1009
2346 574  3435
2347 8852 3484
2348 9749 6282
2349 2689 3371
2350 9845 1746
2351 659  747 
2352 6171 8796
2353 5315 7800
2354 4828 8336
2355 4812 762 
2356 3943 5656
2357 3578 8124
2358 9208 3417
2359 8232 9224
2360 1613 7699
2361 7226 3696
2362 4049 3377
2363 8627 5534
2364 5783 5715
2365 2768 9067
2366 8849 1640
2367 1126 8540
2368 9073 3838
2369 7284 1153
2370 8422 1621
2371 2351 8394
2372 5109 2462
2373 5465 6106
2374 1871 4800
2375 551  6544
2376 4229 128 
2377 7631 3721
2378 5998 9955
2379 1450 8224
2380 9212 5587
2381 1735 8681
2382 2278 7273
2383 3801 5147
2384 9152 7952
2385 8635 7006
2386 4435 4429
2387 8370 9973
2388 4155 9634
2389 3298 9691
2390 752  6956
2391 6149 4830
2392 2201 5311
2393 3780 5711
2394 7238 8970
2395 1315 5845
2396 2144 1680
2397 9767 9238
2398 7386 1529
2399 7224 7400
2400 3139 1078
2401 3587 8673
2402 8550 793 
2403 2843 9739
2404 2346 8311
2405 2695 3997
2406 8073 8857
2407 3420 9599
2408 753  7657
2409 7085 5702
2410 9545 971 
2411 407  2234
2412 4394 1178
2413 1432 6807
2414 9793 2837
2415 2371 9068
2416 6361 9817
2417 484  5550
2418 9937 7074
2419 5767 6590
2420 7345 7715
2421 699  4017
2422 6533 8535
2423 2648 3838
2424 666  7008
2425 5221 754 
2426 9844 3134
2427 2817 559 
2428 9354 5304
2429 2149 5172
2430 2766 7930
2431 7599 5192
2432 6660 4649
2433 8816 6953
2434 519  365 
2435 9701 8621
2436 4513 1729
2437 6049 5313
2438 9335 2099
2439 8425 2144
2440 9992 4888
2441 9018 1763
2442 8128 593 
2443 4400 3745
2444 6989 8764
2445 758  9138
2446 3154 4125
2447 8035 7078
2448 2151 1393
2449 8387 8231
2450 5567 414 
2451 2548 8268
2452 6300 4350
2453 2410 6833
2454 3632 3843
2455 5067 9289
2456 7943 4984
2457 6305 1285
2458 2260 1958
2459 3368 357 
2460 983  420 
2461 92   9188
2462 453  901 
2463 1403 9138
2464 999  1490
2465 430  1167
2466 2049 7004
2467 6409 7000
2468 2899 9387
2469 8935 9161
2470 9479 4783
2471 1017 3903
2472 170  431 
2473 7234 9046
2474 8471 8821
2475 9361 8473
2476 4604 6171
2477 3401 5330
2478 1949 2362
2479 5697 8665
2480 4946 2402
2481 6094 6387
2482 1023 6227
2483 1635 9386
2484 4259 3188
2485 5874 262 
2486 6248 5373
2487 2478 7989
2488 5238 9980
2489 2587 7328
2490 1754 3736
2491 1215 2726
2492 5993 7104
2493 7026 2947
2494 9777 5899
2495 9172 1556
2496 2962 8871
2497 6641 3427
2498 2145 1628
2499 3350 9591
2500 7350 8141
2501 7222 6956
2502 1607 2182
2503 939  1161
2504 9845 4264
2505 3746 6178
2506 6248 209 
2507 8983 786 
2508 7193 951 
2509 2847 8198
2510 1109 6767
2511 6758 1159
2512 7765 2472
2513 3961 7015
2514 2693 1555
2515 9059 233 
2516 63   759 
2517 7118 1827
2518 4537 360 
2519 776  5872
2520 855  1863
2521 6841 5191
2522 5475 5695
2523 246  4274
2524 8453 7927
2525 2335 8543
2526 5430 4628
2527 5764 5916
2528 3412 9241
2529 5060 2662
2530 9054 8437
2531 9806 7717
2532 5756 8591
2533 5051 561 
2534 8793 3616
2535 9965 4008
2536 3868 8173
2537 8576 9155
2538 8624 5543
2539 4390 360 
2540 2746 9472
2541 3733 7529
2542 1246 4095
2543 640  2335
2544 8364 4092
2545 6935 5380
2546 9379 7663
2547 441  8165
2548 9767 3853
2549 5002 8207
2550 1443 7977
2551 49   9901
2552 1884 8889
2553 1163 5319
2554 7174 3049
2555 8086 311 
2556 9712 6826
2557 7967 7923
2558 1016 8869
2559 4083 1860
2560 700  6484
2561 8765 975 
2562 3170 5563
2563 7021 4993
2564 9725 49  
2565 1831 6625
2566 5314 7007
2567 708  4207
2568 6077 6901
2569 2538 6937
2570 4956 9071
2571 8599 2016
2572 5037 6301
2573 5546 2170
2574 213  6636
2575 5813 7948
2576 7721 8088
2577 657  7556
2578 3930 3343
2579 5321 3258
2580 3722 9958
2581 4931 927 
2582 7753 7563
2583 5903 3815
2584 4029 2926
2585 6783 6869
2586 2721 6091
2587 4942 7633
2588 8644 5737
2589 1962 3344
2590 3444 2593
2591 7629 7258
2592 7553 5009
2593 4195 1077
2594 8576 9797
2595 863  9368
2596 3914 509 
2597 782  5698
2598 9596 9049
2599 3241 3949
2600 8624 8907
2601 5368 2760
2602 9710 5810
2603 6476 485 
2604 7121 2188
2605 5546 3649
2606 190  6264
2607 3312 6194
2608 1921 6370
2609 3444 3162
2610 3277 8898
2611 65   3738
2612 9826 1301
2613 192  7440
2614 2193 2070
2615 2424 6924
2616 3853 6889
2617 2965 9841
2618 867  5946
2619 4537 7837
2620 4679 8878
2621 454  3719
2622 7358 7875
2623 3391 8492
2624 2124 6161
2625 1082 2246
2626 6271 7392
2627 5308 9337
2628 8336 1575
2629 8756 3504
2630 9702 833 
2631 2584 3866
2632 4825 4397
2633 6483 108 
2634 6628 7235
2635 5290 5050
2636 5691 1566
2637 1743 6372
2638 935  2775
2639 1250 5510
2640 1564 8829
2641 4760 6884
2642 7742 2987
2643 3103 4215
2644 2163 545 
2645 2026 3574
2646 2647 1203
2647 7784 8119
2648 2818 8776
2649 8442 9667
2650 1834 8972
2651 4512 3239
2652 4141 8976
2653 8410 8521
2654 3688 6313
2655 1591 4994
2656 5290 7067
2657 422  7290
2658 8548 3742
2659 2226 2068
2660 7580 2712
2661 5270 6200
2662 2844 752 
2663 3642 7004
2664 4263 1715
2665 9074 233 
2666 3112 5596
2667 7267 3133
2668 8654 6030
2669 3043 8893
2670 5033 2209
2671 4159 7559
2672 8533 7516
2673 5269 1282
2674 7696 9851
2675 1712 7129
2676 9472 2025
2677 1130 2582
2678 1486 2684
2679 7367 3584
2680 300  1435
2681 1997 9539
2682 6785 7674
2683 6786 9462
2684 3144 9693
2685 2795 8571
2686 601  9236
2687 8636 9248
2688 8801 3014
2689 1226 8477
2690 3260 524 
2691 992  950 
2692 679  878 
2693 7536 3359
2694 3318 4246
2695 9732 3812
2696 50   8475
2697 5222 7223
2698 5330 7977
2699 6423 4865
2700 7537 5488
2701 4303 8301
2702 1850 6836
2703 726  5078
2704 9007 7456
2705 8470 9007
2706 7548 7072
2707 167  7726
2708 4335 8621
2709 7176 7544
2710 4166 4806
2711 8921 6213
2712 746  7314
2713 2006 841 
2714 959  3198
2715 7132 2361
2716 6764 3905
2717 4825 6596
2718 2201 6969
2719 1000 5620
2720 345  6925
2721 7432 1608
2722 8794 4395
2723 1953 1609
2724 6897 9452
2725 6067 4301
2726 5576 2556
2727 4348 7898
2728 9880 3541
2729 1284 5633
2730 6616 9608
2731 3293 5682
2732 6650 9684
2733 506  5792
2734 6190 2733
2735 5929 5034
2736 1668 8890
2737 1440 4703
2738 817  6092
2739 1106 9151
2740 9286 2098
2741 9074 9999
2742 130  9727
2743 6001 8427
2744 4493 2223
2745 3503 245 
2746 29   354 
2747 9651 4244
2748 8676 19  
2749 9628 4035
2750 5874 1916
2751 5888 5214
2752 2310 4783
2753 7749 113 
2754 3862 2501
2755 5623 9027
2756 4808 2803
2757 6111 5019
2758 2282 7514
2759 6088 4432
2760 3148 1160
2761 4173 1079
2762 5062 2763
2763 2125 2553
2764 1604 3695
2765 1280 5778
2766 4503 5187
2767 4125 6861
2768 5284 1944
2769 2579 6080
2770 4482 4859
2771 612  8363
2772 3081 8322
2773 8072 2475
2774 4132 4719
2775 8757 4899
2776 8065 4677
2777 9401 5467
2778 5653 6919
2779 1778 6388
2780 8586 6857
2781 3842 3185
2782 9665 7280
2783 5082 4233
2784 9496 8143
2785 6933 1125
2786 162  5273
2787 5530 5482
2788 1111 8012
2789 5806 9833
2790 9860 2975
2791 1550 7528
2792 6341 1546
2793 7326 4864
2794 6584 1297
2795 5054 5251
2796 9869 1391
2797 7446 4196
2798 9081 5346
2799 8290 9669
2800 9700 1441
2801 7598 1611
2802 7414 4059
2803 1197 1870
2804 9728 7974
2805 3368 8349
2806 326  5656
2807 1762 9369
2808 1893 1922
2809 483  5614
2810 2043 1089
2811 8028 3614
2812 865  6971
2813 5435 5735
2814 878  9578
2815 7245 3277
2816 2040 2300
2817 392  7649
2818 9591 9873
2819 2280 7723
2820 5456 40  
2821 5368 1232
2822 4744 8895
2823 1425 5462
2824 647  2929
2825 971  2648
2826 9927 1227
2827 2500 8117
2828 7593 7834
2829 7347 9875
2830 5370 7521
2831 2878 1077
2832 2423 2620
2833 8518 2719
2834 2055 1586
2835 1316 3319
2836 3238 2221
2837 2467 8154
2838 8462 6818
2839 3840 8898
2840 2308 2570
2841 5127 9071
2842 1094 3868
2843 3817 7177
2844 2586 9922
2845 1587 1945
2846 3700 646 
2847 8744 5681
2848 6894 7988
2849 2970 7181
2850 129  7883
2851 5179 4124
2852 1622 2293
2853 5587 7186
2854 6336 4373
2855 4699 6383
2856 8065 2331
2857 5534 7990
2858 9750 6564
2859 6455 8038
2860 6827 498 
2861 8564 1041
2862 6384 7507
2863 3957 6223
2864 1735 9627
2865 6405 7084
2866 3513 6662
2867 2370 9354
2868 2003 6380
2869 7889 6361
2870 2743 9935
2871 4159 1534
2872 7415 9342
2873 1269 4655
2874 5189 1930
2875 6267 6907
2876 2564 8997
2877 5169 442 
2878 2564 1749
2879 5057 8032
2880 5958 250 
2881 1433 316 
2882 839  7145
2883 6420 6413
2884 8622 5226
2885 3698 1014
2886 4699 7896
2887 1188 8805
2888 1310 5865
2889 1994 103 
2890 4661 671 
2891 3108 8758
2892 4326 5105
2893 6177 1782
2894 4197 2379
2895 929  5466
2896 5754 585 
2897 388  5744
2898 2244 1531
2899 6938 3743
2900 5155 7794
2901 1074 3155
2902 9716 9096
2903 9748 9819
2904 3579 5396
2905 4049 4459
2906 2623 2554
2907 7420 6056
2908 7009 175 
2909 3263 5206
2910 3294 305 
2911 8278 1163
2912 1818 333 
2913 5904 6450
2914 7937 7073
2915 5801 6651
2916 8485 9485
2917 5094 803 
2918 3125 2910
2919 1693 5613
2920 966  1786
2921 5278 9330
2922 185  8368
2923 3129 8997
2924 1374 8427
2925 5849 9197
2926 7112 6921
2927 4344 9506
2928 3639 762 
2929 2676 5349
2930 6072 3713
2931 5008 7751
2932 1873 1746
2933 5371 8858
2934 4535 7281
2935 4583 173 
2936 4917 6558
2937 3954 5119
2938 1376 7465
2939 5467 9398
2940 788  4858
2941 1341 5074
2942 9789 1181
2943 1210 6908
2944 2563 5013
2945 7981 102 
2946 5642 564 
2947 5591 5935
2948 4690 1023
2949 2219 6380
2950 2052 3849
2951 3852 3694
2952 3790 7903
2953 200  6059
2954 8748 7751
2955 3462 2241
2956 5038 8152
2957 7446 5957
2958 5244 9174
2959 5100 3141
2960 4473 9453
2961 3642 2085
2962 5084 5263
2963 2882 739 
2964 76   6869
2965 9369 7197
2966 3976 1177
2967 1197 6465
2968 229  4752
2969 622  6725
2970 3397 1617
2971 1618 3025
2972 8848 7220
2973 2182 8986
2974 8539 2787
2975 3386 1593
2976 6913 5772
2977 5072 1316
2978 2164 1205
2979 4338 7342
2980 4387 6836
2981 340  4321
2982 2491 3091
2983 9377 7503
2984 5163 8535
2985 2867 3136
2986 7300 1983
2987 370  2091
2988 6962 5335
2989 4353 6805
2990 3941 2795
2991 4045 4036
2992 4870 97  
2993 7475 7471
2994 5292 7231
2995 7061 9727
2996 2127 5746
2997 4312 2366
2998 5397 3417
2999 8391 1390
3000 9923 1468
3001 4830 5744
3002 709  4544
3003 9504 8445
3004 5517 6753
3005 4706 5321
3006 2229 6683
3007 9687 9641
3008 4193 8043
3009 970  9731
3010 2514 7341
3011 8510 3061
3012 7588 7813
3013 6715 3859
3014 8850 5434
3015 8058 1599
3016 4119 397 
3017 7441 6341
3018 6982 2279
3019 4981 4896
3020 7802 5379
3021 6381 2289
3022 7561 4560
3023 4544 80  
3024 1300 4360
3025 5514 8456
3026 166  2663
3027 316  188 
3028 2070 4847
3029 4445 2421
3030 163  7891
3031 905  5701
3032 4475 962 
3033 2492 825 
3034 206  6858
3035 4949 514 
3036 4153 6298
3037 279  8885
3038 3184 672 
3039 6026 8577
3040 5681 3223
3041 379  6042
3042 1741 5858
3043 1420 1613
3044 6838 1317
3045 6437 2292
3046 5590 3656
3047 9939 1180
3048 2723 6806
3049 3303 2939
3050 9011 2801
3051 9468 5696
3052 103  5565
3053 130  7206
3054 8306 3352
3055 5209 9509
3056 1652 7199
3057 2733 2683
3058 3514 5904
3059 9199 1550
3060 9222 1807
3061 3456 5698
3062 2906 6841
3063 207  9004
3064 4405 7513
3065 956  7076
3066 3099 2235
3067 5176 4551
3068 294  5099
3069 4525 6809
3070 4215 2595
3071 1828 7673
3072 9919 1803
3073 1633 7768
3074 7092 2499
3075 6170 67  
3076 2031 5348
3077 8808 8187
3078 2295 9846
3079 2602 3225
3080 5443 3998
3081 8178 7305
3082 7297 8295
3083 3175 3528
3084 3805 9466
3085 4059 1373
3086 7416 372 
3087 1900 8802
3088 2510 7345
3089 7289 234 
3090 3524 4307
3091 4235 9449
3092 9918 5526
3093 9543 6174
3094 8754 8774
3095 5148 2356
3096 423  574 
3097 4921 4137
3098 8970 5442
3099 17   3836
3100 5919 2674
3101 4143 7381
3102 609  9327
3103 3197 3831
3104 9641 3428
3105 8613 7036
3106 4342 5183
3107 6786 7803
3108 9064 4707
3109 803  4650
3110 5574 5343
3111 9070 6700
3112 6876 7170
3113 4521 9195
3114 6398 3134
3115 7097 1923
3116 7066 1266
3117 1400 7124
3118 4259 9093
3119 4403 3399
3120 6743 1583
3121 2112 4298
3122 1525 1804
3123 2599 6710
3124 2538 9931
3125 5101 7682
3126 3918 69  
3127 1710 6201
3128 4489 9500
3129 2606 1421
3130 127  2102
3131 6517 5930
3132 7222 4903
3133 3937 9020
3134 8930 7279
3135 658  1150
3136 2903 4441
3137 3328 5467
3138 3968 6862
3139 582  405 
3140 4983 3227
3141 364  6741
3142 1301 2030
3143 127  7261
3144 1037 2020
3145 3544 9338
3146 9940 5562
3147 8395 4868
3148 6452 8054
3149 3792 2308
3150 2983 1441
3151 3238 3814
3152 6547 4433
3153 3835 9587
3154 9882 6684
3155 813  1382
3156 736  4837
3157 5458 6004
3158 9090 455 
3159 220  946 
3160 281  8703
3161 5896 1366
3162 1234 7259
3163 1470 1651
3164 3003 8122
3165 2316 7008
3166 1071 1493
3167 787  214 
3168 2643 9933
3169 5928 9340
3170 5969 9134
3171 4666 9135
3172 6030 1898
3173 8222 271 
3174 4172 5901
3175 5735 4472
3176 9320 9225
3177 7709 8790
3178 2250 3381
3179 7117 3529
3180 9291 9746
3181 9862 8497
3182 1766 3058
3183 8559 6488
3184 6369 4306
3185 7291 3484
3186 457  27  
3187 9040 9982
3188 7459 3105
3189 223  6469
3190 7865 2042
3191 6226 9680
3192 3422 5738
3193 9616 7160
3194 4173 9196
3195 8761 7684
3196 3342 626 
3197 8194 3755
3198 6627 1990
3199 5237 4625
3200 2182 2897
3201 3937 6772
3202 2992 1585
3203 7710 5539
3204 1842 2500
3205 9387 1654
3206 2593 2639
3207 4255 2929
3208 7773 2797
3209 1595 9931
3210 1850 8272
3211 8778 9472
3212 9693 794 
3213 7575 4967
3214 158  6829
3215 5320 6437
3216 9771 4452
3217 5617 585 
3218 4184 6581
3219 3928 4277
3220 1519 2490
3221 2472 5882
3222 1269 6959
3223 7940 8713
3224 4896 751 
3225 3061 256 
3226 4522 4742
3227 4338 3674
3228 1324 8095
3229 266  2132
3230 7746 3704
3231 6758 7599
3232 1879 359 
3233 6214 5316
3234 7134 5621
3235 3117 8963
3236 9406 8642
3237 6079 9494
3238 8990 144 
3239 8008 690 
3240 4214 7147
3241 2665 4146
3242 587  754 
3243 6779 1890
3244 9438 6982
3245 2904 1790
3246 9016 5267
3247 4603 1012
3248 3711 7982
3249 6304 7495
3250 5318 574 
3251 3818 9138
3252 9686 5732
3253 2450 5734
3254 6154 5006
3255 200  2589
3256 6846 819 
3257 6436 6495
3258 5849 2152
3259 8581 1666
3260 4192 1180
3261 7950 2923
3262 4739 5007
3263 285  6300
3264 2026 1521
3265 7396 741 
3266 7929 2034
3267 5823 8179
3268 1843 8336
3269 232  1205
3270 7687 2828
3271 7440 8896
3272 6057 7533
3273 1935 2358
3274 7606 6423
3275 1034 9930
3276 7231 922 
3277 3681 8869
3278 9446 6516
3279 4035 5087
3280 172  8863
3281 216  6304
3282 6519 3589
3283 7236 2415
3284 3393 1167
3285 8925 6404
3286 9855 6142
3287 680  25  
3288 9074 8269
3289 7327 8189
3290 895  6918
3291 9191 9868
3292 9139 2394
3293 5663 3600
3294 7934 2172
3295 7381 5220
3296 6091 3701
3297 7769 547 
3298 9885 6106
3299 404  8027
3300 2516 1360
3301 7388 7327
3302 5742 8170
3303 2134 5307
3304 5222 5215
3305 7933 9248
3306 8919 3296
3307 5109 7595
3308 7960 331 
3309 2159 3350
3310 5812 3703
3311 498  5420
3312 3728 9928
3313 6105 7507
3314 574  3549
3315 6228 6013
3316 4046 6668
3317 2794 8856
3318 7064 1175
3319 9089 8436
3320 3672 1268
3321 6934 2100
3322 4511 8178
3323 9608 4726
3324 5169 8670
3325 3272 1149
3326 2655 5655
3327 7046 9612
3328 5341 4688
3329 8302 6390
3330 7388 4489
3331 496  4470
3332 1244 258 
3333 1064 1960
3334 3802 1700
3335 6071 1370
3336 9197 7123
3337 9446 8721
3338 341  5293
3339 377  637 
3340 4479 3720
3341 7039 2020
3342 2184 3147
3343 943  7488
3344 1142 3088
3345 1035 9123
3346 5544 7475
3347 4205 7404
3348 293  5605
3349 5862 9030
3350 731  2936
3351 9894 3996
3352 1129 5621
3353 4599 5277
3354 8924 9687
3355 6460 5782
3356 3292 1776
3357 6213 1678
3358 6520 6265
3359 4255 1773
3360 3352 2892
3361 9435 34  
3362 3115 3890
3363 650  2917
3364 3961 6512
3365 6877 3356
3366 2567 2671
3367 1136 4895
3368 9932 2821
3369 7215 3804
3370 927  9974
3371 8605 6146
3372 5136 3091
3373 4634 5261
3374 1725 2107
3375 9370 9850
3376 2606 9694
3377 4807 8216
3378 254  3208
3379 8717 9627
3380 88   290 
3381 655  1618
3382 1907 1357
3383 1344 1993
3384 6739 3053
3385 2252 381 
3386 8466 2282
3387 4330 8767
3388 6719 6955
3389 1645 7074
3390 6728 5197
3391 8476 2103
3392 3481 4384
3393 4394 2874
3394 124  1158
3395 8946 576 
3396 2423 10  
3397 5415 8506
3398 4142 5843
3399 2930 2798
3400 7753 4086
3401 8338 7546
3402 986  7368
3403 6144 3184
3404 9203 4012
3405 8787 1709
3406 354  4477
3407 973  8366
3408 5988 6386
3409 107  4258
3410 5374 2377
3411 8251 1612
3412 9998 1010
3413 9974 3898
3414 3830 5004
3415 5437 6484
3416 1604 8186
3417 8234 4469
3418 2717 5250
3419 9878 1384
3420 6757 2741
3421 7599 7248
3422 185  2633
3423 9086 2497
3424 2832 4068
3425 2438 864 
3426 1028 5742
3427 5391 3489
3428 2724 409 
3429 8729 8828
3430 1339 2048
3431 9963 1930
3432 9851 2452
3433 346  3771
3434 1135 2242
3435 1423 404 
3436 7624 2337
3437 2383 4661
3438 2527 7653
3439 9488 5660
3440 2626 7313
3441 35   1134
3442 6818 7719
3443 9019 315 
3444 1964 2843
3445 2206 521 
3446 6332 1399
3447 9824 8519
3448 287  1932
3449 1139 9368
3450 4719 3997
3451 9483 89  
3452 7466 9347
3453 1294 2769
3454 2269 1564
3455 9421 9154
3456 8015 9945
3457 6136 4518
3458 1138 5851
3459 8846 4647
3460 2623 3057
3461 6739 889 
3462 4462 5812
3463 5048 8030
3464 474  4846
3465 1284 4681
3466 1386 1348
3467 3263 5810
3468 2371 2605
3469 7111 690 
3470 3140 9136
3471 2565 6105
3472 6371 1403
3473 8765 6032
3474 3074 6045
3475 3788 6297
3476 8740 1326
3477 5552 8700
3478 3251 6008
3479 4394 8117
3480 5944 9506
3481 844  638 
3482 9917 4836
3483 4629 935 
3484 6348 9161
3485 8097 321 
3486 6987 7891
3487 2079 4295
3488 9175 6442
3489 8559 6282
3490 3812 1366
3491 7533 8008
3492 923  5730
3493 2734 8567
3494 6804 750 
3495 9172 6800
3496 9570 5798
3497 4480 8949
3498 3703 3824
3499 4265 9871
3500 7312 1865
3501 9225 9416
3502 6939 5625
3503 7560 3723
3504 6310 7043
3505 4009 6186
3506 963  6898
3507 8007 4836
3508 3281 8795
3509 568  6697
3510 5533 5308
3511 6770 7525
3512 4332 4741
3513 6102 7122
3514 8977 5817
3515 316  8891
3516 5323 9528
3517 6166 8858
3518 5395 5954
3519 5622 2002
3520 9025 2855
3521 46   7970
3522 6887 5271
3523 9796 5899
3524 1542 1543
3525 7565 5050
3526 2365 8618
3527 9742 1773
3528 720  7759
3529 9280 6782
3530 8426 5887
3531 6436 7750
3532 4425 8321
3533 2664 7820
3534 8968 6487
3535 4033 251 
3536 4622 6567
3537 8988 8571
3538 9596 4083
3539 7670 4931
3540 5007 692 
3541 4444 9239
3542 3723 9430
3543 4505 448 
3544 8140 1886
3545 5412 8632
3546 7656 559 
3547 2706 9066
3548 6784 1812
3549 9064 105 
3550 8399 9434
3551 7790 8485
3552 9417 3764
3553 4637 7230
3554 5636 2308
3555 2234 438 
3556 8338 8782
3557 6707 4793
3558 9055 5559
3559 8441 3784
3560 7690 4829
3561 3773 3066
3562 5151 7521
3563 7563 6788
3564 7484 9792
3565 2037 4006
3566 5073 2094
3567 1792 9378
3568 9027 699 
3569 8454 1263
3570 2173 901 
3571 327  7214
3572 3043 3799
3573 3122 8189
3574 8482 7811
3575 5659 9308
3576 91   3139
3577 6771 1022
3578 8064 3611
3579 6902 3640
3580 3091 3270
3581 8809 4584
3582 5904 3963
3583 3301 6806
3584 6421 3436
3585 7117 4351
3586 7712 4008
3587 4036 8254
3588 6611 4946
3589 8978 4342
3590 7599 404 
3591 166  4252
3592 942  2290
3593 2875 1401
3594 4090 7772
3595 7719 391 
3596 1108 713 
3597 9395 7203
3598 2959 1481
3599 2371 2042
3600 5110 5994
3601 4786 7796
3602 6388 5527
3603 8813 8731
3604 4911 6364
3605 7273 2800
3606 3365 4975
3607 5167 8082
3608 5027 1063
3609 5314 2129
3610 257  4639
3611 6165 1774
3612 3756 3759
3613 4910 9977
3614 4286 2274
3615 884  3089
3616 6728 1701
3617 1714 8513
3618 1147 9558
3619 1570 8721
3620 974  4702
3621 6779 9903
3622 4630 6578
3623 6787 6438
3624 9709 9514
3625 471  868 
3626 7797 57  
3627 9599 4125
3628 5839 1944
3629 4321 5315
3630 5110 3533
3631 7630 7667
3632 8639 1604
3633 3725 5796
3634 9287 8717
3635 1366 91  
3636 1693 8695
3637 756  3433
3638 703  8259
3639 6305 4628
3640 6996 8720
3641 8447 6428
3642 1075 5608
3643 8338 2712
3644 4226 7221
3645 5913 7705
3646 6231 4867
3647 9448 5522
3648 9478 6701
3649 3732 5094
3650 6991 4132
3651 1538 5912
3652 6460 5952
3653 717  3391
3654 127  89  
3655 1554 7149
3656 2462 826 
3657 5110 5241
3658 9162 6372
3659 6159 7767
3660 8210 69  
3661 647  3853
3662 9297 267 
3663 545  6514
3664 4444 27  
3665 8547 3056
3666 1236 5711
3667 8467 1387
3668 9229 2891
3669 5860 5981
3670 973  1271
3671 6696 9901
3672 6902 9453
3673 5282 4210
3674 1316 399 
3675 9843 689 
3676 4950 9683
3677 4508 1467
3678 3841 7837
3679 4500 2351
3680 8478 2436
3681 8386 4004
3682 7922 6420
3683 268  9589
3684 4936 5561
3685 7433 3770
3686 675  4918
3687 817  9918
3688 1443 1737
3689 987  305 
3690 664  9495
3691 6538 9530
3692 1529 9237
3693 9695 2110
3694 5514 5248
3695 3738 6867
3696 2142 5042
3697 4398 6864
3698 1433 6884
3699 6374 3907
3700 1274 8069
3701 6084 56  
3702 7686 688 
3703 2587 9238
3704 1461 2095
3705 9535 4228
3706 425  4995
3707 6706 3903
3708 608  5214
3709 8406 7134
3710 558  3388
3711 8501 8345
3712 5606 6514
3713 1800 5845
3714 5021 7381
3715 6848 5712
3716 7473 5219
3717 2323 5709
3718 2818 5253
3719 3154 3956
3720 8848 2866
3721 2452 6298
3722 6810 6944
3723 8709 3527
3724 6795 5308
3725 9945 761 
3726 9355 6934
3727 9049 3776
3728 5133 8360
3729 8700 96  
3730 6017 1930
3731 7094 159 
3732 9873 1233
3733 4098 390 
3734 3651 6750
3735 9111 873 
3736 2300 5027
3737 6528 2759
3738 5863 842 
3739 7013 9719
3740 2528 289 
3741 7727 2907
3742 645  356 
3743 9411 7469
3744 2303 1690
3745 1563 8301
3746 59   2224
3747 2127 9355
3748 8980 2099
3749 2707 564 
3750 5294 9276
3751 7735 6917
3752 7552 64  
3753 8488 9153
3754 9166 8516
3755 3971 2546
3756 6141 823 
3757 6520 9133
3758 7827 7139
3759 4314 4721
3760 7700 8380
3761 4556 7294
3762 8449 3083
3763 3838 5179
3764 8550 9064
3765 4278 5199
3766 4509 8672
3767 4594 2131
3768 3343 5778
3769 3843 2909
3770 2381 7272
3771 400  9490
3772 5049 5596
3773 9206 5248
3774 2451 3689
3775 8017 5052
3776 6741 8988
3777 5964 5849
3778 7499 8512
3779 3348 8060
3780 7578 8049
3781 6530 866 
3782 9939 4096
3783 632  7436
3784 1731 4314
3785 3625 6355
3786 4368 2477
3787 6399 2182
3788 827  436 
3789 6049 5433
3790 479  9234
3791 4357 2040
3792 3350 1188
3793 7108 9667
3794 8826 5489
3795 3433 4647
3796 3120 2312
3797 6267 2329
3798 8145 9217
3799 4623 1994
3800 1913 5914
3801 2704 9398
3802 772  4108
3803 6345 108 
3804 4605 6454
3805 8001 9715
3806 7549 1604
3807 9906 4894
3808 5749 1039
3809 2727 964 
3810 9681 342 
3811 888  8107
3812 6820 6132
3813 9976 7017
3814 9984 3131
3815 4102 8007
3816 8072 3319
3817 3053 8046
3818 7526 94  
3819 5552 9728
3820 4966 4580
3821 2527 4125
3822 4192 3808
3823 6785 7481
3824 7659 3201
3825 1482 2107
3826 3711 5240
3827 799  663 
3828 7653 3734
3829 3312 4301
3830 946  1900
3831 1182 7139
3832 340  447 
3833 4974 2610
3834 435  485 
3835 1859 572 
3836 1932 8337
3837 6315 204 
3838 5624 810 
3839 6406 677 
3840 880  6727
3841 5366 2531
3842 9655 7507
3843 393  6197
3844 7746 1269
3845 1817 9184
3846 8633 5819
3847 4460 4254
3848 7850 3171
3849 6496 9761
3850 8903 9743
3851 401  1408
3852 6721 7387
3853 6921 2290
3854 8737 2858
3855 8046 2693
3856 6822 7261
3857 3957 6749
3858 6737 6114
3859 9397 6623
3860 8968 637 
3861 9988 5270
3862 541  8995
3863 6543 6377
3864 4865 9757
3865 6692 3433
3866 6323 2502
3867 3574 4497
3868 5721 8825
3869 5973 1155
3870 5427 1059
3871 7391 7499
3872 1850 1582
3873 7510 6360
3874 778  5610
3875 1512 8864
3876 807  5362
3877 5392 5852
3878 6114 7777
3879 1463 1326
3880 1280 1727
3881 8051 877 
3882 5391 9897
3883 6544 2638
3884 7823 4878
3885 5356 3497
3886 624  4593
3887 4056 6513
3888 6929 9344
3889 9928 2058
3890 4308 8395
3891 5409 5948
3892 2645 7915
3893 7089 8656
3894 1821 6362
3895 827  3962
3896 2465 9996
3897 210  1944
3898 2674 3333
3899 7639 5216
3900 2373 8354
3901 1720 9237
3902 7811 1550
3903 5177 5162
3904 4039 4740
3905 8068 7898
3906 7844 6294
3907 3601 8471
3908 7101 1691
3909 5256 2178
3910 9845 9056
3911 8106 6564
3912 7970 2780
3913 4716 9765
3914 8184 7683
3915 1978 8906
3916 9882 9191
3917 2920 6129
3918 4900 3828
3919 4201 9325
3920 7502 9969
3921 8003 9430
3922 9073 7787
3923 72   2139
3924 7514 121 
3925 1322 8392
3926 7275 6727
3927 4832 5141
3928 3341 1379
3929 1601 3674
3930 5057 4365
3931 4424 907 
3932 9684 7199
3933 5092 4018
3934 4814 152 
3935 7366 8478
3936 9984 4880
3937 3430 9634
3938 5603 9499
3939 1409 9589
3940 2286 8586
3941 5811 4433
3942 9112 1146
3943 265  3422
3944 2774 3371
3945 3918 4393
3946 8773 7389
3947 9259 5995
3948 3976 343 
3949 4161 6359
3950 2746 8769
3951 3841 531 
3952 1211 195 
3953 7498 873 
3954 7525 4515
3955 3379 169 
3956 2697 2145
3957 4774 8331
3958 9013 2401
3959 8722 7910
3960 2953 8401
3961 7857 9082
3962 6092 1418
3963 3107 1095
3964 1404 839 
3965 587  2355
3966 5607 5879
3967 4499 8350
3968 2641 8934
3969 6802 578 
3970 8492 7340
3971 4499 5841
3972 4547 6302
3973 9263 4683
3974 215  1347
3975 2056 7336
3976 6560 7792
3977 2133 1170
3978 5562 8114
3979 9416 9785
3980 5015 2131
3981 2230 344 
3982 5149 221 
3983 9692 9712
3984 2746 1303
3985 9984 6572
3986 6157 7188
3987 5560 3615
3988 9279 2726
3989 1566 2906
3990 9716 2124
3991 153  4121
3992 605  7094
3993 8309 2729
3994 9880 7459
3995 6865 1018
3996 5024 3631
3997 2192 7081
3998 1312 115 
3999 2729 3715
4000 503  2952
4001 934  6850
4002 3622 3351
4003 8182 3495
4004 3089 3543
4005 1473 160 
4006 6880 1608
4007 1332 5973
4008 9148 8393
4009 3504 2402
4010 3470 2023
4011 2446 2107
4012 4019 4834
4013 9746 8983
4014 9681 6973
4015 6694 1623
4016 6475 219 
4017 5821 7779
4018 7168 2622
4019 2050 9445
4020 2885 2615
4021 5460 8433
4022 9299 6507
4023 162  292 
4024 7817 2183
4025 4185 1726
4026 7323 7631
4027 1576 171 
4028 8902 8853
4029 723  5614
4030 6911 6577
4031 5693 3137
4032 2112 2278
4033 9073 1590
4034 1178 2407
4035 9138 7071
4036 1490 1749
4037 3822 7485
4038 4290 7834
4039 6365 5830
4040 6816 9088
4041 8096 5145
4042 8293 600 
4043 6271 7404
4044 4748 7039
4045 224  5130
4046 5373 9187
4047 9127 971 
4048 3715 2554
4049 2213 9413
4050 2632 2647
4051 8457 4649
4052 7422 5501
4053 2532 2032
4054 8310 7913
4055 1218 1517
4056 5313 3708
4057 193  9127
4058 7517 3644
4059 974  7109
4060 209  8999
4061 1802 4688
4062 8495 4807
4063 3132 7374
4064 7286 7713
4065 367  8176
4066 324  9963
4067 1853 8902
4068 4694 4974
4069 6521 7905
4070 270  6435
4071 7316 2994
4072 6829 9536
4073 6724 8764
4074 2835 1523
4075 1283 8598
4076 4187 4920
4077 6322 8472
4078 5576 3466
4079 5624 5839
4080 7131 2477
4081 7918 5901
4082 9121 2792
4083 6355 1155
4084 4207 4082
4085 6175 8084
4086 370  8906
4087 7185 4210
4088 1013 9966
4089 4571 7130
4090 6786 615 
4091 8376 5224
4092 1851 3189
4093 8697 3647
4094 8296 3040
4095 3311 3072
4096 5776 7554
4097 7558 9913
4098 2490 2238
4099 1800 6512
4100 9546 9698
4101 5800 4522
4102 6168 4408
4103 653  5586
4104 4267 5528
4105 5305 1160
4106 6811 9244
4107 6595 7404
4108 7125 6779
4109 6865 5533
4110 3194 4962
4111 2207 886 
4112 7655 9546
4113 3655 8918
4114 9582 4872
4115 5527 1299
4116 6844 7455
4117 974  7967
4118 200  8171
4119 726  2673
4120 1576 7284
4121 5896 7667
4122 3893 7504
4123 7823 8516
4124 6587 3394
4125 6982 9040
4126 158  6744
4127 5130 5122
4128 222  3323
4129 7399 4771
4130 2304 4149
4131 3781 3882
4132 6869 5248
4133 8793 8248
4134 1245 6561
4135 3321 9600
4136 367  2955
4137 6542 9646
4138 2796 9654
4139 2131 2492
4140 7832 9415
4141 5994 4711
4142 3305 2819
4143 1535 8374
4144 7120 3680
4145 2678 8733
4146 1686 7165
4147 4309 7481
4148 8029 9725
4149 7685 8112
4150 1998 30  
4151 5397 3164
4152 9656 7888
4153 1144 325 
4154 9554 8814
4155 9979 8371
4156 3598 3372
4157 9137 825 
4158 2307 5523
4159 8515 8742
4160 3958 8957
4161 4051 8020
4162 4581 3165
4163 5033 5113
4164 6129 3951
4165 4493 7352
4166 5344 6292
4167 2656 654 
4168 7886 6617
4169 9202 6276
4170 700  9288
4171 5923 9320
4172 9476 4568
4173 1403 7135
4174 1669 9474
4175 164  6526
4176 7746 3571
4177 586  5508
4178 7335 3098
4179 7306 6929
4180 6615 9596
4181 3153 2976
4182 5924 6832
4183 4509 2711
4184 2950 8429
4185 8229 8987
4186 1695 4066
4187 7680 3232
4188 814  3327
4189 9698 2002
4190 6170 6441
4191 8725 4803
4192 6873 5947
4193 2090 544 
4194 3854 1204
4195 374  7541
4196 302  9706
4197 7798 4728
4198 725  9877
4199 6382 5246
4200 2114 4981
4201 1243 4173
4202 7560 2356
4203 7555 6547
4204 8036 4404
4205 2374 8794
4206 6821 6429
4207 865  2036
4208 8948 9859
4209 5585 960 
4210 1767 6308
4211 4208 4160
4212 3212 9169
4213 4254 8478
4214 7654 9711
4215 8598 7423
4216 5546 1257
4217 1095 279 
4218 8936 2873
4219 8883 5094
4220 9902 3123
4221 5974 4241
4222 9310 5367
4223 609  5169
4224 6797 3014
4225 111  4491
4226 488  1011
4227 2856 7451
4228 6930 85  
4229 7251 6332
4230 2719 4969
4231 8757 6615
4232 137  5814
4233 1858 8564
4234 8193 2724
4235 3118 2630
4236 2782 7208
4237 4185 3923
4238 7371 6107
4239 3040 6070
4240 3036 2494
4241 3093 9856
4242 5932 8955
4243 9734 3837
4244 3737 1201
4245 9036 7692
4246 2931 7416
4247 5559 9408
4248 5433 1953
4249 9823 5474
4250 903  6749
4251 489  2918
4252 1755 1353
4253 8343 8694
4254 824  3824
4255 518  7264
4256 6509 3645
4257 9124 726 
4258 2754 8632
4259 6096 8824
4260 8021 9107
4261 2710 984 
4262 1563 7512
4263 1652 4769
4264 7683 5387
4265 5468 1667
4266 2578 9191
4267 9593 6477
4268 8338 4349
4269 774  6644
4270 4868 89  
4271 860  7200
4272 1484 1686
4273 5427 2718
4274 7893 9454
4275 8431 7299
4276 6794 3053
4277 57   9433
4278 3851 7318
4279 3440 8692
4280 9377 1693
4281 4401 774 
4282 42   8612
4283 4000 4654
4284 2509 7717
4285 7311 1674
4286 2689 2738
4287 413  9633
4288 6929 9923
4289 304  5472
4290 7600 39  
4291 725  2521
4292 6129 5256
4293 9346 9427
4294 9472 2005
4295 5926 9405
4296 9082 5399
4297 220  4354
4298 183  4494
4299 407  2261
4300 9479 5375
4301 3581 8656
4302 1699 846 
4303 1487 6107
4304 9975 6085
4305 6652 4900
4306 2178 7486
4307 933  8327
4308 4908 4868
4309 8896 9168
4310 5277 1210
4311 2803 308 
4312 1195 4036
4313 6774 8315
4314 8933 6188
4315 2656 1554
4316 3341 5723
4317 9583 4201
4318 6504 5317
4319 6792 2959
4320 3087 6124
4321 2287 5945
4322 8781 3588
4323 3805 703 
4324 1255 5203
4325 5915 2410
4326 1553 5301
4327 1711 9234
4328 9885 665 
4329 9721 9763
4330 4107 5488
4331 3868 2098
4332 3943 7354
4333 2989 6115
4334 7451 5266
4335 6737 5982
4336 7925 3496
4337 4223 8717
4338 257  5491
4339 8573 6328
4340 8190 1028
4341 821  7698
4342 5060 573 
4343 5333 4719
4344 9101 3416
4345 4232 6582
4346 2625 6766
4347 5399 4436
4348 8480 6918
4349 5592 4577
4350 743  1526
4351 7857 5819
4352 680  8921
4353 3346 5494
4354 4785 9702
4355 6172 4272
4356 2866 15  
4357 1776 926 
4358 339  1329
4359 8565 9405
4360 2668 2483
4361 4972 4498
4362 6400 2282
4363 8577 9085
4364 7697 239 
4365 2212 3584
4366 6674 6976
4367 719  3907
4368 7467 1705
4369 5750 720 
4370 7861 9534
4371 8164 8090
4372 9657 2944
4373 3960 621 
4374 8204 894 
4375 1211 1067
4376 5065 3858
4377 7874 816 
4378 759  7120
4379 9428 4824
4380 5913 4901
4381 6360 848 
4382 7001 3328
4383 1030 4855
4384 8942 3712
4385 3459 3014
4386 1253 8182
4387 4544 7614
4388 8774 8817
4389 7189 14  
4390 4820 1783
4391 4711 1518
4392 939  766 
4393 7790 2494
4394 2368 6222
4395 7868 7528
4396 3561 2429
4397 4777 6128
4398 3113 4555
4399 2332 2433
4400 4257 1756
4401 1094 8346
4402 8544 7965
4403 7246 4875
4404 4555 1287
4405 4626 3234
4406 612  1700
4407 1395 4283
4408 2208 2726
4409 6123 9882
4410 6002 5788
4411 2392 5591
4412 3668 8101
4413 1092 1857
4414 8392 2789
4415 5895 1237
4416 1148 8079
4417 5331 8704
4418 1765 7415
4419 2726 1530
4420 3465 2682
4421 7821 6145
4422 7445 3481
4423 9096 8280
4424 1006 8262
4425 2241 7434
4426 1260 9693
4427 5097 1613
4428 1999 8854
4429 5547 8062
4430 2310 1355
4431 1226 719 
4432 3994 7857
4433 7792 7252
4434 7083 8018
4435 347  3906
4436 4642 2395
4437 2894 4520
4438 5161 6298
4439 5443 2351
4440 4618 8753
4441 7000 3534
4442 5516 5828
4443 2002 5478
4444 1422 3296
4445 7733 4946
4446 6248 5871
4447 9570 4774
4448 3371 9544
4449 2373 4824
4450 3427 7157
4451 1190 7043
4452 4424 8626
4453 5767 362 
4454 8724 4499
4455 81   4782
4456 6439 3234
4457 3260 2826
4458 78   8153
4459 9002 4460
4460 6687 113 
4461 8368 4949
4462 826  2512
4463 2294 6559
4464 9593 4810
4465 8996 1066
4466 7760 8639
4467 4862 1012
4468 4696 3835
4469 7471 6549
4470 8172 3429
4471 6013 6639
4472 7976 4484
4473 1319 4521
4474 106  2920
4475 6053 7781
4476 1852 8400
4477 4545 9808
4478 6624 4205
4479 5748 8928
4480 9693 8868
4481 5394 8384
4482 1374 5402
4483 177  3904
4484 4687 8693
4485 2702 2855
4486 1273 3034
4487 5764 9781
4488 6217 4249
4489 7545 6014
4490 1305 3391
4491 9267 474 
4492 3242 1326
4493 4433 249 
4494 7108 707 
4495 1466 7018
4496 8315 4319
4497 9609 9176
4498 1898 8246
4499 6322 3124
4500 3112 8815
4501 9571 7993
4502 1851 8276
4503 8687 1500
4504 1055 8620
4505 4721 8856
4506 1321 5195
4507 6741 80  
4508 2464 5725
4509 939  8295
4510 8769 5869
4511 3553 1070
4512 7833 1081
4513 479  4496
4514 6659 9395
4515 2064 1689
4516 8269 6782
4517 8128 5890
4518 292  1117
4519 703  2173
4520 6020 9449
4521 6137 4267
4522 6889 5839
4523 8542 1998
4524 6795 2367
4525 6385 8935
4526 2000 609 
4527 8135 9828
4528 960  4454
4529 3480 7810
4530 851  7658
4531 4475 9826
4532 9844 2542
4533 9735 9326
4534 7877 5862
4535 5511 4422
4536 1700 8208
4537 1929 1669
4538 9221 1276
4539 68   4318
4540 2395 3969
4541 4025 6289
4542 4501 8860
4543 5942 8303
4544 7010 6634
4545 6237 6584
4546 8779 2709
4547 6991 4826
4548 5662 5019
4549 4473 413 
4550 6122 7144
4551 1208 5053
4552 75   3748
4553 283  7054
4554 2730 4497
4555 8924 3133
4556 1406 8724
4557 4278 1050
4558 5157 4594
4559 2453 4855
4560 878  8379
4561 988  3456
4562 3170 5871
4563 2049 5245
4564 1041 752 
4565 2245 7761
4566 2150 7797
4567 5834 8602
4568 5957 5340
4569 5164 1140
4570 2995 4442
4571 4721 4315
4572 6313 5932
4573 4245 7507
4574 7059 63  
4575 942  7466
4576 9445 3406
4577 1601 9957
4578 23   8687
4579 5395 1430
4580 1078 1500
4581 2589 7129
4582 2461 345 
4583 6239 3484
4584 2827 9003
4585 1549 9678
4586 6691 8114
4587 6137 2208
4588 5639 2513
4589 2172 7289
4590 8538 4300
4591 7340 6632
4592 3484 4837
4593 9235 434 
4594 7075 6988
4595 7345 4413
4596 7437 7225
4597 9490 5777
4598 2383 1866
4599 1824 7057
4600 4552 8286
4601 3962 2366
4602 3884 6154
4603 3160 3412
4604 8671 8796
4605 2699 8877
4606 2687 477 
4607 2200 5917
4608 1226 519 
4609 614  1588
4610 8776 4915
4611 7405 5031
4612 8348 6388
4613 9299 5430
4614 5978 396 
4615 9406 1030
4616 8203 5520
4617 9990 7283
4618 5263 3832
4619 2247 5761
4620 2818 2056
4621 8813 890 
4622 205  5510
4623 9744 9427
4624 1116 1740
4625 5315 2638
4626 5415 5123
4627 6593 1205
4628 7667 4287
4629 7097 2353
4630 6165 7100
4631 978  1093
4632 5105 9205
4633 1687 9749
4634 4553 5183
4635 5097 3846
4636 4227 6551
4637 6361 1459
4638 9327 7423
4639 7556 8795
4640 4424 7156
4641 7303 883 
4642 4858 3461
4643 6042 3853
4644 1545 371 
4645 5424 9971
4646 9079 6718
4647 2028 1914
4648 6489 6380
4649 441  5836
4650 5598 19  
4651 5353 3640
4652 8702 6105
4653 5888 7265
4654 4518 8135
4655 8855 3615
4656 7892 9464
4657 5270 3209
4658 1890 7769
4659 113  9676
4660 3124 3813
4661 4887 4795
4662 1503 2270
4663 1112 8768
4664 8135 3010
4665 647  6883
4666 3675 658 
4667 9137 4843
4668 6950 320 
4669 8664 1634
4670 6370 3490
4671 4279 2956
4672 428  5495
4673 6149 5751
4674 1301 4079
4675 6032 9502
4676 468  1631
4677 443  299 
4678 6026 535 
4679 84   559 
4680 3216 5080
4681 7277 437 
4682 5332 9595
4683 8918 3061
4684 7648 3483
4685 3442 1752
4686 126  3433
4687 6221 1391
4688 3851 1750
4689 4507 6992
4690 8464 3699
4691 501  999 
4692 3885 3563
4693 580  4774
4694 5717 2019
4695 1232 5084
4696 4148 2884
4697 1841 78  
4698 9554 2698
4699 6691 3237
4700 378  2392
4701 3674 9193
4702 3986 8669
4703 938  1646
4704 6364 7585
4705 2187 2279
4706 2856 4803
4707 5478 3430
4708 7904 2323
4709 6476 1095
4710 9253 530 
4711 604  520 
4712 1267 376 
4713 4940 5714
4714 1375 7761
4715 3085 5300
4716 379  6388
4717 9324 4097
4718 1950 244 
4719 1141 6665
4720 4488 7517
4721 7788 5776
4722 4157 7022
4723 7717 4764
4724 3187 6526
4725 8261 2723
4726 8425 8238
4727 8338 6316
4728 3839 4807
4729 2109 9918
4730 8304 9385
4731 912  2240
4732 7267 4445
4733 3832 9270
4734 783  9038
4735 6998 5204
4736 2074 7126
4737 4456 3998
4738 2645 7014
4739 443  3648
4740 5780 9847
4741 2687 6482
4742 7630 5446
4743 555  6903
4744 7021 6524
4745 4784 8416
4746 7174 12  
4747 3156 4497
4748 1272 5706
4749 9762 6724
4750 1695 4134
4751 4945 7232
4752 5197 1722
4753 9300 1867
4754 9139 9004
4755 1972 2409
4756 8066 2673
4757 1661 7954
4758 944  2596
4759 5795 9143
4760 8479 9070
4761 1197 9658
4762 3313 7715
4763 4384 6793
4764 4617 8243
4765 9906 1721
4766 5733 395 
4767 5602 1183
4768 2632 790 
4769 1681 7104
4770 2871 3933
4771 9961 4268
4772 6071 7652
4773 8677 7440
4774 7660 3347
4775 1183 8922
4776 8935 9604
4777 857  8224
4778 2322 9533
4779 4512 3551
4780 7907 9191
4781 3935 5150
4782 4163 3985
4783 8838 8431
4784 9304 6835
4785 6099 3580
4786 9711 985 
4787 8279 7734
4788 5893 2130
4789 5059 619 
4790 5645 1161
4791 7827 1610
4792 6034 6184
4793 3760 6668
4794 1982 9350
4795 3646 7457
4796 1843 6416
4797 5483 6441
4798 919  5896
4799 8278 1509
4800 3759 6987
4801 9293 6130
4802 86   5446
4803 1858 5935
4804 2499 327 
4805 9083 3830
4806 7853 2988
4807 848  996 
4808 6884 6866
4809 4413 5589
4810 6246 1438
4811 255  9112
4812 3943 1724
4813 1503 3043
4814 2663 9949
4815 6062 587 
4816 2763 8881
4817 1632 2511
4818 4810 4010
4819 1930 9383
4820 5373 4064
4821 5292 9701
4822 7061 6847
4823 8140 6974
4824 1952 5577
4825 5082 3590
4826 9154 9609
4827 5293 408 
4828 4038 5185
4829 2152 7452
4830 4818 2207
4831 5990 571 
4832 3103 1569
4833 1671 1155
4834 4866 5446
4835 5806 9700
4836 7702 5530
4837 1252 1068
4838 5145 5582
4839 2997 4618
4840 2677 2790
4841 7319 7815
4842 6902 288 
4843 3468 8104
4844 1739 358 
4845 4686 8534
4846 3532 9359
4847 8741 6987
4848 3984 8868
4849 1934 9362
4850 5862 6656
4851 4176 1845
4852 2284 5347
4853 8970 1086
4854 6982 9185
4855 843  1955
4856 1123 1771
4857 6642 6608
4858 1381 9236
4859 2320 2048
4860 9112 6658
4861 3681 9692
4862 5333 8556
4863 2592 4028
4864 6631 8948
4865 6934 2004
4866 6953 1581
4867 8441 7755
4868 1701 6660
4869 8922 2753
4870 216  2492
4871 5834 7385
4872 7461 8942
4873 9632 4145
4874 9550 2991
4875 4628 7091
4876 8523 6479
4877 4553 1944
4878 5886 8620
4879 6544 8516
4880 2954 6508
4881 6132 6400
4882 708  4472
4883 6650 1287
4884 9686 5830
4885 1394 9699
4886 243  3376
4887 8216 3995
4888 2829 9232
4889 5169 3225
4890 7150 4270
4891 5935 2916
4892 766  1348
4893 2249 191 
4894 3796 7793
4895 9856 8693
4896 5222 4070
4897 8479 1107
4898 2675 9543
4899 8929 1060
4900 8766 9328
4901 4023 7276
4902 9988 9739
4903 7785 9556
4904 8204 8920
4905 6356 829 
4906 4255 2019
4907 8709 5341
4908 3629 5178
4909 4182 5031
4910 9030 663 
4911 4580 1599
4912 6672 4326
4913 2281 3055
4914 9788 8733
4915 3954 5572
4916 7131 9203
4917 280  2095
4918 3192 4835
4919 835  6290
4920 9059 242 
4921 9288 2044
4922 361  9125
4923 6038 5532
4924 8857 5961
4925 2980 4476
4926 8020 1305
4927 2577 6291
4928 82   66  
4929 253  2399
4930 8373 8740
4931 1604 652 
4932 6341 3872
4933 4930 4079
4934 4783 4974
4935 9255 2850
4936 6182 5619
4937 6389 7488
4938 1084 3203
4939 5440 8876
4940 5247 1314
4941 6556 512 
4942 6815 7385
4943 2031 7396
4944 8162 8083
4945 5609 6753
4946 2102 7866
4947 5869 9850
4948 536  3716
4949 6901 159 
4950 740  6979
4951 3984 4143
4952 2819 9793
4953 7971 9121
4954 7144 8810
4955 2573 2353
4956 8575 8571
4957 6571 5819
4958 3234 1337
4959 6156 4874
4960 9760 4611
4961 7014 8879
4962 7262 8513
4963 4116 4185
4964 744  2388
4965 8234 2132
4966 698  1553
4967 3574 3036
4968 4157 3781
4969 8214 6325
4970 2945 8483
4971 8455 2176
4972 3012 6737
4973 892  5571
4974 5912 7886
4975 3756 991 
4976 4204 5195
4977 4741 6305
4978 9827 3660
4979 5547 8446
4980 5714 4965
4981 7081 4323
4982 9817 2982
4983 1091 8242
4984 8388 2902
4985 3745 4316
4986 4811 8379
4987 3974 3660
4988 8031 7134
4989 1163 4409
4990 6046 1336
4991 2354 8172
4992 4304 8508
4993 7178 3637
4994 9795 60  
4995 486  7512
4996 8525 1128
4997 5602 4425
4998 7306 7622
4999 1082 6102
5000 209  1314
5001 6920 5468
5002 2279 4956
5003 878  1204
5004 8865 6708
5005 4351 4197
5006 3134 5149
5007 9718 8157
5008 5066 2688
5009 7799 4859
5010 899  7591
5011 3224 6293
5012 6264 8020
5013 1972 7609
5014 9032 5709
5015 7414 7638
5016 729  3218
5017 2963 260 
5018 8371 8219
5019 9230 3597
5020 420  4025
5021 5750 1352
5022 2238 9541
5023 1816 1567
5024 1200 4524
5025 4835 616 
5026 3294 4060
5027 1851 6923
5028 347  197 
5029 9412 2453
5030 3230 2328
5031 7886 4406
5032 7827 8348
5033 6629 7824
5034 3846 6086
5035 3036 7351
5036 5326 7238
5037 802  3638
5038 7844 438 
5039 3692 6269
5040 1923 7844
5041 2797 4330
5042 1495 9413
5043 5057 6957
5044 6685 9695
5045 2641 4300
5046 6694 6381
5047 1537 8778
5048 4310 5214
5049 3806 3835
5050 3624 7190
5051 4811 7407
5052 266  6973
5053 1982 5741
5054 3857 7364
5055 6013 9692
5056 9127 9530
5057 7774 6179
5058 1600 6035
5059 367  9205
5060 9656 5402
5061 5973 2307
5062 1895 6361
5063 2206 2730
5064 2305 455 
5065 9278 1668
5066 5430 3882
5067 3041 9982
5068 7538 2698
5069 6926 5073
5070 5136 6207
5071 387  4970
5072 5113 390 
5073 9311 5164
5074 4909 5361
5075 7082 283 
5076 2319 851 
5077 1016 3168
5078 2157 2026
5079 7640 8073
5080 6821 702 
5081 4873 2645
5082 3218 5902
5083 4563 7259
5084 9960 6836
5085 2616 6817
5086 2135 9307
5087 9144 5237
5088 455  7849
5089 3431 6932
5090 1871 9068
5091 8411 9089
5092 7103 6205
5093 6891 1259
5094 8523 9023
5095 8014 2105
5096 651  9277
5097 4515 5917
5098 2399 9849
5099 4206 5492
5100 5307 6999
5101 1957 287 
5102 539  9011
5103 3119 3900
5104 7531 6969
5105 857  7561
5106 1768 8740
5107 3953 9746
5108 5518 8950
5109 8994 2908
5110 1920 5542
5111 6938 7333
5112 4078 149 
5113 3965 2200
5114 2334 8691
5115 183  7399
5116 3227 8320
5117 7937 6678
5118 5165 7651
5119 1859 9133
5120 4529 1245
5121 4147 9447
5122 1750 8790
5123 3018 18  
5124 71   8229
5125 1876 9542
5126 7415 5697
5127 4809 998 
5128 5799 6978
5129 6739 405 
5130 3647 358 
5131 5246 9045
5132 8707 1536
5133 9351 859 
5134 7522 3624
5135 5395 3888
5136 7525 6546
5137 4116 4113
5138 8028 4786
5139 5669 4127
5140 9756 1827
5141 3033 6413
5142 2237 3489
5143 7632 1750
5144 2264 9270
5145 9442 7396
5146 3308 3299
5147 546  6537
5148 7201 6391
5149 4363 6719
5150 4773 6924
5151 5777 9918
5152 8571 8755
5153 625  3629
5154 3737 8617
5155 5049 1404
5156 8191 2730
5157 8718 5136
5158 2393 9127
5159 2173 246 
5160 6655 6459
5161 1998 8751
5162 5722 8977
5163 301  6763
5164 2171 9402
5165 4726 8429
5166 8977 8327
5167 1084 381 
5168 5931 9814
5169 3189 4547
5170 6094 763 
5171 7356 6196
5172 7317 5418
5173 3676 7566
5174 3541 5991
5175 8343 3672
5176 2667 2758
5177 2209 7573
5178 4586 1640
5179 6255 9494
5180 5202 6787
5181 3030 184 
5182 9718 8505
5183 6732 194 
5184 5253 7017
5185 9920 5934
5186 3457 9005
5187 4114 3483
5188 4008 4148
5189 6887 2507
5190 5660 8314
5191 3372 2006
5192 1226 8777
5193 7615 4774
5194 7390 8303
5195 3120 5282
5196 1116 8328
5197 7296 9638
5198 6129 3415
5199 9314 1935
5200 4498 7880
5201 1927 2891
5202 9645 9386
5203 4123 4246
5204 8963 7522
5205 1197 7607
5206 9020 4977
5207 6319 153 
5208 2816 5011
5209 6206 8162
5210 3405 8047
5211 3996 5558
5212 65   1510
5213 7501 5438
5214 2923 3096
5215 66   5221
5216 3831 6694
5217 9422 9495
5218 4685 7468
5219 6905 1899
5220 5100 7444
5221 2542 7385
5222 4533 6088
5223 6820 9037
5224 4170 6382
5225 4421 9050
5226 2391 972 
5227 3623 5512
5228 8175 7567
5229 5233 678 
5230 8805 9099
5231 2826 6480
5232 5459 3300
5233 9249 5905
5234 2056 7316
5235 9666 4311
5236 4715 692 
5237 4475 3531
5238 9181 9112
5239 5423 5289
5240 2055 1974
5241 6306 5883
5242 2012 8371
5243 7251 5439
5244 107  4611
5245 2813 1281
5246 2357 543 
5247 7002 9194
5248 3446 8358
5249 9020 8838
5250 8525 5496
5251 4571 7050
5252 1794 1452
5253 9195 792 
5254 1173 1041
5255 1893 8387
5256 8497 4403
5257 4170 7556
5258 3174 3912
5259 3227 1516
5260 7240 9898
5261 7079 5592
5262 9739 6646
5263 923  3462
5264 831  2902
5265 2250 6894
5266 4178 1670
5267 9279 8790
5268 9447 9648
5269 1877 1990
5270 8688 1945
5271 1751 6566
5272 6312 1104
5273 256  3316
5274 666  9302
5275 4297 137 
5276 3502 596 
5277 6013 4496
5278 5129 9946
5279 286  9178
5280 1918 2880
5281 5859 5443
5282 7022 9197
5283 1257 1756
5284 9364 2954
5285 5560 6392
5286 5451 5845
5287 1410 8751
5288 1180 8261
5289 4367 6587
5290 9814 9561
5291 4080 1286
5292 8572 2603
5293 8575 4932
5294 9834 7975
5295 9636 5974
5296 1508 6965
5297 622  9335
5298 932  7166
5299 278  5792
5300 5090 1434
5301 9903 1005
5302 2403 214 
5303 643  4045
5304 6150 1450
5305 9518 7480
5306 1392 9079
5307 2698 1531
5308 9242 2599
5309 2480 3344
5310 6934 3757
5311 1460 7775
5312 1022 4936
5313 6270 5611
5314 9513 9144
5315 9698 955 
5316 8748 9123
5317 7534 3798
5318 7727 209 
5319 8486 1107
5320 320  8512
5321 396  9435
5322 2588 8080
5323 3815 699 
5324 8215 3912
5325 9973 4708
5326 9743 6185
5327 457  8506
5328 1124 317 
5329 6436 2759
5330 7313 6086
5331 9234 6476
5332 1003 2408
5333 141  4057
5334 9743 4458
5335 2464 2609
5336 5186 5199
5337 991  9684
5338 4866 3229
5339 7177 3585
5340 3239 4257
5341 4364 314 
5342 9361 6368
5343 6553 3399
5344 6125 5542
5345 343  9870
5346 6325 4831
5347 6875 6532
5348 5230 7354
5349 4573 6840
5350 8158 1651
5351 5516 1386
5352 4269 9428
5353 1098 7734
5354 6282 6019
5355 4615 7819
5356 4295 4347
5357 6292 3455
5358 4554 4531
5359 3360 9457
5360 6497 1939
5361 9886 7167
5362 9576 7976
5363 2685 5614
5364 2929 9552
5365 4305 9903
5366 1182 1996
5367 2200 3859
5368 5273 8292
5369 5236 9496
5370 7695 4646
5371 4449 9281
5372 1075 3570
5373 9131 2891
5374 8145 28  
5375 6669 7149
5376 5763 195 
5377 314  1469
5378 314  976 
5379 8263 3784
5380 4002 1723
5381 7038 1518
5382 1068 9575
5383 2000 5800
5384 5341 149 
5385 331  6272
5386 9842 1607
5387 1711 5323
5388 9578 1102
5389 3552 3211
5390 7372 9916
5391 4882 3051
5392 2394 5749
5393 7771 1633
5394 4922 9915
5395 5345 9836
5396 4689 9600
5397 7240 9312
5398 4596 9312
5399 2836 2886
5400 1039 807 
5401 65   1085
5402 4261 5315
5403 2472 441 
5404 4791 5662
5405 4191 7174
5406 8074 1995
5407 8824 1874
5408 9864 6371
5409 4364 1504
5410 4663 8209
5411 9744 7848
5412 8385 814 
5413 2217 5923
5414 979  2926
5415 6692 6256
5416 6919 6078
5417 5504 2768
5418 3678 1587
5419 4234 6083
5420 5265 4273
5421 1740 3074
5422 6185 4366
5423 254  8416
5424 6657 9305
5425 9645 8825
5426 9561 6616
5427 8975 4544
5428 4755 27  
5429 5568 3910
5430 9714 8169
5431 8157 8323
5432 5149 7663
5433 2172 773 
5434 5605 2762
5435 8893 4381
5436 1589 5813
5437 6517 411 
5438 5835 8284
5439 4088 4675
5440 1953 8968
5441 5466 7399
5442 9095 5078
5443 2661 1704
5444 765  4241
5445 4543 3334
5446 9169 8103
5447 8235 7973
5448 2459 3527
5449 5198 5946
5450 7705 2990
5451 6542 6761
5452 2121 6240
5453 7588 1673
5454 9199 343 
5455 4340 6841
5456 3853 5499
5457 1355 9751
5458 6576 911 
5459 8535 6331
5460 230  708 
5461 6189 8322
5462 5906 7884
5463 5920 181 
5464 7195 4507
5465 8048 708 
5466 8122 7035
5467 5075 3832
5468 5239 3738
5469 9205 4977
5470 6491 3170
5471 7703 9030
5472 7398 4442
5473 7836 8043
5474 4165 5362
5475 8910 902 
5476 7613 8429
5477 274  5951
5478 8290 5230
5479 2300 2182
5480 4337 5381
5481 9984 8275
5482 2610 6318
5483 6670 2488
5484 4372 9088
5485 2377 8471
5486 6991 3403
5487 4211 37  
5488 8572 8084
5489 1256 2600
5490 5980 8558
5491 3599 3844
5492 5750 9340
5493 8528 8077
5494 883  7839
5495 2811 4820
5496 1668 7155
5497 4658 8418
5498 5772 4781
5499 7952 4382
5500 2953 200 
5501 2168 9647
5502 7919 1469
5503 1634 6328
5504 4617 7174
5505 7317 8594
5506 9549 2592
5507 4658 4074
5508 3136 4801
5509 7066 795 
5510 8128 5945
5511 7455 9870
5512 6718 4962
5513 2391 5757
5514 6607 5181
5515 1897 6788
5516 3642 1333
5517 4776 6232
5518 6227 4914
5519 578  700 
5520 3258 1082
5521 2420 6805
5522 3642 5756
5523 3207 8786
5524 8314 5855
5525 4795 4209
5526 4459 9141
5527 5502 2340
5528 2783 3294
5529 7020 2183
5530 5773 2618
5531 7476 3390
5532 80   5334
5533 9554 7581
5534 6518 1028
5535 3309 3091
5536 8876 9   
5537 5937 8454
5538 4390 840 
5539 6184 4727
5540 7862 2006
5541 7792 9705
5542 3211 575 
5543 3875 4556
5544 8492 6790
5545 4653 3719
5546 7546 9124
5547 8241 3735
5548 6161 3557
5549 739  15  
5550 6599 1635
5551 3951 7799
5552 1156 1970
5553 3772 2743
5554 1763 1012
5555 3050 5336
5556 1296 4566
5557 338  7996
5558 8934 7981
5559 4241 282 
5560 3479 8281
5561 7973 734 
5562 566  995 
5563 3738 5006
5564 8627 1660
5565 2010 822 
5566 5547 8534
5567 7849 7229
5568 8513 2405
5569 5214 3813
5570 7887 809 
5571 1484 2205
5572 4539 5602
5573 758  9921
5574 8598 9377
5575 1824 5877
5576 1736 3521
5577 1574 7274
5578 7148 4900
5579 5422 9966
5580 4614 1430
5581 4684 4887
5582 9363 2588
5583 2571 5183
5584 4770 2123
5585 8445 5889
5586 6707 2144
5587 6904 3243
5588 3928 6731
5589 4576 642 
5590 2766 5930
5591 6904 8699
5592 7604 2433
5593 8073 7158
5594 3127 4291
5595 3701 6406
5596 3718 229 
5597 3792 4901
5598 4318 7477
5599 2830 5150
5600 401  4191
5601 2985 8785
5602 1133 2792
5603 628  1640
5604 1676 9437
5605 4320 6857
5606 9499 8393
5607 3204 9642
5608 2838 9976
5609 9208 3793
5610 5842 3631
5611 4465 6493
5612 6076 6267
5613 2314 6458
5614 8729 1814
5615 3780 747 
5616 1916 9458
5617 3813 4516
5618 4544 5006
5619 8895 5710
5620 4618 7125
5621 8935 6896
5622 5591 2074
5623 5690 2449
5624 6964 4882
5625 6701 3648
5626 2859 7463
5627 7617 4195
5628 1086 1882
5629 9798 380 
5630 3625 8821
5631 4985 3077
5632 2553 9433
5633 7255 1262
5634 9727 6434
5635 3334 5484
5636 3673 2280
5637 4656 5710
5638 7914 9224
5639 9839 3501
5640 3108 6076
5641 9127 1825
5642 9482 2352
5643 995  9364
5644 1867 8028
5645 2777 864 
5646 4167 5751
5647 3270 3504
5648 1218 391 
5649 4230 5990
5650 2815 585 
5651 5713 5693
5652 1009 7038
5653 1343 3409
5654 2313 1803
5655 5794 4163
5656 5003 4431
5657 5847 8845
5658 5335 8665
5659 9740 1941
5660 1347 1059
5661 5497 5170
5662 8958 2612
5663 1966 4344
5664 1984 6220
5665 5839 4907
5666 4765 8556
5667 9984 7235
5668 3262 4658
5669 3358 5368
5670 6310 1710
5671 5850 1144
5672 3756 4896
5673 6766 979 
5674 9974 9964
5675 2996 5026
5676 46   9421
5677 9692 2536
5678 9786 613 
5679 8097 2441
5680 2913 969 
5681 6102 6666
5682 5656 8469
5683 4029 4453
5684 2924 6504
5685 9958 2643
5686 7792 2726
5687 845  5729
5688 677  3071
5689 8911 7629
5690 2393 8830
5691 6063 6293
5692 1394 7195
5693 8548 1401
5694 6602 6913
5695 9219 1882
5696 609  2294
5697 6458 9178
5698 8232 7381
5699 3692 8945
5700 8574 2832
5701 166  1270
5702 7781 9595
5703 2057 7865
5704 6127 4625
5705 6227 9992
5706 9234 2112
5707 6890 639 
5708 447  7347
5709 3466 2317
5710 8802 9538
5711 7087 6148
5712 1239 249 
5713 4351 8636
5714 7542 2210
5715 6687 8658
5716 548  712 
5717 6471 3052
5718 135  4347
5719 2652 6997
5720 9711 2119
5721 9686 1096
5722 1801 6335
5723 293  6172
5724 6498 5838
5725 5542 2254
5726 617  2280
5727 6744 8240
5728 3900 7311
5729 9783 8143
5730 7960 2871
5731 8490 788 
5732 6650 6739
5733 3340 9858
5734 2575 4347
5735 4789 8981
5736 6364 9310
5737 7709 5910
5738 8408 7308
5739 5427 9677
5740 2150 2742
5741 4363 9964
5742 7044 1504
5743 2247 3892
5744 7607 7507
5745 2147 6796
5746 9088 7919
5747 1453 3428
5748 6627 7242
5749 803  6922
5750 2027 899 
5751 7071 2277
5752 5869 6749
5753 5322 4660
5754 7322 3152
5755 1832 5339
5756 1974 4106
5757 3178 8790
5758 1419 9200
5759 2992 7051
5760 6416 6379
5761 4346 5312
5762 4478 101 
5763 9206 9350
5764 6265 9301
5765 195  1476
5766 8740 7307
5767 2292 7499
5768 5871 7786
5769 9069 294 
5770 7811 1118
5771 5087 6774
5772 66   6191
5773 2304 2903
5774 5150 9082
5775 7097 9170
5776 7635 6266
5777 5396 1791
5778 6236 1097
5779 1794 5455
5780 2649 2472
5781 1477 7351
5782 8944 4679
5783 4402 970 
5784 2800 9937
5785 7344 8358
5786 3778 2077
5787 4883 1897
5788 9615 1371
5789 1645 6423
5790 1477 7512
5791 2857 5335
5792 547  6047
5793 9548 3569
5794 6243 8646
5795 6301 1049
5796 9839 2478
5797 9362 2142
5798 8532 9074
5799 8374 288 
5800 5190 1605
5801 9682 2155
5802 3012 1000
5803 1205 1659
5804 7098 6784
5805 8868 9583
5806 9723 3065
5807 7417 5421
5808 6030 5487
5809 5883 4676
5810 966  3628
5811 6812 8217
5812 9007 4205
5813 6571 8036
5814 2434 8646
5815 160  5998
5816 7446 1617
5817 8881 8061
5818 9805 8624
5819 2909 8843
5820 2742 3123
5821 5079 5173
5822 8148 5139
5823 1131 6008
5824 1750 6910
5825 7918 8132
5826 2128 904 
5827 6899 8357
5828 2858 7194
5829 139  5650
5830 2133 9683
5831 5890 4329
5832 7099 1973
5833 4071 9604
5834 2999 5091
5835 1050 1215
5836 1908 3368
5837 7109 7997
5838 309  1780
5839 3032 5992
5840 5179 8494
5841 6585 8594
5842 1954 2196
5843 9204 4587
5844 4793 2764
5845 4446 8381
5846 9013 8777
5847 9184 1040
5848 3782 8503
5849 4073 1284
5850 2161 6135
5851 7185 4122
5852 3773 731 
5853 7106 272 
5854 8281 208 
5855 6500 7955
5856 8868 4782
5857 3646 5662
5858 5094 9819
5859 6559 1219
5860 3460 8095
5861 141  5781
5862 118  8436
5863 257  6133
5864 183  6003
5865 8349 9905
5866 7421 339 
5867 1620 6168
5868 4509 4467
5869 1380 8464
5870 9251 969 
5871 3894 7026
5872 525  424 
5873 4160 2331
5874 502  9691
5875 4592 1250
5876 3492 3822
5877 1931 6013
5878 4560 8545
5879 1535 7116
5880 4795 7979
5881 5733 8545
5882 8954 173 
5883 8793 8374
5884 5792 8695
5885 2152 5380
5886 1712 3048
5887 4346 6499
5888 1715 5164
5889 2761 2910
5890 3634 5653
5891 3049 1523
5892 7923 5266
5893 2720 5152
5894 8748 2253
5895 618  5712
5896 4318 7657
5897 8488 9428
5898 1028 4269
5899 2711 3497
5900 8003 562 
5901 8579 8009
5902 3449 4283
5903 4849 9112
5904 9011 621 
5905 3883 2191
5906 4119 7341
5907 4458 7082
5908 5703 1350
5909 8142 6738
5910 602  7583
5911 3765 2064
5912 2041 2420
5913 5740 9596
5914 6846 6357
5915 6989 7940
5916 8129 7931
5917 3261 3786
5918 6725 2829
5919 7523 3324
5920 3435 3931
5921 9137 2982
5922 2872 942 
5923 4554 8629
5924 8054 7538
5925 8746 6529
5926 7774 862 
5927 1240 3969
5928 6894 9353
5929 2443 5548
5930 5641 1913
5931 564  8566
5932 773  7973
5933 5019 6549
5934 1487 5832
5935 946  223 
5936 8308 4356
5937 3368 2085
5938 2917 8543
5939 8750 4294
5940 1344 8880
5941 7485 6949
5942 6186 2786
5943 9920 7382
5944 9688 3155
5945 3672 637 
5946 6749 1149
5947 5707 139 
5948 2678 9773
5949 1111 6001
5950 5165 7886
5951 5695 7813
5952 5769 7939
5953 1893 7828
5954 2985 7154
5955 5860 842 
5956 7685 6341
5957 141  8248
5958 8872 822 
5959 1123 1953
5960 1396 8340
5961 4079 38  
5962 1330 5441
5963 4987 8406
5964 3288 767 
5965 2478 6972
5966 7115 42  
5967 8334 3237
5968 9367 5873
5969 6329 8929
5970 8037 640 
5971 9801 8018
5972 9411 6170
5973 6660 4957
5974 9082 4373
5975 9254 6153
5976 2402 124 
5977 2548 8387
5978 7631 9721
5979 9530 2844
5980 7872 4332
5981 2523 7396
5982 2831 5927
5983 4182 8131
5984 9674 3679
5985 3071 8550
5986 2177 1987
5987 7955 851 
5988 4491 2718
5989 2074 8832
5990 4807 440 
5991 1831 2244
5992 6625 230 
5993 9165 4605
5994 1593 3522
5995 5983 2334
5996 8480 6978
5997 6266 6604
5998 4243 7989
5999 7826 5920
6000 9196 3713
6001 3476 3285
6002 7190 9775
6003 5872 893 
6004 9912 1825
6005 9260 8137
6006 7865 796 
6007 9334 1278
6008 2007 9098
6009 2609 2023
6010 2019 5111
6011 6354 3685
6012 7957 6333
6013 7443 6715
6014 5800 6868
6015 5477 9422
6016 5100 2910
6017 4378 2609
6018 8925 2915
6019 3699 8756
6020 843  5843
6021 924  2821
6022 4292 4202
6023 4213 8820
6024 5528 3763
6025 2403 5048
6026 4716 2830
6027 3689 7233
6028 979  4646
6029 2117 6897
6030 1839 2997
6031 3517 1175
6032 5139 5068
6033 7213 5159
6034 5277 9432
6035 143  7016
6036 1092 3861
6037 5944 1942
6038 6772 8624
6039 9908 7469
6040 3394 2746
6041 5756 2751
6042 1175 4414
6043 1858 7932
6044 3881 2228
6045 9121 9719
6046 6750 5716
6047 4049 8314
6048 3137 7969
6049 7485 9617
6050 9514 3332
6051 5637 7056
6052 6617 4678
6053 9109 6685
6054 6398 6276
6055 4132 5587
6056 2747 4591
6057 9116 278 
6058 8833 2628
6059 216  4160
6060 5076 2385
6061 9453 1600
6062 8772 1063
6063 5615 6093
6064 340  633 
6065 8309 1986
6066 2187 918 
6067 5086 7094
6068 5093 3438
6069 9695 5368
6070 1507 3416
6071 5929 1613
6072 6858 2792
6073 3028 6840
6074 7656 3777
6075 197  1286
6076 9114 5299
6077 6808 4959
6078 6763 8525
6079 9423 8844
6080 3481 4850
6081 5168 9910
6082 4789 3813
6083 5049 9687
6084 9427 2694
6085 8216 8763
6086 8001 1902
6087 132  9243
6088 6635 8122
6089 1877 4287
6090 7180 3697
6091 2793 2373
6092 9944 3467
6093 2559 6261
6094 1680 2925
6095 3632 4583
6096 8273 7539
6097 1397 4890
6098 8120 1447
6099 2537 3695
6100 201  633 
6101 2535 5897
6102 5971 6236
6103 8979 3283
6104 1721 9842
6105 6368 9582
6106 5356 6547
6107 7074 6433
6108 4698 5577
6109 787  9836
6110 9552 2650
6111 8810 7777
6112 6386 949 
6113 4472 6302
6114 9804 5268
6115 4772 9938
6116 5934 6962
6117 4923 781 
6118 1097 9194
6119 2646 6542
6120 1791 6997
6121 1224 952 
6122 8049 9289
6123 2103 721 
6124 6707 5403
6125 435  2203
6126 5751 8366
6127 7579 9924
6128 7082 2529
6129 3065 2659
6130 8160 1730
6131 5765 2883
6132 4468 4931
6133 5041 6849
6134 4756 5565
6135 8763 3390
6136 1615 4019
6137 1844 7023
6138 1092 5024
6139 6533 6217
6140 3126 3860
6141 8924 5355
6142 668  8055
6143 338  8558
6144 7588 4100
6145 2433 5585
6146 2972 8022
6147 8871 7481
6148 4852 9149
6149 5158 5118
6150 1671 3222
6151 6407 4573
6152 393  3483
6153 5344 6026
6154 6798 372 
6155 577  3616
6156 2029 6015
6157 1322 9974
6158 2088 5540
6159 5485 9003
6160 2046 8801
6161 1143 4266
6162 5795 1965
6163 9227 4264
6164 9032 289 
6165 7137 5604
6166 7073 1316
6167 2586 1794
6168 3042 2368
6169 9467 8548
6170 3701 9605
6171 3446 4669
6172 9691 1827
6173 1454 6585
6174 9465 8115
6175 1803 1975
6176 9478 482 
6177 5995 6779
6178 3113 3789
6179 4136 5154
6180 3616 6452
6181 7748 2440
6182 1659 3474
6183 952  3973
6184 7453 3180
6185 4114 2237
6186 8307 5315
6187 7383 2340
6188 1829 8452
6189 1466 9908
6190 5945 1605
6191 5482 4334
6192 4052 4873
6193 1594 817 
6194 7066 3594
6195 4834 9477
6196 7764 5252
6197 7078 2025
6198 2739 9097
6199 4810 203 
6200 844  7175
6201 1746 7291
6202 1695 5402
6203 9924 3053
6204 1878 3972
6205 8324 9955
6206 5573 1855
6207 4699 846 
6208 9727 3473
6209 3612 8450
6210 2960 1478
6211 6309 5604
6212 8994 2012
6213 170  3719
6214 5074 5073
6215 3415 7584
6216 2603 9710
6217 7821 3603
6218 6810 3815
6219 7672 4192
6220 8108 9160
6221 9377 7637
6222 9167 2529
6223 9914 4223
6224 4278 7044
6225 4251 1488
6226 7649 869 
6227 1832 1799
6228 8457 1124
6229 9733 3798
6230 9566 2361
6231 5053 1295
6232 3264 1309
6233 419  6862
6234 5341 8637
6235 3244 4411
6236 9031 4410
6237 5433 8260
6238 7633 6590
6239 805  9397
6240 2036 6726
6241 1518 4040
6242 5102 2795
6243 3902 9370
6244 5929 3170
6245 2244 6212
6246 1596 769 
6247 4478 3600
6248 3647 9890
6249 3030 3942
6250 5056 7294
6251 9377 8066
6252 5076 4204
6253 4426 8203
6254 3319 8872
6255 9175 7650
6256 2221 7475
6257 5267 4650
6258 956  2694
6259 3968 2850
6260 6466 4105
6261 4822 5206
6262 9595 6009
6263 5820 4393
6264 4642 1376
6265 8966 3929
6266 153  2624
6267 1228 5342
6268 6544 719 
6269 838  5654
6270 8929 2282
6271 9767 6204
6272 6715 6943
6273 6503 5003
6274 6785 2567
6275 5608 9316
6276 5624 8082
6277 744  6007
6278 2867 5734
6279 6417 5109
6280 5480 8648
6281 423  3914
6282 9213 6147
6283 3907 2769
6284 3868 3160
6285 1588 7543
6286 609  7993
6287 444  3371
6288 2510 2596
6289 2254 82  
6290 255  8052
6291 691  2807
6292 5995 472 
6293 4282 2139
6294 377  9489
6295 2504 3756
6296 6561 7440
6297 1196 9752
6298 6573 7329
6299 7042 3696
6300 1349 6015
6301 7240 4706
6302 1675 2655
6303 5915 2285
6304 9058 4727
6305 3888 182 
6306 7142 889 
6307 5462 4415
6308 5146 8780
6309 3344 5707
6310 2892 8513
6311 2397 7538
6312 271  9058
6313 2811 2296
6314 8081 7498
6315 7771 8938
6316 2159 7684
6317 5949 3172
6318 2889 4870
6319 3177 3975
6320 1576 7086
6321 8135 2101
6322 2859 5259
6323 1204 3682
6324 4686 2852
6325 374  4389
6326 5295 4134
6327 3220 8435
6328 7669 5612
6329 6059 3065
6330 3372 9532
6331 9676 648 
6332 4891 7293
6333 6314 4287
6334 1778 4470
6335 1039 6200
6336 9745 425 
6337 4985 4479
6338 9629 7891
6339 6421 2882
6340 181  7133
6341 4060 4547
6342 9832 7413
6343 9394 5284
6344 3919 5675
6345 7828 7081
6346 9715 2883
6347 9557 8241
6348 6862 7618
6349 5792 8801
6350 9351 922 
6351 1945 4691
6352 56   3493
6353 6636 1548
6354 3562 4206
6355 34   6168
6356 3321 1672
6357 8130 9902
6358 59   1507
6359 5546 7657
6360 7060 6764
6361 9227 4574
6362 7838 4308
6363 9149 4281
6364 8378 3020
6365 3652 785 
6366 3604 1244
6367 6717 9348
6368 3135 2590
6369 9050 185 
6370 1134 2315
6371 8111 4411
6372 3933 3793
6373 5420 4526
6374 4225 4729
6375 1916 9904
6376 1150 8706
6377 4779 3523
6378 124  9064
6379 6462 331 
6380 3171 1682
6381 9348 8396
6382 1414 1496
6383 3153 7351
6384 3723 420 
6385 6051 7670
6386 3771 5583
6387 5130 8166
6388 1028 2553
6389 3915 4853
6390 9481 12  
6391 5021 4221
6392 8123 5109
6393 6917 5139
6394 7795 3788
6395 2459 5634
6396 379  930 
6397 2837 3969
6398 6506 4294
6399 8695 738 
6400 6882 3082
6401 283  2320
6402 4613 3128
6403 6291 1462
6404 9194 4759
6405 8249 2568
6406 1211 2205
6407 2726 8420
6408 1000 5293
6409 9325 9296
6410 2976 5349
6411 5009 4313
6412 6869 4690
6413 2328 4904
6414 4811 2821
6415 4501 577 
6416 2465 5936
6417 9330 6788
6418 4821 1160
6419 9229 2384
6420 3369 4874
6421 15   2057
6422 6748 6439
6423 3815 7298
6424 292  3370
6425 4683 3965
6426 5896 4489
6427 8375 9070
6428 228  9186
6429 1781 9965
6430 358  942 
6431 831  3549
6432 8594 1475
6433 189  2280
6434 688  8962
6435 1089 4143
6436 8095 3931
6437 1154 8333
6438 7961 7163
6439 5721 1518
6440 4200 486 
6441 3198 8402
6442 5735 3829
6443 250  9300
6444 7055 6647
6445 8038 4454
6446 9047 8157
6447 1654 5712
6448 7844 6591
6449 2752 354 
6450 2739 1352
6451 8085 6048
6452 2137 3250
6453 4546 5963
6454 6466 9258
6455 151  2531
6456 5338 2283
6457 3422 6783
6458 7738 8184
6459 9396 5452
6460 3884 2202
6461 2045 8105
6462 2830 3515
6463 2205 9710
6464 7922 2984
6465 8200 9553
6466 8108 8072
6467 8652 5442
6468 8362 3268
6469 8550 6982
6470 8171 4223
6471 77   6950
6472 7611 4625
6473 7350 8011
6474 292  212 
6475 9357 6453
6476 8955 7523
6477 6582 1444
6478 6924 5092
6479 5270 39  
6480 8216 1432
6481 2080 9348
6482 1199 5299
6483 712  7310
6484 5535 2429
6485 1287 1359
6486 6602 177 
6487 9038 7091
6488 4702 1460
6489 4280 3365
6490 796  2614
6491 8619 3830
6492 408  3662
6493 8015 1222
6494 863  8813
6495 4907 7604
6496 8270 8206
6497 2906 7280
6498 2647 1916
6499 6601 7401
6500 4801 2895
6501 9382 9364
6502 9696 6214
6503 6843 2440
6504 8339 8810
6505 961  8885
6506 1456 5541
6507 8137 1154
6508 398  1991
6509 8267 3331
6510 7382 6899
6511 9803 1812
6512 2206 3812
6513 1728 477 
6514 6811 7959
6515 9767 1498
6516 4874 5226
6517 4557 8357
6518 2853 6648
6519 4566 3310
6520 6456 2521
6521 6563 2463
6522 5591 9038
6523 5395 6925
6524 9315 7288
6525 1659 577 
6526 1298 7222
6527 8991 6884
6528 9171 7943
6529 4289 5136
6530 7594 2683
6531 2403 3261
6532 2641 4177
6533 654  4060
6534 8240 2053
6535 4398 9854
6536 6764 9306
6537 5098 8678
6538 7248 8957
6539 913  6619
6540 9054 9080
6541 5168 3562
6542 285  3165
6543 150  6829
6544 7217 2378
6545 2694 1411
6546 4680 9203
6547 7869 5731
6548 5874 7615
6549 7241 761 
6550 9350 132 
6551 3917 5665
6552 9567 5011
6553 3873 4112
6554 9295 7420
6555 4161 1926
6556 5484 5417
6557 2110 6983
6558 4899 5349
6559 5560 4777
6560 8630 9368
6561 5233 3975
6562 6131 9255
6563 1107 5774
6564 2624 6667
6565 2799 989 
6566 8017 7651
6567 9011 2   
6568 6833 7693
6569 8763 3421
6570 3019 2090
6571 3639 7664
6572 6061 3704
6573 2330 4193
6574 5087 9860
6575 4982 8524
6576 1681 3936
6577 859  7545
6578 1989 8500
6579 471  152 
6580 5726 731 
6581 9594 2735
6582 1158 4267
6583 2751 8165
6584 9972 9985
6585 9039 5695
6586 2851 3038
6587 7619 5941
6588 3840 3654
6589 3410 5811
6590 133  640 
6591 7822 6670
6592 6604 1085
6593 7439 347 
6594 1690 6516
6595 2578 68  
6596 6427 721 
6597 88   8044
6598 6600 315 
6599 7821 6655
6600 8073 5531
6601 2859 9609
6602 9924 6679
6603 2864 6907
6604 6901 2832
6605 1578 1047
6606 2588 1767
6607 1569 2432
6608 5466 8825
6609 8590 6611
6610 7894 4272
6611 6979 4755
6612 2528 5027
6613 987  9865
6614 9710 1687
6615 3130 1069
6616 4064 3319
6617 189  3622
6618 6447 8859
6619 4300 4449
6620 115  2690
6621 8550 5914
6622 838  2064
6623 9908 7152
6624 3540 8186
6625 654  1919
6626 2998 7451
6627 1135 1575
6628 7837 4152
6629 1722 2378
6630 4583 4881
6631 5309 4814
6632 2054 8785
6633 4805 6395
6634 7931 6236
6635 5986 250 
6636 6654 763 
6637 7550 361 
6638 7783 4013
6639 18   731 
6640 9539 1781
6641 777  1194
6642 4418 9613
6643 7047 9904
6644 7836 4327
6645 4982 7872
6646 1353 7547
6647 9108 6133
6648 5214 5334
6649 928  5969
6650 1366 4563
6651 7335 933 
6652 9878 4445
6653 2080 6687
6654 6677 4664
6655 4921 4061
6656 4878 5745
6657 6141 5193
6658 1493 7548
6659 994  1653
6660 9157 5964
6661 3264 2599
6662 6908 9327
6663 4922 3749
6664 1283 6631
6665 2427 6978
6666 6069 4206
6667 7126 7128
6668 666  5530
6669 9004 3879
6670 7111 440 
6671 7633 1428
6672 6438 674 
6673 2192 3449
6674 8942 1155
6675 3494 2668
6676 9190 5306
6677 9041 2350
6678 9260 1096
6679 6774 13  
6680 2213 9489
6681 3101 7775
6682 197  749 
6683 7056 188 
6684 553  3697
6685 5463 5766
6686 7421 9210
6687 1998 246 
6688 4072 2082
6689 598  9189
6690 5536 6188
6691 57   9595
6692 7235 6599
6693 8342 8053
6694 9175 8851
6695 7051 8676
6696 6538 8036
6697 3839 3822
6698 1939 9925
6699 5642 47  
6700 2832 2805
6701 7108 6393
6702 3556 7224
6703 8796 6572
6704 7810 2236
6705 3634 2265
6706 5796 8942
6707 1527 110 
6708 3024 3904
6709 8542 1439
6710 5077 5264
6711 6948 5016
6712 5686 5350
6713 4096 4956
6714 3968 9679
6715 5362 450 
6716 5893 7921
6717 3085 7301
6718 6271 5868
6719 8200 4030
6720 22   2153
6721 1228 6468
6722 2504 4711
6723 6821 3323
6724 6604 6794
6725 1649 6861
6726 2963 2177
6727 8611 6116
6728 6366 8903
6729 2165 4621
6730 9349 8485
6731 5494 7894
6732 8886 3973
6733 304  9212
6734 8014 4780
6735 4957 9505
6736 9877 9829
6737 8799 1972
6738 137  6470
6739 9981 8389
6740 5893 6436
6741 6017 3311
6742 1825 2946
6743 8238 1854
6744 4867 8256
6745 3721 3637
6746 154  2557
6747 3255 2237
6748 8075 2114
6749 9587 7195
6750 902  4224
6751 1280 7025
6752 8195 9   
6753 5912 1485
6754 4609 252 
6755 581  9526
6756 715  5433
6757 7770 3609
6758 796  4351
6759 2620 4791
6760 3666 1998
6761 7708 7862
6762 2290 7997
6763 4683 4481
6764 9245 4035
6765 8933 2747
6766 6387 1534
6767 7956 6292
6768 6912 8632
6769 4337 7393
6770 7326 6877
6771 2186 9202
6772 4336 1627
6773 1150 2309
6774 8865 7924
6775 4015 4920
6776 7663 6718
6777 5521 6539
6778 7118 6118
6779 6264 7417
6780 9435 7687
6781 6164 604 
6782 7388 4571
6783 4965 7138
6784 1967 6371
6785 8420 2734
6786 8787 5998
6787 1226 9487
6788 7707 2370
6789 1198 9385
6790 4754 7979
6791 1623 5662
6792 4181 1717
6793 5248 1946
6794 2822 3004
6795 724  6399
6796 274  3854
6797 9448 8192
6798 2637 5818
6799 2710 8840
6800 3150 9813
6801 1112 2859
6802 9416 7333
6803 3713 9983
6804 6187 6704
6805 6563 389 
6806 2818 3654
6807 8038 5917
6808 514  5431
6809 762  939 
6810 3868 8332
6811 7058 5995
6812 6179 9947
6813 9884 8467
6814 1293 5611
6815 8608 8925
6816 3822 3228
6817 6380 9204
6818 8984 9874
6819 9009 9735
6820 1932 6413
6821 8577 7952
6822 9727 8869
6823 4176 1160
6824 1743 7181
6825 8198 3431
6826 2447 5173
6827 8080 1346
6828 6005 3423
6829 7830 8221
6830 9689 7176
6831 6676 8868
6832 3474 6366
6833 8493 7029
6834 1054 6572
6835 4917 4224
6836 3930 470 
6837 93   2219
6838 5131 5917
6839 6737 664 
6840 6712 6870
6841 6048 4150
6842 7369 2580
6843 7134 3656
6844 6505 8860
6845 6266 7135
6846 7285 1264
6847 4667 1855
6848 4782 5300
6849 1486 6557
6850 3286 1827
6851 1201 9852
6852 2082 9608
6853 2335 8400
6854 3590 479 
6855 7514 1385
6856 4613 5242
6857 3156 1971
6858 8935 5233
6859 1378 1529
6860 7487 9217
6861 7814 7369
6862 6279 9376
6863 5671 8315
6864 5351 6971
6865 1977 7571
6866 5718 4634
6867 9967 9569
6868 7964 8117
6869 3034 4102
6870 6650 1638
6871 3874 3652
6872 2745 786 
6873 5486 6020
6874 3817 8885
6875 6147 5630
6876 9481 3420
6877 2498 6295
6878 829  8673
6879 3323 2065
6880 7121 1612
6881 9743 6153
6882 7794 3561
6883 3547 1157
6884 5673 6790
6885 8517 8168
6886 1638 8462
6887 147  959 
6888 6555 3471
6889 1273 5658
6890 6711 0   
6891 1791 6455
6892 3605 9360
6893 7624 4091
6894 3420 647 
6895 8986 6387
6896 2744 1248
6897 3877 2635
6898 6568 1289
6899 910  250 
6900 3886 8832
6901 4281 4360
6902 1009 5394
6903 1143 5267
6904 62   9914
6905 6898 6902
6906 821  598 
6907 8304 9186
6908 845  3952
6909 492  2264
6910 6511 7196
6911 8789 324 
6912 874  532 
6913 5099 7214
6914 5539 4445
6915 1597 1742
6916 1672 8496
6917 9035 972 
6918 815  7084
6919 9442 4329
6920 6789 1574
6921 9829 915 
6922 1375 8844
6923 7886 27  
6924 5599 6765
6925 9664 1247
6926 5501 3043
6927 9929 8498
6928 5155 5914
6929 7513 585 
6930 5594 846 
6931 9819 1646
6932 6845 7027
6933 6644 2495
6934 7515 5036
6935 2567 5586
6936 7788 3480
6937 5979 1125
6938 590  5800
6939 1225 1018
6940 3051 9936
6941 6001 6950
6942 2074 6548
6943 1407 1842
6944 374  6371
6945 9170 640 
6946 3983 1558
6947 1582 5712
6948 2322 2617
6949 2331 5333
6950 3977 1973
6951 6468 7954
6952 6984 1033
6953 2053 2063
6954 7988 18  
6955 9305 4060
6956 386  5393
6957 6035 8402
6958 4567 8284
6959 473  4965
6960 2535 8493
6961 7944 4767
6962 3279 1035
6963 4831 5142
6964 4451 8521
6965 4526 4032
6966 3410 5586
6967 7025 1741
6968 4792 7413
6969 6551 3559
6970 1400 7967
6971 7402 3625
6972 9122 1840
6973 1147 9263
6974 2430 5271
6975 7498 6587
6976 7821 3336
6977 4395 9359
6978 6954 7682
6979 1863 8532
6980 1208 3773
6981 3422 15  
6982 5086 2670
6983 4527 8833
6984 5819 624 
6985 4642 3658
6986 3279 4071
6987 4961 572 
6988 6731 4846
6989 8580 4353
6990 8058 6560
6991 1984 1019
6992 7164 7138
6993 9726 9265
6994 2487 7438
6995 4658 8732
6996 7647 9086
6997 7691 7302
6998 8812 2467
6999 7057 4165
7000 599  3941
7001 1618 1059
7002 5595 5717
7003 1089 2895
7004 5758 4811
7005 9851 6087
7006 9828 2230
7007 7415 3180
7008 2051 7472
7009 1339 1283
7010 7779 3557
7011 8433 2067
7012 4676 3196
7013 9063 1583
7014 7010 3262
7015 8643 817 
7016 4352 3613
7017 3649 1217
7018 2724 2560
7019 2274 9392
7020 2292 1114
7021 6129 8457
7022 4315 242 
7023 3314 8548
7024 8179 7246
7025 8158 625 
7026 1346 3478
7027 9718 2375
7028 1989 2208
7029 2787 2589
7030 9219 9647
7031 8658 3629
7032 7400 2275
7033 8271 3607
7034 1150 5332
7035 388  657 
7036 1195 4096
7037 1758 3882
7038 9120 3461
7039 8249 7873
7040 4532 3400
7041 3692 1962
7042 346  9072
7043 1619 9175
7044 1993 7642
7045 5588 8757
7046 6347 9981
7047 7211 567 
7048 9481 9680
7049 2806 5511
7050 1064 1616
7051 7495 8488
7052 9741 8919
7053 4952 5756
7054 2760 9878
7055 5571 6332
7056 9534 3557
7057 4549 9949
7058 6236 7622
7059 9312 1921
7060 5862 2084
7061 3108 4391
7062 7516 9323
7063 6435 6804
7064 7144 3871
7065 2922 7193
7066 4607 2669
7067 4540 8475
7068 6769 3226
7069 957  7227
7070 5839 6198
7071 437  1206
7072 8581 5127
7073 5944 9968
7074 5571 5995
7075 156  8163
7076 8994 5600
7077 217  2516
7078 75   4782
7079 942  1269
7080 8457 5798
7081 8260 7041
7082 1587 8360
7083 1037 9249
7084 8387 5849
7085 8923 2584
7086 2447 6986
7087 4176 4250
7088 7429 9504
7089 6779 2248
7090 3561 4729
7091 5875 5576
7092 1435 2426
7093 3046 5406
7094 1471 2829
7095 879  797 
7096 5959 176 
7097 4487 9637
7098 3245 6483
7099 6457 7176
7100 4849 7854
7101 9400 2410
7102 6914 6193
7103 7775 5756
7104 137  1370
7105 2223 4729
7106 4330 8729
7107 7098 546 
7108 3081 2192
7109 9544 3581
7110 2372 2360
7111 177  7822
7112 9216 7772
7113 3289 1213
7114 4264 737 
7115 5071 8355
7116 6021 3064
7117 8116 2214
7118 874  8791
7119 6742 2539
7120 1806 5858
7121 7571 5552
7122 8548 1381
7123 2929 4032
7124 3083 5193
7125 6620 9979
7126 4224 2241
7127 8627 659 
7128 1249 8889
7129 2630 6588
7130 8690 8686
7131 3574 3215
7132 1721 9433
7133 2275 7656
7134 5263 4572
7135 1741 8636
7136 2714 6590
7137 566  2323
7138 1541 1205
7139 5826 2841
7140 9834 8988
7141 7925 5678
7142 7579 9716
7143 2416 8553
7144 5075 8679
7145 7036 924 
7146 9580 6693
7147 761  8717
7148 4601 6702
7149 4899 6055
7150 6198 4380
7151 1521 5128
7152 349  1063
7153 8724 3276
7154 924  779 
7155 9287 699 
7156 486  8639
7157 767  7249
7158 6017 1839
7159 2716 9154
7160 6379 2261
7161 4746 4602
7162 7896 2314
7163 8741 1224
7164 2041 6807
7165 7607 6948
7166 6910 58  
7167 3090 1529
7168 6922 2054
7169 7376 4257
7170 6536 7165
7171 6401 289 
7172 4942 3964
7173 4012 623 
7174 8227 9753
7175 9877 9525
7176 7239 666 
7177 8843 4357
7178 6313 5813
7179 1658 3491
7180 5779 2395
7181 4692 4875
7182 1200 7158
7183 203  9241
7184 9655 6919
7185 9123 6542
7186 5140 6233
7187 7645 5629
7188 3805 5598
7189 7604 7499
7190 3582 5366
7191 3668 4487
7192 5339 3242
7193 8220 8666
7194 885  7116
7195 7521 7712
7196 8494 2888
7197 3738 2393
7198 5512 6116
7199 5798 274 
7200 5610 2955
7201 7378 9228
7202 6192 4351
7203 7346 6914
7204 3381 2095
7205 4461 1337
7206 2224 6888
7207 4743 2061
7208 2786 5675
7209 9607 5971
7210 4123 1508
7211 2726 8152
7212 7933 7651
7213 8675 9105
7214 929  3871
7215 8512 2454
7216 2352 4720
7217 1598 271 
7218 1012 8767
7219 9821 960 
7220 1169 9144
7221 1854 7472
7222 8464 8180
7223 5920 6462
7224 2697 504 
7225 3508 9777
7226 9815 6803
7227 1407 2630
7228 6783 6045
7229 1269 4949
7230 5233 1976
7231 9669 8384
7232 7139 2257
7233 4635 9897
7234 8241 4879
7235 6137 4874
7236 2229 4244
7237 6954 2278
7238 463  2335
7239 1309 4288
7240 1259 5524
7241 3568 6745
7242 6903 1350
7243 5086 1426
7244 3291 6972
7245 9798 7024
7246 5464 5674
7247 6934 5502
7248 2496 4859
7249 5434 1562
7250 2962 5445
7251 4432 4611
7252 6308 7025
7253 3960 8814
7254 3773 3756
7255 1326 3220
7256 3918 3038
7257 8452 7546
7258 59   4382
7259 7759 1712
7260 9597 6791
7261 4581 6250
7262 4704 9497
7263 5341 1048
7264 9282 9753
7265 510  4164
7266 4189 3717
7267 519  9199
7268 9966 8062
7269 5183 6825
7270 3391 4302
7271 9398 1713
7272 6162 4186
7273 4982 425 
7274 969  8272
7275 2933 5549
7276 6041 7721
7277 8118 9913
7278 4758 2626
7279 8363 4913
7280 1008 68  
7281 9937 6826
7282 1303 9206
7283 1013 9858
7284 9538 7338
7285 5648 2305
7286 4628 9703
7287 7337 6852
7288 1244 1179
7289 4097 3146
7290 7864 9633
7291 3386 5389
7292 992  3356
7293 6920 1784
7294 5595 3725
7295 7490 6614
7296 9063 1546
7297 7676 44  
7298 3130 5113
7299 7335 899 
7300 7750 8449
7301 4880 7368
7302 4285 8779
7303 6161 6146
7304 8088 9358
7305 7091 3319
7306 9122 3662
7307 9368 5386
7308 7550 1115
7309 5521 7045
7310 6357 7054
7311 3529 4302
7312 75   1220
7313 9129 8463
7314 2560 6937
7315 3874 5153
7316 5244 2325
7317 2811 7047
7318 1218 1873
7319 2940 9860
7320 609  7350
7321 599  3562
7322 324  488 
7323 956  5469
7324 2171 5420
7325 8131 5739
7326 3941 3252
7327 4953 6702
7328 7909 5051
7329 9203 4864
7330 3468 5980
7331 3216 2957
7332 5395 2539
7333 3215 4901
7334 5406 50  
7335 2905 7307
7336 7986 3172
7337 4785 1941
7338 4547 1638
7339 7242 3607
7340 4828 4632
7341 9106 7370
7342 4120 6376
7343 7911 411 
7344 812  5381
7345 8497 437 
7346 9178 8197
7347 6876 6644
7348 2221 5852
7349 1441 5226
7350 8254 8312
7351 6596 5242
7352 1932 5118
7353 9550 66  
7354 9082 5779
7355 7475 4245
7356 7571 3026
7357 2672 1808
7358 2294 9448
7359 4123 6748
7360 6127 5615
7361 2738 2934
7362 5255 6337
7363 5178 1338
7364 9707 8828
7365 8837 32  
7366 8596 8517
7367 8726 2593
7368 2996 1585
7369 9526 9721
7370 6595 7609
7371 8530 5858
7372 1127 9031
7373 7300 5883
7374 4466 518 
7375 3468 5598
7376 9815 2459
7377 152  3958
7378 4387 5521
7379 2491 3836
7380 4363 9139
7381 2904 831 
7382 5744 9821
7383 8978 3923
7384 1772 7454
7385 9821 9976
7386 6592 2175
7387 9061 4573
7388 7500 245 
7389 2101 2683
7390 9939 7153
7391 7463 7480
7392 4270 8410
7393 3176 9448
7394 7006 9904
7395 1760 9950
7396 6327 7995
7397 5592 5110
7398 5042 4587
7399 2626 9478
7400 8159 8487
7401 7487 5842
7402 1005 5454
7403 1381 9356
7404 4990 9026
7405 8823 573 
7406 7237 3124
7407 1669 8527
7408 4730 1226
7409 2299 480 
7410 6788 6025
7411 2671 9271
7412 5677 3544
7413 976  8925
7414 5323 8963
7415 9082 6748
7416 3499 4989
7417 6432 2380
7418 5895 94  
7419 5613 7655
7420 3889 5590
7421 3923 1398
7422 1257 3576
7423 9909 8724
7424 7889 3896
7425 7006 8351
7426 666  1284
7427 9926 7931
7428 618  8256
7429 9443 7812
7430 3193 8055
7431 7756 680 
7432 8523 3665
7433 8649 750 
7434 2664 8514
7435 8278 5846
7436 2980 5192
7437 6293 2760
7438 7167 5228
7439 4614 4310
7440 8766 638 
7441 6888 3641
7442 8660 1113
7443 6055 3692
7444 4110 9337
7445 1922 4341
7446 5625 5036
7447 4488 4852
7448 5950 118 
7449 2436 4279
7450 7089 2659
7451 7811 1564
7452 8347 7965
7453 8824 553 
7454 4102 4388
7455 9880 5257
7456 6193 3155
7457 4365 7895
7458 7372 4577
7459 6663 2337
7460 2517 2940
7461 6648 6468
7462 3114 6638
7463 5673 5425
7464 2710 9151
7465 8593 2579
7466 4461 8162
7467 2682 9684
7468 8839 9557
7469 7443 6651
7470 9620 7901
7471 8033 9106
7472 8329 4829
7473 1227 6935
7474 9093 1851
7475 6781 4750
7476 2007 8635
7477 7234 1892
7478 2562 3674
7479 8099 312 
7480 7522 4263
7481 9723 5358
7482 5053 6440
7483 2111 83  
7484 535  2365
7485 5979 5043
7486 3364 603 
7487 1412 5197
7488 4868 3415
7489 7075 8752
7490 1605 3644
7491 7014 3570
7492 7984 1506
7493 2128 4060
7494 5619 7736
7495 59   7275
7496 5533 8324
7497 938  9867
7498 9131 836 
7499 4771 4951
7500 9991 7399
7501 4056 1700
7502 3160 1433
7503 9554 592 
7504 4259 5682
7505 7075 3228
7506 982  4679
7507 4053 4369
7508 980  708 
7509 1534 103 
7510 5035 9747
7511 5339 7900
7512 955  5078
7513 9833 9869
7514 2090 9579
7515 4763 2032
7516 3951 4939
7517 7186 957 
7518 771  8104
7519 7163 7716
7520 7300 4021
7521 5509 259 
7522 9501 6278
7523 5307 5044
7524 6188 2881
7525 7720 7468
7526 385  590 
7527 993  1297
7528 4648 8052
7529 179  2434
7530 2584 9517
7531 626  6633
7532 2475 3411
7533 3235 1925
7534 1338 278 
7535 3637 1826
7536 9143 8599
7537 8408 7620
7538 30   8281
7539 2121 8819
7540 8387 1870
7541 4661 3833
7542 445  8168
7543 4756 2763
7544 8988 3560
7545 7550 7135
7546 5455 6323
7547 2079 0   
7548 2535 706 
7549 3002 2969
7550 6785 7906
7551 2967 7065
7552 5088 5274
7553 1684 4547
7554 4217 8703
7555 8731 2491
7556 9181 2666
7557 8804 7578
7558 1963 6657
7559 3226 132 
7560 2697 3206
7561 7347 4276
7562 3343 6424
7563 7017 8885
7564 5505 3867
7565 6667 7811
7566 4242 6458
7567 9782 8935
7568 6268 5883
7569 8617 3462
7570 5687 664 
7571 9418 4837
7572 260  742 
7573 9665 5713
7574 7127 1731
7575 779  5850
7576 7151 8210
7577 4976 627 
7578 1511 9661
7579 9943 5267
7580 9256 2261
7581 1591 3253
7582 1903 5767
7583 7742 9573
7584 8198 1338
7585 541  8005
7586 7231 1616
7587 1213 4000
7588 8050 3591
7589 2515 5654
7590 1021 67  
7591 4195 592 
7592 6869 8848
7593 7625 1177
7594 6277 1930
7595 7814 5384
7596 7787 1061
7597 7566 3006
7598 9992 6678
7599 8880 2979
7600 2285 260 
7601 5348 3375
7602 2831 5866
7603 8171 5558
7604 7120 7003
7605 7448 1837
7606 5145 847 
7607 4132 8693
7608 9915 1814
7609 3090 4714
7610 8752 4364
7611 9594 3087
7612 6696 8930
7613 7857 1372
7614 1663 6608
7615 4103 656 
7616 7128 9037
7617 3382 6566
7618 8051 4331
7619 412  8562
7620 2946 8486
7621 3166 4928
7622 1619 9565
7623 9927 3041
7624 3547 6290
7625 7247 8341
7626 5026 8363
7627 3528 8522
7628 8456 1203
7629 2049 6794
7630 7524 2792
7631 642  8008
7632 1712 5301
7633 3171 9604
7634 2495 8370
7635 7800 6929
7636 2247 8653
7637 7939 6827
7638 2115 4040
7639 5293 5585
7640 2491 388 
7641 4639 4544
7642 3400 5391
7643 9456 1062
7644 5506 885 
7645 9804 1651
7646 5293 539 
7647 3241 4029
7648 7258 9419
7649 1108 2067
7650 1999 2864
7651 8091 854 
7652 5769 954 
7653 755  4210
7654 3653 2349
7655 5269 579 
7656 4707 5823
7657 3911 6174
7658 1565 5388
7659 1012 7462
7660 4187 1963
7661 255  5591
7662 2618 6534
7663 9030 7342
7664 4329 186 
7665 5161 8576
7666 3846 2023
7667 595  7315
7668 204  6350
7669 9557 7488
7670 7635 1328
7671 1891 5014
7672 2742 2095
7673 5461 8168
7674 4154 7211
7675 9748 9416
7676 7755 8595
7677 297  885 
7678 7360 6631
7679 9422 5741
7680 8242 5982
7681 7848 4549
7682 2854 3918
7683 2012 6032
7684 5210 1405
7685 7120 7080
7686 154  8009
7687 8357 5721
7688 657  7771
7689 1161 947 
7690 7871 353 
7691 5561 170 
7692 9033 3392
7693 792  7133
7694 9466 5110
7695 4437 7398
7696 3682 1304
7697 7427 8783
7698 5197 7929
7699 2563 971 
7700 7112 6260
7701 1287 2750
7702 1682 5053
7703 8384 9431
7704 9328 8364
7705 351  9168
7706 9293 2150
7707 3046 6964
7708 8940 4438
7709 7026 1652
7710 1371 443 
7711 3944 1143
7712 7965 9675
7713 1100 3966
7714 6125 5480
7715 6841 2134
7716 4106 8540
7717 4720 2481
7718 2904 1139
7719 2634 7685
7720 8655 8962
7721 2961 2676
7722 8931 2152
7723 1979 6762
7724 2138 7979
7725 9452 6539
7726 5361 1772
7727 3126 861 
7728 9099 2768
7729 6794 2335
7730 7099 4087
7731 7694 4490
7732 598  5986
7733 7381 6369
7734 6363 9999
7735 9626 6454
7736 9072 6273
7737 8374 3583
7738 5539 7013
7739 8651 8007
7740 9905 8925
7741 3076 4548
7742 7745 9839
7743 6286 6028
7744 1040 9312
7745 8570 6349
7746 3292 4329
7747 6354 8026
7748 6660 9783
7749 2859 2298
7750 8775 5407
7751 8396 6155
7752 4616 6798
7753 3914 1259
7754 1040 7519
7755 5892 9381
7756 4427 8195
7757 5127 3833
7758 3200 5420
7759 2410 5461
7760 9952 5456
7761 7061 2309
7762 7014 7384
7763 8194 2360
7764 7503 7461
7765 9220 9116
7766 960  4800
7767 9553 1724
7768 193  4634
7769 5638 8639
7770 9085 887 
7771 5581 4691
7772 3093 4524
7773 5046 5642
7774 5791 4832
7775 9171 786 
7776 713  661 
7777 6043 4595
7778 1725 6848
7779 8424 7433
7780 3115 626 
7781 3398 4623
7782 4592 1965
7783 7470 8830
7784 8550 2923
7785 4249 2949
7786 6563 5109
7787 1836 421 
7788 9077 3390
7789 3790 5985
7790 48   4123
7791 3856 5774
7792 4405 1778
7793 3243 3251
7794 7695 8432
7795 8557 4522
7796 1502 1344
7797 9602 6281
7798 9281 3258
7799 4766 2441
7800 6111 4728
7801 6058 3444
7802 7587 3707
7803 1091 6885
7804 4605 5524
7805 6645 7671
7806 1685 8130
7807 365  623 
7808 5110 3763
7809 2310 7319
7810 5723 1445
7811 3891 6922
7812 7699 7883
7813 4163 8462
7814 3915 9837
7815 922  9656
7816 6710 4084
7817 4450 1333
7818 12   1593
7819 3141 9331
7820 2358 6227
7821 9553 8322
7822 2777 9832
7823 8961 2668
7824 2048 2616
7825 1135 3263
7826 7556 885 
7827 9596 7340
7828 1442 9220
7829 2426 9458
7830 6668 9748
7831 4280 3058
7832 5119 556 
7833 377  9069
7834 9046 3655
7835 7484 4558
7836 6837 4019
7837 9490 5495
7838 9318 1043
7839 7148 5263
7840 1992 8227
7841 7775 4358
7842 8961 6316
7843 3791 2878
7844 305  6238
7845 1181 2474
7846 690  7696
7847 5793 5704
7848 1901 2463
7849 1095 2536
7850 3916 3337
7851 2996 7660
7852 3787 2020
7853 7382 7032
7854 2633 8386
7855 745  2409
7856 8998 7203
7857 191  5499
7858 2785 7464
7859 3453 1037
7860 827  2463
7861 7843 8891
7862 584  452 
7863 4463 524 
7864 5413 2698
7865 7130 9972
7866 3545 8504
7867 2561 6267
7868 4728 4123
7869 2640 9846
7870 4608 5514
7871 5021 9336
7872 5868 7408
7873 9787 5000
7874 4655 1395
7875 9586 5451
7876 1635 3663
7877 6794 3249
7878 4504 1095
7879 3170 1951
7880 2417 1323
7881 5953 5582
7882 2552 5153
7883 6259 3361
7884 7612 2776
7885 6308 9181
7886 136  7011
7887 233  3074
7888 9275 2607
7889 1065 1571
7890 2496 3276
7891 704  1605
7892 8245 3568
7893 5072 8941
7894 8694 5241
7895 7415 4926
7896 2588 1151
7897 1108 8355
7898 3466 3441
7899 155  5256
7900 5625 5461
7901 2254 2210
7902 6547 8862
7903 975  4855
7904 8318 7331
7905 2527 595 
7906 9429 1789
7907 8539 5799
7908 1203 9135
7909 6978 844 
7910 9330 82  
7911 8844 3421
7912 2567 8918
7913 7076 3521
7914 6614 1583
7915 5605 7346
7916 6783 880 
7917 9093 3827
7918 29   4374
7919 5195 954 
7920 5164 8036
7921 2885 7866
7922 2954 6740
7923 6957 9864
7924 5731 8585
7925 7844 9278
7926 5434 4377
7927 1877 2574
7928 7    5443
7929 5496 7987
7930 8600 2451
7931 822  5176
7932 2191 8714
7933 9287 5630
7934 4768 8746
7935 9412 1269
7936 6827 7247
7937 7999 7029
7938 2792 2583
7939 6227 7248
7940 3797 5436
7941 1388 6668
7942 5286 6307
7943 3904 4038
7944 739  4937
7945 618  3899
7946 6339 1255
7947 4655 1235
7948 288  3963
7949 431  1059
7950 8013 2438
7951 6784 7774
7952 490  9053
7953 4427 1657
7954 8453 4194
7955 6540 8821
7956 454  4134
7957 2244 3515
7958 8958 6891
7959 8417 2835
7960 7922 2259
7961 3656 6043
7962 3759 2096
7963 7074 8211
7964 4205 5293
7965 5010 6863
7966 6606 5124
7967 6822 7135
7968 414  3319
7969 4500 3104
7970 6368 2385
7971 4873 9437
7972 8076 2629
7973 4737 4755
7974 1687 9923
7975 3606 4637
7976 5559 4090
7977 7399 5962
7978 4541 2852
7979 1392 1220
7980 3252 3540
7981 4773 8787
7982 6367 859 
7983 7516 6464
7984 5827 2151
7985 4689 6843
7986 8762 9817
7987 6868 5804
7988 3988 1027
7989 321  4559
7990 2631 8700
7991 1730 4677
7992 1518 9442
7993 9365 1703
7994 1736 4634
7995 3895 4825
7996 9929 5659
7997 2771 316 
7998 4779 4235
7999 6250 2513
8000 4146 236 
8001 4552 9110
8002 9539 5301
8003 5187 9362
8004 3370 8052
8005 3172 4628
8006 6230 6457
8007 3207 7116
8008 7544 7418
8009 8180 2059
8010 3228 4296
8011 132  6381
8012 1929 7211
8013 3960 162 
8014 6533 6646
8015 4381 1798
8016 1853 3804
8017 9154 1683
8018 7869 4274
8019 7492 8211
8020 5905 9780
8021 8944 4795
8022 6098 316 
8023 5557 8404
8024 8447 2429
8025 2905 6782
8026 8458 9319
8027 6545 5471
8028 403  2264
8029 2795 4727
8030 4190 7952
8031 9981 1069
8032 1971 407 
8033 8728 7817
8034 3485 9362
8035 3284 3444
8036 371  3286
8037 7146 9623
8038 9811 3179
8039 1920 7874
8040 3946 9894
8041 5634 4845
8042 1133 8872
8043 89   2018
8044 2665 2579
8045 9215 576 
8046 4561 9231
8047 7053 5571
8048 9669 171 
8049 2360 9606
8050 4462 2520
8051 3224 4600
8052 495  1607
8053 4561 4826
8054 7715 9264
8055 4764 9670
8056 4939 3536
8057 7350 6978
8058 3071 7688
8059 7638 7714
8060 379  4622
8061 8012 2395
8062 6224 8317
8063 6062 775 
8064 3951 6250
8065 7499 7549
8066 6035 8101
8067 5054 298 
8068 8534 7784
8069 9710 5315
8070 8988 6938
8071 5739 4370
8072 4048 7000
8073 7350 344 
8074 1159 9946
8075 5069 6723
8076 4090 9789
8077 4701 8299
8078 5112 4601
8079 5829 9755
8080 562  3199
8081 3489 2368
8082 2868 5796
8083 8387 8027
8084 7211 6692
8085 5878 5509
8086 9185 3951
8087 7249 885 
8088 3305 5457
8089 926  3538
8090 5618 3070
8091 7508 2766
8092 3267 6244
8093 9288 4900
8094 4564 5198
8095 7975 3194
8096 1372 2941
8097 4221 6826
8098 2325 9413
8099 938  1431
8100 2482 9310
8101 3551 2869
8102 2419 8168
8103 9160 7629
8104 1653 5121
8105 5740 5671
8106 7952 6888
8107 5998 2631
8108 886  7155
8109 5485 8049
8110 4472 7619
8111 2048 8619
8112 9862 9218
8113 3379 3053
8114 5892 9044
8115 3517 5978
8116 2210 1360
8117 3204 572 
8118 1332 921 
8119 3248 7876
8120 795  4725
8121 4750 8742
8122 4129 271 
8123 243  1944
8124 9669 1722
8125 4258 7052
8126 376  8940
8127 5109 1094
8128 8775 299 
8129 8549 7785
8130 2508 2164
8131 7574 1176
8132 7810 9899
8133 8132 2382
8134 321  5391
8135 7963 2160
8136 1197 7   
8137 1160 6011
8138 5171 9694
8139 9617 2149
8140 9036 1487
8141 6819 8281
8142 8313 7583
8143 5273 7192
8144 6913 6862
8145 4411 1456
8146 5507 6183
8147 9561 6632
8148 5124 628 
8149 1194 6292
8150 9864 9906
8151 6743 1409
8152 270  9717
8153 5700 4542
8154 7805 6246
8155 9957 3460
8156 3033 9067
8157 8637 711 
8158 540  9730
8159 8952 1454
8160 1665 8519
8161 5053 2393
8162 4826 7661
8163 6374 9647
8164 5062 4837
8165 2567 756 
8166 481  2531
8167 7282 3075
8168 6782 3811
8169 7553 4718
8170 3639 4553
8171 5130 5973
8172 5224 4924
8173 133  8220
8174 7671 8921
8175 3261 9190
8176 5613 8011
8177 7395 5954
8178 4738 3302
8179 2619 6446
8180 937  9492
8181 1398 1584
8182 9122 3137
8183 5745 4984
8184 7317 7903
8185 6966 7655
8186 3758 7956
8187 1168 5747
8188 5887 4902
8189 6882 9619
8190 6788 6758
8191 2965 1600
8192 6207 105 
8193 6728 6764
8194 1768 1451
8195 5539 2122
8196 2491 9612
8197 1282 8654
8198 8398 4226
8199 539  3648
8200 7901 6278
8201 8017 2441
8202 1897 6383
8203 843  5346
8204 9178 546 
8205 2770 6970
8206 914  9309
8207 1185 5894
8208 9658 5700
8209 9218 4825
8210 842  2011
8211 4825 7945
8212 1866 3714
8213 1027 120 
8214 9958 8142
8215 9157 1476
8216 7436 5684
8217 1746 1196
8218 9716 8566
8219 2494 9454
8220 5304 998 
8221 9785 8569
8222 4409 3994
8223 4451 7007
8224 9448 4862
8225 2249 3530
8226 4854 7132
8227 4033 4628
8228 3286 1819
8229 937  8707
8230 1861 5248
8231 387  5968
8232 6031 1978
8233 9382 5924
8234 2666 8734
8235 6901 9686
8236 5015 875 
8237 125  8949
8238 8763 173 
8239 9863 1124
8240 4592 7233
8241 7221 6026
8242 3192 4375
8243 1067 4920
8244 7650 5147
8245 1394 490 
8246 4057 1802
8247 3063 5145
8248 834  5990
8249 3569 6855
8250 3967 7792
8251 2248 3658
8252 5515 8314
8253 9580 6839
8254 3980 4483
8255 9414 9587
8256 3074 5535
8257 5781 407 
8258 4505 6414
8259 3181 6109
8260 7057 1165
8261 3539 234 
8262 7536 2040
8263 1365 2130
8264 1931 2994
8265 2321 6480
8266 3114 9035
8267 7599 6005
8268 8254 5064
8269 4577 4904
8270 3726 5408
8271 4562 6219
8272 7125 4539
8273 246  9777
8274 3392 9287
8275 2569 669 
8276 3779 7218
8277 3253 2527
8278 2863 3111
8279 8886 1310
8280 3781 8714
8281 3650 8137
8282 2801 7484
8283 509  1875
8284 9476 5115
8285 6998 392 
8286 565  6534
8287 6144 2761
8288 4410 7501
8289 8885 4562
8290 4628 1271
8291 251  3105
8292 6963 6332
8293 3347 3568
8294 9904 413 
8295 7410 8548
8296 3808 9516
8297 4409 2048
8298 8754 3026
8299 8827 5084
8300 2914 2042
8301 5691 445 
8302 8593 5001
8303 5734 8198
8304 6991 9972
8305 2755 7607
8306 1448 1931
8307 4021 5826
8308 5865 5322
8309 1476 5850
8310 2719 3404
8311 5692 961 
8312 8218 8913
8313 2103 4570
8314 6759 2812
8315 2157 8800
8316 8426 7621
8317 1901 7652
8318 375  6518
8319 3696 6429
8320 9281 7986
8321 879  359 
8322 5076 9830
8323 965  4929
8324 5370 4262
8325 7896 1854
8326 4618 100 
8327 2368 3886
8328 1933 9402
8329 9025 8932
8330 8600 7235
8331 2346 5525
8332 103  682 
8333 6050 8152
8334 7302 3569
8335 4665 1884
8336 5149 5905
8337 8443 2721
8338 41   7086
8339 7642 2868
8340 2816 3865
8341 4904 3424
8342 5186 1982
8343 9999 7624
8344 8319 6051
8345 1393 1742
8346 4449 8162
8347 7925 820 
8348 3060 2713
8349 4003 1037
8350 9508 5960
8351 9084 2077
8352 6847 1390
8353 7456 2931
8354 9956 5681
8355 7764 5693
8356 2248 7325
8357 7969 8660
8358 4981 9503
8359 5245 7597
8360 197  5538
8361 6587 6710
8362 9773 3531
8363 295  9332
8364 3476 524 
8365 6591 19  
8366 6594 4652
8367 5600 1535
8368 7519 4500
8369 5699 2225
8370 4501 8152
8371 6012 6296
8372 9446 3347
8373 4668 7295
8374 8560 2565
8375 6968 2781
8376 6294 1229
8377 5524 3015
8378 4316 7297
8379 2862 9230
8380 8758 2976
8381 9049 220 
8382 4646 4297
8383 2169 3659
8384 8241 5395
8385 6042 7776
8386 7500 2778
8387 9491 5297
8388 9949 9781
8389 1123 5525
8390 1839 1799
8391 7196 8243
8392 427  1226
8393 2924 3220
8394 906  3985
8395 5019 655 
8396 9611 2562
8397 7822 4658
8398 2158 4728
8399 4928 4075
8400 6437 7343
8401 6706 585 
8402 7260 1440
8403 5257 6235
8404 193  954 
8405 1211 428 
8406 8293 5870
8407 5475 4415
8408 6654 8287
8409 5892 9411
8410 6367 7170
8411 6459 8287
8412 3441 3825
8413 5947 6102
8414 7002 7410
8415 5612 6042
8416 1522 4293
8417 6116 2939
8418 798  5983
8419 1433 8513
8420 1986 8697
8421 6239 7381
8422 9139 3989
8423 3380 5626
8424 7756 9346
8425 4178 8537
8426 7757 6052
8427 3841 1232
8428 1655 5685
8429 828  5728
8430 7906 9816
8431 9631 5184
8432 9441 4899
8433 3831 4016
8434 2661 4426
8435 70   1419
8436 9836 8703
8437 3296 7088
8438 8674 9807
8439 6960 366 
8440 3415 2674
8441 9781 2702
8442 4678 8233
8443 9878 4697
8444 4005 6865
8445 3212 4780
8446 1638 2102
8447 5032 6694
8448 2713 4643
8449 7740 5561
8450 7413 7719
8451 5719 9177
8452 5439 732 
8453 9403 9280
8454 2760 6039
8455 2749 2857
8456 4533 1501
8457 3168 8364
8458 3345 3319
8459 662  9148
8460 4797 7716
8461 3919 1873
8462 9774 5514
8463 3559 2662
8464 874  5453
8465 3579 3884
8466 9927 2456
8467 6504 2346
8468 5952 6700
8469 5904 7363
8470 9932 7891
8471 7023 7078
8472 1258 6188
8473 2967 6817
8474 8395 1753
8475 4653 7562
8476 1293 5248
8477 8993 7839
8478 7467 1866
8479 2431 4477
8480 9434 6971
8481 9011 2483
8482 7610 1506
8483 7483 7721
8484 5870 6935
8485 9817 4380
8486 7921 8367
8487 3093 3896
8488 8342 2050
8489 276  9621
8490 8493 1690
8491 5613 4411
8492 2612 5533
8493 2727 115 
8494 8666 7422
8495 5350 6679
8496 3659 2580
8497 1234 713 
8498 568  6828
8499 2386 991 
8500 9538 7793
8501 601  8887
8502 3001 3658
8503 1604 4298
8504 2730 7120
8505 2699 3263
8506 5347 2640
8507 156  5594
8508 6882 5038
8509 6692 3307
8510 8779 1352
8511 5609 6882
8512 6531 5675
8513 5378 611 
8514 5096 5362
8515 7935 2327
8516 4525 1462
8517 8233 673 
8518 5565 660 
8519 5607 997 
8520 5241 4308
8521 8199 7484
8522 6493 399 
8523 151  8109
8524 5555 4267
8525 9964 6710
8526 3648 5274
8527 2677 4643
8528 1629 2146
8529 4881 4601
8530 6763 3847
8531 4135 8207
8532 765  6548
8533 6033 1921
8534 3279 5350
8535 8760 2274
8536 3404 4061
8537 2559 9379
8538 356  2303
8539 6330 3750
8540 140  1980
8541 6061 2783
8542 8079 6874
8543 4487 1730
8544 9427 658 
8545 2478 990 
8546 9486 1049
8547 6986 5388
8548 1698 3466
8549 5613 829 
8550 2840 3159
8551 1747 4951
8552 9440 3166
8553 9012 8496
8554 9810 448 
8555 5526 5464
8556 7588 9350
8557 9771 5410
8558 534  4517
8559 7677 2795
8560 5574 7779
8561 1099 8152
8562 8501 5300
8563 7685 7167
8564 370  7942
8565 7581 162 
8566 2937 4417
8567 62   5901
8568 6438 7652
8569 2207 713 
8570 5932 2855
8571 5271 4727
8572 7548 6902
8573 237  8709
8574 4367 5697
8575 2162 9863
8576 7257 2292
8577 8562 2807
8578 527  4311
8579 757  7549
8580 5584 3511
8581 9439 8086
8582 1676 2047
8583 7613 2168
8584 4135 2536
8585 317  1424
8586 8922 3122
8587 5189 9348
8588 4594 9155
8589 4458 4081
8590 3774 9846
8591 3561 972 
8592 1223 6409
8593 5167 2715
8594 152  7859
8595 5060 7497
8596 2795 3112
8597 9415 3067
8598 6274 7001
8599 7784 3098
8600 5776 6641
8601 1242 4760
8602 62   6714
8603 2725 7114
8604 6810 7924
8605 5530 6049
8606 944  2046
8607 7365 8370
8608 3579 9919
8609 8999 6211
8610 8743 9466
8611 6003 1818
8612 8382 439 
8613 1111 1908
8614 2584 1923
8615 4632 2861
8616 6682 3684
8617 6881 3964
8618 5133 7603
8619 648  2556
8620 8640 6210
8621 5371 3741
8622 9565 2823
8623 2333 9927
8624 488  9420
8625 8058 3101
8626 1638 4761
8627 8286 5809
8628 2314 5914
8629 4822 1322
8630 7549 7706
8631 8269 3541
8632 5556 272 
8633 8972 1262
8634 1572 2607
8635 4904 5139
8636 2106 4676
8637 2670 1556
8638 9241 5352
8639 9693 8816
8640 9051 480 
8641 6067 8680
8642 2032 5547
8643 8942 6623
8644 460  1102
8645 3194 2362
8646 1317 5233
8647 6417 4450
8648 6340 7607
8649 1406 6407
8650 1170 2508
8651 4204 2861
8652 1661 1280
8653 6405 1550
8654 4836 9305
8655 3705 6280
8656 5303 2278
8657 3967 3296
8658 9882 5817
8659 9591 9074
8660 8562 1312
8661 4271 6198
8662 3188 917 
8663 1380 6326
8664 4314 1639
8665 5792 8675
8666 9766 4026
8667 3040 7996
8668 5721 6410
8669 9618 4854
8670 5580 8986
8671 6017 8755
8672 4078 20  
8673 9401 3164
8674 977  5551
8675 1810 2368
8676 5797 1515
8677 7972 7464
8678 4221 7851
8679 8173 3686
8680 3188 1353
8681 5774 6857
8682 1197 2187
8683 4805 4479
8684 8413 7176
8685 2335 5134
8686 3519 1648
8687 8286 3446
8688 1757 8107
8689 8495 1166
8690 1813 7694
8691 659  3654
8692 4811 3427
8693 7267 3410
8694 1900 7920
8695 622  1003
8696 657  1317
8697 5561 3088
8698 2544 976 
8699 5754 4660
8700 6480 7524
8701 507  5784
8702 7455 5235
8703 9487 6430
8704 6406 2911
8705 5267 8078
8706 965  3507
8707 3368 8756
8708 9709 3643
8709 6715 1993
8710 1853 2417
8711 3944 9944
8712 2654 623 
8713 5140 5443
8714 6826 4593
8715 1270 753 
8716 4003 788 
8717 411  1648
8718 5226 9441
8719 8642 9634
8720 3130 9166
8721 3552 9976
8722 3473 2815
8723 59   9130
8724 6562 7621
8725 6608 376 
8726 1576 3440
8727 7791 7692
8728 4685 5804
8729 7286 1848
8730 3001 5170
8731 4829 8756
8732 5319 8223
8733 2877 9965
8734 2903 5295
8735 1807 7315
8736 7546 7149
8737 1825 657 
8738 7107 4021
8739 1342 4860
8740 6921 496 
8741 8556 2070
8742 4586 9449
8743 1736 6594
8744 2821 6795
8745 2836 1973
8746 3602 9339
8747 664  9573
8748 9885 704 
8749 777  9226
8750 8704 5926
8751 146  3389
8752 6700 1323
8753 6292 6021
8754 7584 8739
8755 6003 5761
8756 4898 390 
8757 6402 201 
8758 4714 5482
8759 8441 9247
8760 8938 2604
8761 9288 3935
8762 10   4847
8763 9289 5610
8764 8574 2896
8765 8036 6850
8766 3171 3857
8767 5917 730 
8768 3983 2808
8769 4183 2698
8770 3231 915 
8771 7485 148 
8772 6430 3298
8773 3125 8306
8774 9389 5270
8775 8841 7040
8776 5917 508 
8777 8514 3773
8778 7677 8360
8779 6160 6692
8780 3515 8185
8781 5914 5891
8782 5156 3918
8783 2921 1660
8784 8582 7427
8785 5349 9884
8786 6808 4395
8787 5437 264 
8788 3333 3270
8789 2438 6122
8790 2117 7028
8791 6258 6822
8792 7560 1085
8793 7854 7138
8794 9761 4318
8795 7991 8985
8796 2688 5077
8797 4631 9846
8798 7290 2367
8799 8297 9162
8800 140  1791
8801 4560 9487
8802 4950 8358
8803 4930 5415
8804 6759 1589
8805 6307 3552
8806 2008 2129
8807 6349 6980
8808 9862 2306
8809 3572 9353
8810 6959 9609
8811 3896 842 
8812 329  2540
8813 9483 1427
8814 7179 209 
8815 3592 695 
8816 3699 3559
8817 942  4978
8818 3083 8643
8819 2990 1306
8820 6898 7580
8821 3179 7768
8822 4535 8571
8823 2370 3419
8824 3258 5714
8825 4782 3717
8826 1805 7075
8827 2259 6554
8828 3236 6276
8829 1064 9577
8830 9009 4726
8831 6497 7593
8832 4874 4790
8833 7813 3697
8834 7400 1844
8835 5812 7443
8836 859  7624
8837 4353 4925
8838 8142 8681
8839 8512 6824
8840 4942 2588
8841 9484 7266
8842 4855 2501
8843 729  8753
8844 3252 5656
8845 9523 4679
8846 1351 6043
8847 9891 9333
8848 8093 8364
8849 8766 7082
8850 2801 2678
8851 1223 8938
8852 5053 1550
8853 2278 4346
8854 9969 4452
8855 4088 6900
8856 9061 6473
8857 4360 3245
8858 8069 4907
8859 8032 5838
8860 4694 6319
8861 7500 3588
8862 3181 8573
8863 3952 8367
8864 8611 5028
8865 6279 791 
8866 641  8021
8867 8599 5054
8868 8633 2992
8869 1375 1192
8870 1493 6464
8871 6605 6532
8872 9754 2825
8873 2117 2542
8874 1208 9102
8875 5940 871 
8876 9549 8167
8877 1957 4374
8878 6649 2485
8879 3411 1408
8880 7945 1651
8881 6872 4352
8882 8695 2087
8883 6115 475 
8884 9896 366 
8885 9279 9604
8886 5570 5684
8887 8227 3058
8888 2366 4517
8889 5595 6088
8890 8883 5866
8891 5041 1563
8892 223  3712
8893 8724 4761
8894 2372 9833
8895 3672 4797
8896 3535 2329
8897 3791 6111
8898 5953 5298
8899 8400 2721
8900 8100 2594
8901 9781 5708
8902 9170 6600
8903 4479 3840
8904 479  5472
8905 1849 181 
8906 8590 406 
8907 3818 706 
8908 172  6145
8909 2615 1788
8910 9331 3303
8911 3737 8595
8912 8128 5106
8913 9951 9755
8914 4431 6   
8915 7649 3465
8916 9300 3846
8917 9560 6284
8918 7143 4502
8919 2281 902 
8920 6411 670 
8921 8406 4561
8922 2220 9734
8923 8292 8315
8924 119  1443
8925 1755 2321
8926 7700 1833
8927 2175 1271
8928 2985 657 
8929 3701 2117
8930 5534 8638
8931 2575 3079
8932 2528 936 
8933 7206 4553
8934 9478 5801
8935 4972 5659
8936 1973 2427
8937 6272 5550
8938 3269 3346
8939 9104 7287
8940 4617 882 
8941 820  1252
8942 3738 2195
8943 1778 6516
8944 5020 7449
8945 8712 163 
8946 5117 103 
8947 6602 8907
8948 545  8570
8949 1754 7040
8950 5895 1446
8951 1590 1115
8952 6456 5829
8953 3575 6359
8954 5211 1703
8955 994  9187
8956 9525 6891
8957 52   4709
8958 175  6084
8959 6730 4931
8960 5702 9264
8961 2743 8594
8962 8626 768 
8963 2870 4109
8964 792  7034
8965 7101 384 
8966 154  2824
8967 5825 2440
8968 6389 9599
8969 4354 8896
8970 3502 8916
8971 6904 6954
8972 262  8613
8973 8496 9676
8974 5382 9779
8975 7127 7537
8976 1875 154 
8977 7605 2397
8978 6738 8317
8979 8476 8897
8980 8321 9472
8981 2056 1712
8982 6922 6979
8983 972  854 
8984 4060 3705
8985 323  5625
8986 1193 9091
8987 523  3836
8988 2320 1757
8989 5613 2992
8990 5980 8962
8991 5269 9439
8992 29   7351
8993 2416 4442
8994 7915 3660
8995 7017 8141
8996 8855 3326
8997 5832 3083
8998 3580 6236
8999 4877 6236
9000 955  3307
9001 1509 2688
9002 4620 4310
9003 3766 4276
9004 7370 7045
9005 6158 2925
9006 8719 2145
9007 5752 2509
9008 5967 4489
9009 4613 2139
9010 1208 7552
9011 1036 6465
9012 9735 1978
9013 4322 277 
9014 7267 2561
9015 5024 1357
9016 7864 4366
9017 7809 2300
9018 2312 4347
9019 5436 3334
9020 5505 9336
9021 7151 503 
9022 9919 3378
9023 4261 1291
9024 4256 5101
9025 5484 8025
9026 3891 940 
9027 8758 4166
9028 5392 4690
9029 5612 1505
9030 9333 3383
9031 1691 4614
9032 8753 2787
9033 6199 5973
9034 3621 5429
9035 710  6317
9036 4293 2716
9037 3075 8036
9038 2459 867 
9039 4327 6017
9040 1195 7400
9041 7757 14  
9042 8737 4539
9043 595  3044
9044 9674 5304
9045 4918 68  
9046 8169 8299
9047 5699 8508
9048 6539 7157
9049 937  7013
9050 8338 7605
9051 1516 6140
9052 4233 9043
9053 1572 5054
9054 9782 6014
9055 9435 4541
9056 9806 4188
9057 1336 4017
9058 544  3661
9059 4204 7933
9060 3226 3664
9061 1892 6849
9062 4059 4924
9063 3295 2561
9064 8703 423 
9065 8611 4894
9066 4410 1576
9067 1690 8453
9068 1297 2467
9069 4988 8730
9070 5969 1899
9071 4082 7118
9072 6983 7327
9073 679  125 
9074 7827 4469
9075 8693 6419
9076 4548 7719
9077 3882 8849
9078 4894 9206
9079 7646 8977
9080 635  8485
9081 3755 8344
9082 7696 2611
9083 5748 9036
9084 9740 5370
9085 9988 3249
9086 5950 1687
9087 7162 7496
9088 1448 7368
9089 9152 2629
9090 1414 4013
9091 8135 4209
9092 2429 5134
9093 8268 7797
9094 8495 9366
9095 7336 5567
9096 3660 6309
9097 6741 1029
9098 849  2711
9099 611  8465
9100 4044 7081
9101 2151 547 
9102 965  2121
9103 5550 2218
9104 8760 2408
9105 6577 7293
9106 978  4248
9107 3519 8261
9108 2895 1632
9109 3018 6854
9110 9459 2062
9111 2241 1615
9112 9369 9305
9113 280  9134
9114 6371 4936
9115 8643 8816
9116 3869 900 
9117 2089 8083
9118 6014 8391
9119 4125 9317
9120 4564 5284
9121 7997 7140
9122 5138 663 
9123 9483 1479
9124 445  7485
9125 9369 1792
9126 7590 8322
9127 7285 3327
9128 4773 1237
9129 5983 6883
9130 8023 2393
9131 6420 6467
9132 8938 6381
9133 1322 5394
9134 5828 1804
9135 3578 3302
9136 5206 4416
9137 7913 6637
9138 8991 491 
9139 5471 4900
9140 4739 4215
9141 7928 3323
9142 1211 6770
9143 2722 5694
9144 1971 8229
9145 9343 9974
9146 6311 1669
9147 4006 1943
9148 6031 6631
9149 3886 1141
9150 5407 6745
9151 1129 4370
9152 9008 3257
9153 7199 5694
9154 4667 6877
9155 9281 2200
9156 2637 3063
9157 9202 5942
9158 4194 4797
9159 3262 2   
9160 8910 6183
9161 3587 2709
9162 8994 7383
9163 7801 1185
9164 7788 317 
9165 9287 5923
9166 5412 3079
9167 4053 2618
9168 9327 4578
9169 3205 5478
9170 436  8617
9171 6161 3616
9172 356  9047
9173 412  20  
9174 5758 1322
9175 3259 2859
9176 4650 2388
9177 4176 431 
9178 4117 6769
9179 3239 4157
9180 545  7297
9181 8451 1496
9182 5306 6350
9183 7580 990 
9184 2247 1388
9185 8830 6178
9186 6754 3499
9187 755  8366
9188 5238 7470
9189 1310 1419
9190 6112 8780
9191 5462 3666
9192 933  5792
9193 9412 6979
9194 9385 2756
9195 6684 4026
9196 8567 3053
9197 8417 3604
9198 9709 7286
9199 2521 5003
9200 3218 1430
9201 6588 8777
9202 5139 5051
9203 2705 4213
9204 1220 2935
9205 8981 554 
9206 6002 649 
9207 6935 1880
9208 9094 3122
9209 7612 6211
9210 7122 3664
9211 9168 4057
9212 8372 6578
9213 8452 2978
9214 6579 1419
9215 2281 7257
9216 6938 1458
9217 7047 9897
9218 8228 7049
9219 984  381 
9220 822  621 
9221 7946 178 
9222 8234 1810
9223 8839 883 
9224 1346 7958
9225 2003 4963
9226 7565 840 
9227 6526 2674
9228 4779 2308
9229 1828 742 
9230 2829 7789
9231 215  7881
9232 7754 6674
9233 9674 5045
9234 4225 8875
9235 6557 7355
9236 2272 8891
9237 2080 5152
9238 609  419 
9239 6527 9874
9240 9078 6703
9241 4084 3584
9242 5804 5848
9243 5701 8878
9244 6017 6376
9245 7680 2475
9246 4015 1234
9247 8150 7563
9248 5392 2131
9249 5160 7034
9250 4148 7278
9251 8024 9673
9252 9347 2840
9253 304  8561
9254 7537 7429
9255 4937 5659
9256 336  3999
9257 1886 6165
9258 3265 9274
9259 5400 5158
9260 825  1464
9261 9061 6631
9262 8848 2369
9263 1697 6501
9264 9843 3458
9265 25   6113
9266 5900 9579
9267 5854 1145
9268 1294 5922
9269 1407 4351
9270 7095 9683
9271 8834 5491
9272 694  9430
9273 9342 2734
9274 4466 1848
9275 3565 5915
9276 1367 7925
9277 5662 8766
9278 8903 1335
9279 1720 4521
9280 7781 3081
9281 4816 4710
9282 9146 8853
9283 2052 5316
9284 2651 1433
9285 1045 6367
9286 9600 8165
9287 9859 4540
9288 6226 5151
9289 4819 767 
9290 9176 1246
9291 4149 3983
9292 3919 7811
9293 8240 7486
9294 6110 1399
9295 3047 408 
9296 870  8800
9297 9532 5442
9298 1069 4780
9299 8951 5855
9300 4971 3010
9301 4166 7543
9302 7237 8512
9303 2162 6386
9304 4592 9038
9305 9746 9357
9306 5917 7047
9307 235  9890
9308 4085 9634
9309 9463 2057
9310 3626 4261
9311 9366 962 
9312 1235 3635
9313 444  8873
9314 6516 3262
9315 4289 5774
9316 4934 4926
9317 3160 7438
9318 9559 4367
9319 3184 6009
9320 6713 98  
9321 4289 778 
9322 9965 9718
9323 7253 2996
9324 5246 6223
9325 1541 362 
9326 9907 4348
9327 3402 2507
9328 7131 3628
9329 1852 5449
9330 3442 1991
9331 6403 8434
9332 7840 1520
9333 4932 7766
9334 7637 1606
9335 2367 3326
9336 2641 9777
9337 8514 8575
9338 6008 2641
9339 4883 3514
9340 3519 9809
9341 8997 2553
9342 5174 2674
9343 4600 2306
9344 7006 7621
9345 9024 8004
9346 1907 2317
9347 7791 9230
9348 3211 7494
9349 6133 4467
9350 5541 8939
9351 9092 7729
9352 1908 6729
9353 4503 9696
9354 3875 3260
9355 8433 6075
9356 9443 5764
9357 3093 1255
9358 5974 995 
9359 8756 5782
9360 8703 9586
9361 1829 4491
9362 1811 5008
9363 8384 4954
9364 188  1207
9365 3741 5727
9366 2451 2426
9367 8148 6655
9368 5616 1379
9369 7407 4353
9370 4959 731 
9371 4844 4529
9372 9891 3965
9373 963  5735
9374 7742 2950
9375 8420 8231
9376 7521 7459
9377 2773 4949
9378 1527 4444
9379 8551 7960
9380 8595 4078
9381 5142 1043
9382 4281 1838
9383 8089 5710
9384 3655 6096
9385 6419 4180
9386 5056 5216
9387 4071 6200
9388 983  9410
9389 9698 1079
9390 7284 2141
9391 8223 4343
9392 3757 2409
9393 453  4257
9394 9574 7761
9395 9118 2380
9396 4042 3493
9397 2945 6680
9398 7851 1233
9399 9787 4827
9400 2447 2399
9401 9136 8610
9402 4837 4328
9403 9565 1063
9404 2294 4375
9405 7833 152 
9406 6357 3139
9407 5694 5374
9408 7941 9271
9409 6496 9999
9410 6719 210 
9411 2983 472 
9412 1236 2208
9413 3995 6448
9414 5241 2319
9415 9595 7039
9416 1169 77  
9417 835  3153
9418 8196 5963
9419 2862 1310
9420 9454 5907
9421 5321 6120
9422 5807 9056
9423 1440 4240
9424 183  26  
9425 8769 2780
9426 8401 6103
9427 4930 1049
9428 3389 3792
9429 837  1829
9430 5504 435 
9431 8949 247 
9432 7473 7009
9433 37   7482
9434 3652 1753
9435 2968 7543
9436 4055 1676
9437 7420 6349
9438 8939 5197
9439 9742 7312
9440 8239 8375
9441 9655 5140
9442 1643 9818
9443 9814 9810
9444 7423 3928
9445 7339 5203
9446 7866 8153
9447 4434 4559
9448 712  4722
9449 2866 9618
9450 8961 3370
9451 8764 2125
9452 2500 8254
9453 6119 8628
9454 9623 1477
9455 2889 5166
9456 8497 7142
9457 9568 6703
9458 9343 8019
9459 7038 3604
9460 8310 7695
9461 3664 2971
9462 7267 9550
9463 1607 5057
9464 8929 8270
9465 2854 2841
9466 1868 7267
9467 8517 5790
9468 4854 5940
9469 4641 6124
9470 2473 4591
9471 8077 782 
9472 2474 4144
9473 634  3171
9474 8095 6001
9475 4042 2741
9476 3292 8589
9477 2209 2013
9478 3596 9833
9479 749  6359
9480 3922 7203
9481 7998 9134
9482 5752 901 
9483 3718 9024
9484 6829 848 
9485 4887 84  
9486 6831 9533
9487 4335 5479
9488 9661 536 
9489 1534 6896
9490 9574 1243
9491 7201 7933
9492 3232 3902
9493 7149 2783
9494 294  6416
9495 3355 5440
9496 5081 4656
9497 4517 9386
9498 750  9023
9499 1626 4865
9500 1139 8061
9501 7223 305 
9502 10   5840
9503 7728 9628
9504 1209 3227
9505 8838 7607
9506 3659 4827
9507 2650 3082
9508 2418 8597
9509 6303 8448
9510 7870 8440
9511 7890 1997
9512 9961 4897
9513 5587 9882
9514 8697 2003
9515 2121 6825
9516 5604 7675
9517 2425 2727
9518 9346 7818
9519 5016 267 
9520 4279 3047
9521 2191 2010
9522 5683 6293
9523 6686 6235
9524 137  6029
9525 4305 1640
9526 5519 6767
9527 8967 1359
9528 2410 2032
9529 4986 4544
9530 2401 6415
9531 4981 606 
9532 7544 4259
9533 8100 6742
9534 9244 1895
9535 9441 6111
9536 2395 3069
9537 714  9640
9538 3202 3997
9539 5803 4554
9540 1181 777 
9541 710  4444
9542 8301 3044
9543 810  6425
9544 7510 2606
9545 9467 6800
9546 4368 4340
9547 1003 2896
9548 2660 5545
9549 1165 5701
9550 5535 9519
9551 296  4010
9552 4265 914 
9553 8485 9981
9554 5800 3598
9555 3171 4975
9556 4919 6611
9557 898  5842
9558 3540 9824
9559 1041 6617
9560 4183 8218
9561 5488 1241
9562 6678 7612
9563 5532 4973
9564 4319 3925
9565 9029 264 
9566 9225 4316
9567 3443 7501
9568 740  2741
9569 7174 1040
9570 2069 4819
9571 3763 71  
9572 9020 8950
9573 2155 9719
9574 8471 8910
9575 7742 4650
9576 8021 9407
9577 3183 9703
9578 3064 5068
9579 6845 2755
9580 4883 4458
9581 1103 8624
9582 7256 5098
9583 6563 578 
9584 968  3618
9585 9627 6491
9586 9807 2809
9587 3445 7070
9588 8695 7572
9589 419  9215
9590 2211 2800
9591 4267 2671
9592 1151 5276
9593 5651 255 
9594 4384 9690
9595 7333 4465
9596 6893 4410
9597 13   123 
9598 7131 9412
9599 9028 4195
9600 5985 458 
9601 4508 858 
9602 2824 2864
9603 306  2666
9604 3866 312 
9605 6312 2851
9606 5459 991 
9607 9620 7862
9608 5416 3458
9609 8373 9088
9610 7060 734 
9611 4398 4972
9612 8446 6474
9613 6649 6299
9614 5825 5598
9615 2972 8627
9616 8854 3413
9617 6107 4097
9618 7619 3894
9619 7050 1639
9620 1556 2466
9621 4622 8792
9622 350  8918
9623 213  4254
9624 9527 667 
9625 1803 6476
9626 2732 8200
9627 5282 6024
9628 7364 5965
9629 2802 8189
9630 3718 5529
9631 8204 7620
9632 860  4908
9633 4871 1634
9634 5670 7822
9635 8553 8378
9636 837  9022
9637 7214 4639
9638 7242 6980
9639 8913 9034
9640 7606 3633
9641 595  958 
9642 5896 1102
9643 2425 7005
9644 8293 9247
9645 74   6699
9646 9580 436 
9647 4067 6528
9648 4463 4511
9649 2258 740 
9650 7777 3215
9651 6855 4830
9652 6226 1589
9653 5490 3499
9654 133  8772
9655 5563 1781
9656 8420 7734
9657 6791 9916
9658 1352 2148
9659 9573 2436
9660 8120 6973
9661 9230 8164
9662 7505 6708
9663 6154 8850
9664 315  3851
9665 3576 2593
9666 7405 5726
9667 2909 4622
9668 9370 2278
9669 2509 2644
9670 1208 1682
9671 2405 3600
9672 8671 3634
9673 3044 9253
9674 3718 6229
9675 3842 8458
9676 6410 3919
9677 8269 8039
9678 6074 4523
9679 7205 8353
9680 8813 7349
9681 3946 2761
9682 9798 9541
9683 8270 3399
9684 6807 6324
9685 5911 9646
9686 8786 5045
9687 7961 7976
9688 4927 9365
9689 3242 9206
9690 8891 9856
9691 6898 2336
9692 8075 5543
9693 5450 5938
9694 1713 9432
9695 9181 1644
9696 7950 7124
9697 4620 3511
9698 63   3846
9699 3021 162 
9700 3510 4631
9701 1791 5426
9702 7819 2632
9703 7471 7008
9704 8402 548 
9705 5378 7905
9706 1379 5589
9707 2181 7892
9708 3955 8607
9709 6239 75  
9710 6681 6398
9711 9218 9554
9712 7112 9526
9713 8849 3673
9714 5499 2462
9715 8385 2368
9716 6668 1212
9717 678  7418
9718 7627 2385
9719 1889 5241
9720 8767 6000
9721 3084 9957
9722 5756 4686
9723 4353 1213
9724 5117 6617
9725 8057 2462
9726 3277 4557
9727 3417 18  
9728 2681 3570
9729 2295 630 
9730 4688 2747
9731 3375 9704
9732 5828 5345
9733 4792 7348
9734 3748 4188
9735 6729 130 
9736 2506 6374
9737 3541 1982
9738 3458 8355
9739 4943 999 
9740 6679 5345
9741 9725 7259
9742 717  2465
9743 8107 6225
9744 6165 9472
9745 2431 8334
9746 7262 7650
9747 4383 2321
9748 1027 6824
9749 5322 8408
9750 1037 1319
9751 5491 2804
9752 7691 3975
9753 5646 813 
9754 6465 9252
9755 4074 6159
9756 1183 4310
9757 2794 3733
9758 3371 7194
9759 2116 5238
9760 957  25  
9761 1298 2315
9762 1704 1306
9763 5198 2588
9764 4964 1130
9765 5572 1029
9766 8649 8885
9767 5867 7071
9768 7365 986 
9769 5702 8280
9770 9255 191 
9771 2464 5129
9772 2036 7314
9773 1028 6815
9774 4907 4358
9775 2374 3271
9776 6430 5120
9777 831  4371
9778 2968 80  
9779 3625 3222
9780 3515 5521
9781 7944 6429
9782 3903 579 
9783 4144 6552
9784 5201 5807
9785 6857 813 
9786 1316 5513
9787 8799 5170
9788 6456 7857
9789 3128 5712
9790 1374 1634
9791 51   7970
9792 1657 9339
9793 5319 528 
9794 8893 7194
9795 6237 6885
9796 7030 8672
9797 8017 7439
9798 9903 6235
9799 5283 9836
9800 4721 8897
9801 5187 2539
9802 6991 1244
9803 4337 2819
9804 5835 1179
9805 6592 7812
9806 5262 1795
9807 7992 4875
9808 749  4086
9809 3292 9298
9810 7906 9471
9811 3720 8170
9812 7279 2282
9813 5115 5770
9814 5305 5762
9815 3574 8447
9816 7666 576 
9817 4166 1380
9818 7333 3871
9819 7530 2507
9820 686  2308
9821 5175 3049
9822 8436 1735
9823 2271 5237
9824 7791 9584
9825 9171 2228
9826 9660 6872
9827 1583 1164
9828 3881 5979
9829 3965 3741
9830 9767 3897
9831 829  4246
9832 8352 1419
9833 7643 1150
9834 296  1936
9835 6138 2323
9836 9154 8401
9837 4167 9545
9838 5494 5071
9839 8539 3916
9840 4415 2906
9841 3456 8556
9842 4067 2687
9843 1594 229 
9844 6874 7019
9845 4887 8399
9846 7535 6514
9847 7268 1867
9848 2765 4705
9849 1837 7588
9850 6574 9325
9851 3132 7055
9852 50   5405
9853 7253 8869
9854 1506 359 
9855 1151 7090
9856 990  6051
9857 6284 5932
9858 8827 2668
9859 8566 3824
9860 9430 5584
9861 5708 6885
9862 3118 428 
9863 3601 6658
9864 6444 6175
9865 8625 7638
9866 8162 3833
9867 9499 6825
9868 3689 3033
9869 9573 5284
9870 8744 1527
9871 7357 8617
9872 9477 2449
9873 5755 9318
9874 5709 6962
9875 4021 583 
9876 8652 483 
9877 2205 91  
9878 8635 8032
9879 6310 1682
9880 9854 4073
9881 9098 4141
9882 2675 6353
9883 2330 3388
9884 2549 8419
9885 5164 8005
9886 1089 5478
9887 4046 85  
9888 7119 3145
9889 5617 4880
9890 7328 7990
9891 7089 4934
9892 2076 7358
9893 979  902 
9894 332  6496
9895 9823 7483
9896 5380 6412
9897 3072 5346
9898 6648 7496
9899 8051 1692
9900 8834 1628
9901 2765 4366
9902 943  9162
9903 4868 3290
9904 1272 1869
9905 379  7272
9906 7815 950 
9907 35   3141
9908 6359 4228
9909 1027 2767
9910 3356 7985
9911 9582 1808
9912 6411 9663
9913 662  3674
9914 8570 4163
9915 937  3273
9916 9880 1249
9917 8232 3727
9918 9236 4525
9919 2488 4115
9920 8784 4191
9921 5089 8781
9922 1688 5293
9923 9020 9998
9924 1690 3082
9925 6092 7933
9926 3725 3171
9927 7731 2331
9928 3746 8033
9929 353  4178
9930 7683 6812
9931 7896 949 
9932 3440 2502
9933 6751 3463
9934 4451 2090
9935 859  5004
9936 8418 8001
9937 4613 1976
9938 4189 6030
9939 2858 2780
9940 9505 821 
9941 490  2106
9942 1394 9141
9943 6179 7162
9944 7268 4276
9945 2413 7477
9946 1268 9744
9947 6890 6239
9948 2422 1401
9949 4258 9350
9950 7916 1248
9951 6570 141 
9952 462  3128
9953 9757 6389
9954 2695 9401
9955 5550 5952
9956 751  2674
9957 144  5455
9958 3258 70  
9959 1299 3380
9960 568  2858
9961 5605 3885
9962 6399 8122
9963 3125 6787
9964 7212 5029
9965 3984 1327
9966 5568 7838
9967 333  9652
9968 80   1299
9969 6400 738 
9970 7101 6661
9971 1316 2272
9972 82   193 
9973 9334 5525
9974 2963 252 
9975 750  5784
9976 7865 2382
9977 3993 6120
9978 3122 1182
9979 766  6866
9980 3100 1286
9981 7969 6947
9982 6801 3475
9983 835  3543
9984 2120 3894
9985 8393 8745
9986 3449 8556
9987 7650 7362
9988 1314 8312
9989 9786 9197
9990 9712 9132
9991 9970 6391
9992 174  4106
9993 8943 3417
9994 6335 4297
9995 5493 6843
9996 8189 1151
9997 2063 8255
9998 504  8602
9999 2966 6533
10000 8997 7534
10001 3970 8046
DEMAND_SECTION
1    0   
2    1   
3    1   
4    1   
5    1   
6    1   
7    1   
8    1   
9    1   
10   1   
11   1   
12   1   
13   1   
14   1   
15   1   
16   1   
17   1   
18   1   
19   1   
20   1   
21   1   
22   1   
23   1   
24   1   
25   1   
26   1   
27   1   
28   1   
29   1   
30   1   
31   1   
32   1   
33   1   
34   1   
35   1   
36   1   
37   1   
38   1   
39   1   
40   1   
41   1   
42   1   
43   1   
44   1   
45   1   
46   1   
47   1   
48   1   
49   1   
50   1   
51   1   
52   1   
53   1   
54   1   
55   1   
56   1   
57   1   
58   1   
59   1   
60   1   
61   1   
62   1   
63   1   
64   1   
65   1   
66   1   
67   1   
68   1   
69   1   
70   1   
71   1   
72   1   
73   1   
74   1   
75   1   
76   1   
77   1   
78   1   
79   1   
80   1   
81   1   
82   1   
83   1   
84   1   
85   1   
86   1   
87   1   
88   1   
89   1   
90   1   
91   1   
92   1   
93   1   
94   1   
95   1   
96   1   
97   1   
98   1   
99   1   
100  1   
101  1   
102  1   
103  1   
104  1   
105  1   
106  1   
107  1   
108  1   
109  1   
110  1   
111  1   
112  1   
113  1   
114  1   
115  1   
116  1   
117  1   
118  1   
119  1   
120  1   
121  1   
122  1   
123  1   
124  1   
125  1   
126  1   
127  1   
128  1   
129  1   
130  1   
131  1   
132  1   
133  1   
134  1   
135  1   
136  1   
137  1   
138  1   
139  1   
140  1   
141  1   
142  1   
143  1   
144  1   
145  1   
146  1   
147  1   
148  1   
149  1   
150  1   
151  1   
152  1   
153  1   
154  1   
155  1   
156  1   
157  1   
158  1   
159  1   
160  1   
161  1   
162  1   
163  1   
164  1   
165  1   
166  1   
167  1   
168  1   
169  1   
170  1   
171  1   
172  1   
173  1   
174  1   
175  1   
176  1   
177  1   
178  1   
179  1   
180  1   
181  1   
182  1   
183  1   
184  1   
185  1   
186  1   
187  1   
188  1   
189  1   
190  1   
191  1   
192  1   
193  1   
194  1   
195  1   
196  1   
197  1   
198  1   
199  1   
200  1   
201  1   
202  1   
203  1   
204  1   
205  1   
206  1   
207  1   
208  1   
209  1   
210  1   
211  1   
212  1   
213  1   
214  1   
215  1   
216  1   
217  1   
218  1   
219  1   
220  1   
221  1   
222  1   
223  1   
224  1   
225  1   
226  1   
227  1   
228  1   
229  1   
230  1   
231  1   
232  1   
233  1   
234  1   
235  1   
236  1   
237  1   
238  1   
239  1   
240  1   
241  1   
242  1   
243  1   
244  1   
245  1   
246  1   
247  1   
248  1   
249  1   
250  1   
251  1   
252  1   
253  1   
254  1   
255  1   
256  1   
257  1   
258  1   
259  1   
260  1   
261  1   
262  1   
263  1   
264  1   
265  1   
266  1   
267  1   
268  1   
269  1   
270  1   
271  1   
272  1   
273  1   
274  1   
275  1   
276  1   
277  1   
278  1   
279  1   
280  1   
281  1   
282  1   
283  1   
284  1   
285  1   
286  1   
287  1   
288  1   
289  1   
290  1   
291  1   
292  1   
293  1   
294  1   
295  1   
296  1   
297  1   
298  1   
299  1   
300  1   
301  1   
302  1   
303  1   
304  1   
305  1   
306  1   
307  1   
308  1   
309  1   
310  1   
311  1   
312  1   
313  1   
314  1   
315  1   
316  1   
317  1   
318  1   
319  1   
320  1   
321  1   
322  1   
323  1   
324  1   
325  1   
326  1   
327  1   
328  1   
329  1   
330  1   
331  1   
332  1   
333  1   
334  1   
335  1   
336  1   
337  1   
338  1   
339  1   
340  1   
341  1   
342  1   
343  1   
344  1   
345  1   
346  1   
347  1   
348  1   
349  1   
350  1   
351  1   
352  1   
353  1   
354  1   
355  1   
356  1   
357  1   
358  1   
359  1   
360  1   
361  1   
362  1   
363  1   
364  1   
365  1   
366  1   
367  1   
368  1   
369  1   
370  1   
371  1   
372  1   
373  1   
374  1   
375  1   
376  1   
377  1   
378  1   
379  1   
380  1   
381  1   
382  1   
383  1   
384  1   
385  1   
386  1   
387  1   
388  1   
389  1   
390  1   
391  1   
392  1   
393  1   
394  1   
395  1   
396  1   
397  1   
398  1   
399  1   
400  1   
401  1   
402  1   
403  1   
404  1   
405  1   
406  1   
407  1   
408  1   
409  1   
410  1   
411  1   
412  1   
413  1   
414  1   
415  1   
416  1   
417  1   
418  1   
419  1   
420  1   
421  1   
422  1   
423  1   
424  1   
425  1   
426  1   
427  1   
428  1   
429  1   
430  1   
431  1   
432  1   
433  1   
434  1   
435  1   
436  1   
437  1   
438  1   
439  1   
440  1   
441  1   
442  1   
443  1   
444  1   
445  1   
446  1   
447  1   
448  1   
449  1   
450  1   
451  1   
452  1   
453  1   
454  1   
455  1   
456  1   
457  1   
458  1   
459  1   
460  1   
461  1   
462  1   
463  1   
464  1   
465  1   
466  1   
467  1   
468  1   
469  1   
470  1   
471  1   
472  1   
473  1   
474  1   
475  1   
476  1   
477  1   
478  1   
479  1   
480  1   
481  1   
482  1   
483  1   
484  1   
485  1   
486  1   
487  1   
488  1   
489  1   
490  1   
491  1   
492  1   
493  1   
494  1   
495  1   
496  1   
497  1   
498  1   
499  1   
500  1   
501  1   
502  1   
503  1   
504  1   
505  1   
506  1   
507  1   
508  1   
509  1   
510  1   
511  1   
512  1   
513  1   
514  1   
515  1   
516  1   
517  1   
518  1   
519  1   
520  1   
521  1   
522  1   
523  1   
524  1   
525  1   
526  1   
527  1   
528  1   
529  1   
530  1   
531  1   
532  1   
533  1   
534  1   
535  1   
536  1   
537  1   
538  1   
539  1   
540  1   
541  1   
542  1   
543  1   
544  1   
545  1   
546  1   
547  1   
548  1   
549  1   
550  1   
551  1   
552  1   
553  1   
554  1   
555  1   
556  1   
557  1   
558  1   
559  1   
560  1   
561  1   
562  1   
563  1   
564  1   
565  1   
566  1   
567  1   
568  1   
569  1   
570  1   
571  1   
572  1   
573  1   
574  1   
575  1   
576  1   
577  1   
578  1   
579  1   
580  1   
581  1   
582  1   
583  1   
584  1   
585  1   
586  1   
587  1   
588  1   
589  1   
590  1   
591  1   
592  1   
593  1   
594  1   
595  1   
596  1   
597  1   
598  1   
599  1   
600  1   
601  1   
602  1   
603  1   
604  1   
605  1   
606  1   
607  1   
608  1   
609  1   
610  1   
611  1   
612  1   
613  1   
614  1   
615  1   
616  1   
617  1   
618  1   
619  1   
620  1   
621  1   
622  1   
623  1   
624  1   
625  1   
626  1   
627  1   
628  1   
629  1   
630  1   
631  1   
632  1   
633  1   
634  1   
635  1   
636  1   
637  1   
638  1   
639  1   
640  1   
641  1   
642  1   
643  1   
644  1   
645  1   
646  1   
647  1   
648  1   
649  1   
650  1   
651  1   
652  1   
653  1   
654  1   
655  1   
656  1   
657  1   
658  1   
659  1   
660  1   
661  1   
662  1   
663  1   
664  1   
665  1   
666  1   
667  1   
668  1   
669  1   
670  1   
671  1   
672  1   
673  1   
674  1   
675  1   
676  1   
677  1   
678  1   
679  1   
680  1   
681  1   
682  1   
683  1   
684  1   
685  1   
686  1   
687  1   
688  1   
689  1   
690  1   
691  1   
692  1   
693  1   
694  1   
695  1   
696  1   
697  1   
698  1   
699  1   
700  1   
701  1   
702  1   
703  1   
704  1   
705  1   
706  1   
707  1   
708  1   
709  1   
710  1   
711  1   
712  1   
713  1   
714  1   
715  1   
716  1   
717  1   
718  1   
719  1   
720  1   
721  1   
722  1   
723  1   
724  1   
725  1   
726  1   
727  1   
728  1   
729  1   
730  1   
731  1   
732  1   
733  1   
734  1   
735  1   
736  1   
737  1   
738  1   
739  1   
740  1   
741  1   
742  1   
743  1   
744  1   
745  1   
746  1   
747  1   
748  1   
749  1   
750  1   
751  1   
752  1   
753  1   
754  1   
755  1   
756  1   
757  1   
758  1   
759  1   
760  1   
761  1   
762  1   
763  1   
764  1   
765  1   
766  1   
767  1   
768  1   
769  1   
770  1   
771  1   
772  1   
773  1   
774  1   
775  1   
776  1   
777  1   
778  1   
779  1   
780  1   
781  1   
782  1   
783  1   
784  1   
785  1   
786  1   
787  1   
788  1   
789  1   
790  1   
791  1   
792  1   
793  1   
794  1   
795  1   
796  1   
797  1   
798  1   
799  1   
800  1   
801  1   
802  1   
803  1   
804  1   
805  1   
806  1   
807  1   
808  1   
809  1   
810  1   
811  1   
812  1   
813  1   
814  1   
815  1   
816  1   
817  1   
818  1   
819  1   
820  1   
821  1   
822  1   
823  1   
824  1   
825  1   
826  1   
827  1   
828  1   
829  1   
830  1   
831  1   
832  1   
833  1   
834  1   
835  1   
836  1   
837  1   
838  1   
839  1   
840  1   
841  1   
842  1   
843  1   
844  1   
845  1   
846  1   
847  1   
848  1   
849  1   
850  1   
851  1   
852  1   
853  1   
854  1   
855  1   
856  1   
857  1   
858  1   
859  1   
860  1   
861  1   
862  1   
863  1   
864  1   
865  1   
866  1   
867  1   
868  1   
869  1   
870  1   
871  1   
872  1   
873  1   
874  1   
875  1   
876  1   
877  1   
878  1   
879  1   
880  1   
881  1   
882  1   
883  1   
884  1   
885  1   
886  1   
887  1   
888  1   
889  1   
890  1   
891  1   
892  1   
893  1   
894  1   
895  1   
896  1   
897  1   
898  1   
899  1   
900  1   
901  1   
902  1   
903  1   
904  1   
905  1   
906  1   
907  1   
908  1   
909  1   
910  1   
911  1   
912  1   
913  1   
914  1   
915  1   
916  1   
917  1   
918  1   
919  1   
920  1   
921  1   
922  1   
923  1   
924  1   
925  1   
926  1   
927  1   
928  1   
929  1   
930  1   
931  1   
932  1   
933  1   
934  1   
935  1   
936  1   
937  1   
938  1   
939  1   
940  1   
941  1   
942  1   
943  1   
944  1   
945  1   
946  1   
947  1   
948  1   
949  1   
950  1   
951  1   
952  1   
953  1   
954  1   
955  1   
956  1   
957  1   
958  1   
959  1   
960  1   
961  1   
962  1   
963  1   
964  1   
965  1   
966  1   
967  1   
968  1   
969  1   
970  1   
971  1   
972  1   
973  1   
974  1   
975  1   
976  1   
977  1   
978  1   
979  1   
980  1   
981  1   
982  1   
983  1   
984  1   
985  1   
986  1   
987  1   
988  1   
989  1   
990  1   
991  1   
992  1   
993  1   
994  1   
995  1   
996  1   
997  1   
998  1   
999  1   
1000 1   
1001 1   
1002 1   
1003 1   
1004 1   
1005 1   
1006 1   
1007 1   
1008 1   
1009 1   
1010 1   
1011 1   
1012 1   
1013 1   
1014 1   
1015 1   
1016 1   
1017 1   
1018 1   
1019 1   
1020 1   
1021 1   
1022 1   
1023 1   
1024 1   
1025 1   
1026 1   
1027 1   
1028 1   
1029 1   
1030 1   
1031 1   
1032 1   
1033 1   
1034 1   
1035 1   
1036 1   
1037 1   
1038 1   
1039 1   
1040 1   
1041 1   
1042 1   
1043 1   
1044 1   
1045 1   
1046 1   
1047 1   
1048 1   
1049 1   
1050 1   
1051 1   
1052 1   
1053 1   
1054 1   
1055 1   
1056 1   
1057 1   
1058 1   
1059 1   
1060 1   
1061 1   
1062 1   
1063 1   
1064 1   
1065 1   
1066 1   
1067 1   
1068 1   
1069 1   
1070 1   
1071 1   
1072 1   
1073 1   
1074 1   
1075 1   
1076 1   
1077 1   
1078 1   
1079 1   
1080 1   
1081 1   
1082 1   
1083 1   
1084 1   
1085 1   
1086 1   
1087 1   
1088 1   
1089 1   
1090 1   
1091 1   
1092 1   
1093 1   
1094 1   
1095 1   
1096 1   
1097 1   
1098 1   
1099 1   
1100 1   
1101 1   
1102 1   
1103 1   
1104 1   
1105 1   
1106 1   
1107 1   
1108 1   
1109 1   
1110 1   
1111 1   
1112 1   
1113 1   
1114 1   
1115 1   
1116 1   
1117 1   
1118 1   
1119 1   
1120 1   
1121 1   
1122 1   
1123 1   
1124 1   
1125 1   
1126 1   
1127 1   
1128 1   
1129 1   
1130 1   
1131 1   
1132 1   
1133 1   
1134 1   
1135 1   
1136 1   
1137 1   
1138 1   
1139 1   
1140 1   
1141 1   
1142 1   
1143 1   
1144 1   
1145 1   
1146 1   
1147 1   
1148 1   
1149 1   
1150 1   
1151 1   
1152 1   
1153 1   
1154 1   
1155 1   
1156 1   
1157 1   
1158 1   
1159 1   
1160 1   
1161 1   
1162 1   
1163 1   
1164 1   
1165 1   
1166 1   
1167 1   
1168 1   
1169 1   
1170 1   
1171 1   
1172 1   
1173 1   
1174 1   
1175 1   
1176 1   
1177 1   
1178 1   
1179 1   
1180 1   
1181 1   
1182 1   
1183 1   
1184 1   
1185 1   
1186 1   
1187 1   
1188 1   
1189 1   
1190 1   
1191 1   
1192 1   
1193 1   
1194 1   
1195 1   
1196 1   
1197 1   
1198 1   
1199 1   
1200 1   
1201 1   
1202 1   
1203 1   
1204 1   
1205 1   
1206 1   
1207 1   
1208 1   
1209 1   
1210 1   
1211 1   
1212 1   
1213 1   
1214 1   
1215 1   
1216 1   
1217 1   
1218 1   
1219 1   
1220 1   
1221 1   
1222 1   
1223 1   
1224 1   
1225 1   
1226 1   
1227 1   
1228 1   
1229 1   
1230 1   
1231 1   
1232 1   
1233 1   
1234 1   
1235 1   
1236 1   
1237 1   
1238 1   
1239 1   
1240 1   
1241 1   
1242 1   
1243 1   
1244 1   
1245 1   
1246 1   
1247 1   
1248 1   
1249 1   
1250 1   
1251 1   
1252 1   
1253 1   
1254 1   
1255 1   
1256 1   
1257 1   
1258 1   
1259 1   
1260 1   
1261 1   
1262 1   
1263 1   
1264 1   
1265 1   
1266 1   
1267 1   
1268 1   
1269 1   
1270 1   
1271 1   
1272 1   
1273 1   
1274 1   
1275 1   
1276 1   
1277 1   
1278 1   
1279 1   
1280 1   
1281 1   
1282 1   
1283 1   
1284 1   
1285 1   
1286 1   
1287 1   
1288 1   
1289 1   
1290 1   
1291 1   
1292 1   
1293 1   
1294 1   
1295 1   
1296 1   
1297 1   
1298 1   
1299 1   
1300 1   
1301 1   
1302 1   
1303 1   
1304 1   
1305 1   
1306 1   
1307 1   
1308 1   
1309 1   
1310 1   
1311 1   
1312 1   
1313 1   
1314 1   
1315 1   
1316 1   
1317 1   
1318 1   
1319 1   
1320 1   
1321 1   
1322 1   
1323 1   
1324 1   
1325 1   
1326 1   
1327 1   
1328 1   
1329 1   
1330 1   
1331 1   
1332 1   
1333 1   
1334 1   
1335 1   
1336 1   
1337 1   
1338 1   
1339 1   
1340 1   
1341 1   
1342 1   
1343 1   
1344 1   
1345 1   
1346 1   
1347 1   
1348 1   
1349 1   
1350 1   
1351 1   
1352 1   
1353 1   
1354 1   
1355 1   
1356 1   
1357 1   
1358 1   
1359 1   
1360 1   
1361 1   
1362 1   
1363 1   
1364 1   
1365 1   
1366 1   
1367 1   
1368 1   
1369 1   
1370 1   
1371 1   
1372 1   
1373 1   
1374 1   
1375 1   
1376 1   
1377 1   
1378 1   
1379 1   
1380 1   
1381 1   
1382 1   
1383 1   
1384 1   
1385 1   
1386 1   
1387 1   
1388 1   
1389 1   
1390 1   
1391 1   
1392 1   
1393 1   
1394 1   
1395 1   
1396 1   
1397 1   
1398 1   
1399 1   
1400 1   
1401 1   
1402 1   
1403 1   
1404 1   
1405 1   
1406 1   
1407 1   
1408 1   
1409 1   
1410 1   
1411 1   
1412 1   
1413 1   
1414 1   
1415 1   
1416 1   
1417 1   
1418 1   
1419 1   
1420 1   
1421 1   
1422 1   
1423 1   
1424 1   
1425 1   
1426 1   
1427 1   
1428 1   
1429 1   
1430 1   
1431 1   
1432 1   
1433 1   
1434 1   
1435 1   
1436 1   
1437 1   
1438 1   
1439 1   
1440 1   
1441 1   
1442 1   
1443 1   
1444 1   
1445 1   
1446 1   
1447 1   
1448 1   
1449 1   
1450 1   
1451 1   
1452 1   
1453 1   
1454 1   
1455 1   
1456 1   
1457 1   
1458 1   
1459 1   
1460 1   
1461 1   
1462 1   
1463 1   
1464 1   
1465 1   
1466 1   
1467 1   
1468 1   
1469 1   
1470 1   
1471 1   
1472 1   
1473 1   
1474 1   
1475 1   
1476 1   
1477 1   
1478 1   
1479 1   
1480 1   
1481 1   
1482 1   
1483 1   
1484 1   
1485 1   
1486 1   
1487 1   
1488 1   
1489 1   
1490 1   
1491 1   
1492 1   
1493 1   
1494 1   
1495 1   
1496 1   
1497 1   
1498 1   
1499 1   
1500 1   
1501 1   
1502 1   
1503 1   
1504 1   
1505 1   
1506 1   
1507 1   
1508 1   
1509 1   
1510 1   
1511 1   
1512 1   
1513 1   
1514 1   
1515 1   
1516 1   
1517 1   
1518 1   
1519 1   
1520 1   
1521 1   
1522 1   
1523 1   
1524 1   
1525 1   
1526 1   
1527 1   
1528 1   
1529 1   
1530 1   
1531 1   
1532 1   
1533 1   
1534 1   
1535 1   
1536 1   
1537 1   
1538 1   
1539 1   
1540 1   
1541 1   
1542 1   
1543 1   
1544 1   
1545 1   
1546 1   
1547 1   
1548 1   
1549 1   
1550 1   
1551 1   
1552 1   
1553 1   
1554 1   
1555 1   
1556 1   
1557 1   
1558 1   
1559 1   
1560 1   
1561 1   
1562 1   
1563 1   
1564 1   
1565 1   
1566 1   
1567 1   
1568 1   
1569 1   
1570 1   
1571 1   
1572 1   
1573 1   
1574 1   
1575 1   
1576 1   
1577 1   
1578 1   
1579 1   
1580 1   
1581 1   
1582 1   
1583 1   
1584 1   
1585 1   
1586 1   
1587 1   
1588 1   
1589 1   
1590 1   
1591 1   
1592 1   
1593 1   
1594 1   
1595 1   
1596 1   
1597 1   
1598 1   
1599 1   
1600 1   
1601 1   
1602 1   
1603 1   
1604 1   
1605 1   
1606 1   
1607 1   
1608 1   
1609 1   
1610 1   
1611 1   
1612 1   
1613 1   
1614 1   
1615 1   
1616 1   
1617 1   
1618 1   
1619 1   
1620 1   
1621 1   
1622 1   
1623 1   
1624 1   
1625 1   
1626 1   
1627 1   
1628 1   
1629 1   
1630 1   
1631 1   
1632 1   
1633 1   
1634 1   
1635 1   
1636 1   
1637 1   
1638 1   
1639 1   
1640 1   
1641 1   
1642 1   
1643 1   
1644 1   
1645 1   
1646 1   
1647 1   
1648 1   
1649 1   
1650 1   
1651 1   
1652 1   
1653 1   
1654 1   
1655 1   
1656 1   
1657 1   
1658 1   
1659 1   
1660 1   
1661 1   
1662 1   
1663 1   
1664 1   
1665 1   
1666 1   
1667 1   
1668 1   
1669 1   
1670 1   
1671 1   
1672 1   
1673 1   
1674 1   
1675 1   
1676 1   
1677 1   
1678 1   
1679 1   
1680 1   
1681 1   
1682 1   
1683 1   
1684 1   
1685 1   
1686 1   
1687 1   
1688 1   
1689 1   
1690 1   
1691 1   
1692 1   
1693 1   
1694 1   
1695 1   
1696 1   
1697 1   
1698 1   
1699 1   
1700 1   
1701 1   
1702 1   
1703 1   
1704 1   
1705 1   
1706 1   
1707 1   
1708 1   
1709 1   
1710 1   
1711 1   
1712 1   
1713 1   
1714 1   
1715 1   
1716 1   
1717 1   
1718 1   
1719 1   
1720 1   
1721 1   
1722 1   
1723 1   
1724 1   
1725 1   
1726 1   
1727 1   
1728 1   
1729 1   
1730 1   
1731 1   
1732 1   
1733 1   
1734 1   
1735 1   
1736 1   
1737 1   
1738 1   
1739 1   
1740 1   
1741 1   
1742 1   
1743 1   
1744 1   
1745 1   
1746 1   
1747 1   
1748 1   
1749 1   
1750 1   
1751 1   
1752 1   
1753 1   
1754 1   
1755 1   
1756 1   
1757 1   
1758 1   
1759 1   
1760 1   
1761 1   
1762 1   
1763 1   
1764 1   
1765 1   
1766 1   
1767 1   
1768 1   
1769 1   
1770 1   
1771 1   
1772 1   
1773 1   
1774 1   
1775 1   
1776 1   
1777 1   
1778 1   
1779 1   
1780 1   
1781 1   
1782 1   
1783 1   
1784 1   
1785 1   
1786 1   
1787 1   
1788 1   
1789 1   
1790 1   
1791 1   
1792 1   
1793 1   
1794 1   
1795 1   
1796 1   
1797 1   
1798 1   
1799 1   
1800 1   
1801 1   
1802 1   
1803 1   
1804 1   
1805 1   
1806 1   
1807 1   
1808 1   
1809 1   
1810 1   
1811 1   
1812 1   
1813 1   
1814 1   
1815 1   
1816 1   
1817 1   
1818 1   
1819 1   
1820 1   
1821 1   
1822 1   
1823 1   
1824 1   
1825 1   
1826 1   
1827 1   
1828 1   
1829 1   
1830 1   
1831 1   
1832 1   
1833 1   
1834 1   
1835 1   
1836 1   
1837 1   
1838 1   
1839 1   
1840 1   
1841 1   
1842 1   
1843 1   
1844 1   
1845 1   
1846 1   
1847 1   
1848 1   
1849 1   
1850 1   
1851 1   
1852 1   
1853 1   
1854 1   
1855 1   
1856 1   
1857 1   
1858 1   
1859 1   
1860 1   
1861 1   
1862 1   
1863 1   
1864 1   
1865 1   
1866 1   
1867 1   
1868 1   
1869 1   
1870 1   
1871 1   
1872 1   
1873 1   
1874 1   
1875 1   
1876 1   
1877 1   
1878 1   
1879 1   
1880 1   
1881 1   
1882 1   
1883 1   
1884 1   
1885 1   
1886 1   
1887 1   
1888 1   
1889 1   
1890 1   
1891 1   
1892 1   
1893 1   
1894 1   
1895 1   
1896 1   
1897 1   
1898 1   
1899 1   
1900 1   
1901 1   
1902 1   
1903 1   
1904 1   
1905 1   
1906 1   
1907 1   
1908 1   
1909 1   
1910 1   
1911 1   
1912 1   
1913 1   
1914 1   
1915 1   
1916 1   
1917 1   
1918 1   
1919 1   
1920 1   
1921 1   
1922 1   
1923 1   
1924 1   
1925 1   
1926 1   
1927 1   
1928 1   
1929 1   
1930 1   
1931 1   
1932 1   
1933 1   
1934 1   
1935 1   
1936 1   
1937 1   
1938 1   
1939 1   
1940 1   
1941 1   
1942 1   
1943 1   
1944 1   
1945 1   
1946 1   
1947 1   
1948 1   
1949 1   
1950 1   
1951 1   
1952 1   
1953 1   
1954 1   
1955 1   
1956 1   
1957 1   
1958 1   
1959 1   
1960 1   
1961 1   
1962 1   
1963 1   
1964 1   
1965 1   
1966 1   
1967 1   
1968 1   
1969 1   
1970 1   
1971 1   
1972 1   
1973 1   
1974 1   
1975 1   
1976 1   
1977 1   
1978 1   
1979 1   
1980 1   
1981 1   
1982 1   
1983 1   
1984 1   
1985 1   
1986 1   
1987 1   
1988 1   
1989 1   
1990 1   
1991 1   
1992 1   
1993 1   
1994 1   
1995 1   
1996 1   
1997 1   
1998 1   
1999 1   
2000 1   
2001 1   
2002 1   
2003 1   
2004 1   
2005 1   
2006 1   
2007 1   
2008 1   
2009 1   
2010 1   
2011 1   
2012 1   
2013 1   
2014 1   
2015 1   
2016 1   
2017 1   
2018 1   
2019 1   
2020 1   
2021 1   
2022 1   
2023 1   
2024 1   
2025 1   
2026 1   
2027 1   
2028 1   
2029 1   
2030 1   
2031 1   
2032 1   
2033 1   
2034 1   
2035 1   
2036 1   
2037 1   
2038 1   
2039 1   
2040 1   
2041 1   
2042 1   
2043 1   
2044 1   
2045 1   
2046 1   
2047 1   
2048 1   
2049 1   
2050 1   
2051 1   
2052 1   
2053 1   
2054 1   
2055 1   
2056 1   
2057 1   
2058 1   
2059 1   
2060 1   
2061 1   
2062 1   
2063 1   
2064 1   
2065 1   
2066 1   
2067 1   
2068 1   
2069 1   
2070 1   
2071 1   
2072 1   
2073 1   
2074 1   
2075 1   
2076 1   
2077 1   
2078 1   
2079 1   
2080 1   
2081 1   
2082 1   
2083 1   
2084 1   
2085 1   
2086 1   
2087 1   
2088 1   
2089 1   
2090 1   
2091 1   
2092 1   
2093 1   
2094 1   
2095 1   
2096 1   
2097 1   
2098 1   
2099 1   
2100 1   
2101 1   
2102 1   
2103 1   
2104 1   
2105 1   
2106 1   
2107 1   
2108 1   
2109 1   
2110 1   
2111 1   
2112 1   
2113 1   
2114 1   
2115 1   
2116 1   
2117 1   
2118 1   
2119 1   
2120 1   
2121 1   
2122 1   
2123 1   
2124 1   
2125 1   
2126 1   
2127 1   
2128 1   
2129 1   
2130 1   
2131 1   
2132 1   
2133 1   
2134 1   
2135 1   
2136 1   
2137 1   
2138 1   
2139 1   
2140 1   
2141 1   
2142 1   
2143 1   
2144 1   
2145 1   
2146 1   
2147 1   
2148 1   
2149 1   
2150 1   
2151 1   
2152 1   
2153 1   
2154 1   
2155 1   
2156 1   
2157 1   
2158 1   
2159 1   
2160 1   
2161 1   
2162 1   
2163 1   
2164 1   
2165 1   
2166 1   
2167 1   
2168 1   
2169 1   
2170 1   
2171 1   
2172 1   
2173 1   
2174 1   
2175 1   
2176 1   
2177 1   
2178 1   
2179 1   
2180 1   
2181 1   
2182 1   
2183 1   
2184 1   
2185 1   
2186 1   
2187 1   
2188 1   
2189 1   
2190 1   
2191 1   
2192 1   
2193 1   
2194 1   
2195 1   
2196 1   
2197 1   
2198 1   
2199 1   
2200 1   
2201 1   
2202 1   
2203 1   
2204 1   
2205 1   
2206 1   
2207 1   
2208 1   
2209 1   
2210 1   
2211 1   
2212 1   
2213 1   
2214 1   
2215 1   
2216 1   
2217 1   
2218 1   
2219 1   
2220 1   
2221 1   
2222 1   
2223 1   
2224 1   
2225 1   
2226 1   
2227 1   
2228 1   
2229 1   
2230 1   
2231 1   
2232 1   
2233 1   
2234 1   
2235 1   
2236 1   
2237 1   
2238 1   
2239 1   
2240 1   
2241 1   
2242 1   
2243 1   
2244 1   
2245 1   
2246 1   
2247 1   
2248 1   
2249 1   
2250 1   
2251 1   
2252 1   
2253 1   
2254 1   
2255 1   
2256 1   
2257 1   
2258 1   
2259 1   
2260 1   
2261 1   
2262 1   
2263 1   
2264 1   
2265 1   
2266 1   
2267 1   
2268 1   
2269 1   
2270 1   
2271 1   
2272 1   
2273 1   
2274 1   
2275 1   
2276 1   
2277 1   
2278 1   
2279 1   
2280 1   
2281 1   
2282 1   
2283 1   
2284 1   
2285 1   
2286 1   
2287 1   
2288 1   
2289 1   
2290 1   
2291 1   
2292 1   
2293 1   
2294 1   
2295 1   
2296 1   
2297 1   
2298 1   
2299 1   
2300 1   
2301 1   
2302 1   
2303 1   
2304 1   
2305 1   
2306 1   
2307 1   
2308 1   
2309 1   
2310 1   
2311 1   
2312 1   
2313 1   
2314 1   
2315 1   
2316 1   
2317 1   
2318 1   
2319 1   
2320 1   
2321 1   
2322 1   
2323 1   
2324 1   
2325 1   
2326 1   
2327 1   
2328 1   
2329 1   
2330 1   
2331 1   
2332 1   
2333 1   
2334 1   
2335 1   
2336 1   
2337 1   
2338 1   
2339 1   
2340 1   
2341 1   
2342 1   
2343 1   
2344 1   
2345 1   
2346 1   
2347 1   
2348 1   
2349 1   
2350 1   
2351 1   
2352 1   
2353 1   
2354 1   
2355 1   
2356 1   
2357 1   
2358 1   
2359 1   
2360 1   
2361 1   
2362 1   
2363 1   
2364 1   
2365 1   
2366 1   
2367 1   
2368 1   
2369 1   
2370 1   
2371 1   
2372 1   
2373 1   
2374 1   
2375 1   
2376 1   
2377 1   
2378 1   
2379 1   
2380 1   
2381 1   
2382 1   
2383 1   
2384 1   
2385 1   
2386 1   
2387 1   
2388 1   
2389 1   
2390 1   
2391 1   
2392 1   
2393 1   
2394 1   
2395 1   
2396 1   
2397 1   
2398 1   
2399 1   
2400 1   
2401 1   
2402 1   
2403 1   
2404 1   
2405 1   
2406 1   
2407 1   
2408 1   
2409 1   
2410 1   
2411 1   
2412 1   
2413 1   
2414 1   
2415 1   
2416 1   
2417 1   
2418 1   
2419 1   
2420 1   
2421 1   
2422 1   
2423 1   
2424 1   
2425 1   
2426 1   
2427 1   
2428 1   
2429 1   
2430 1   
2431 1   
2432 1   
2433 1   
2434 1   
2435 1   
2436 1   
2437 1   
2438 1   
2439 1   
2440 1   
2441 1   
2442 1   
2443 1   
2444 1   
2445 1   
2446 1   
2447 1   
2448 1   
2449 1   
2450 1   
2451 1   
2452 1   
2453 1   
2454 1   
2455 1   
2456 1   
2457 1   
2458 1   
2459 1   
2460 1   
2461 1   
2462 1   
2463 1   
2464 1   
2465 1   
2466 1   
2467 1   
2468 1   
2469 1   
2470 1   
2471 1   
2472 1   
2473 1   
2474 1   
2475 1   
2476 1   
2477 1   
2478 1   
2479 1   
2480 1   
2481 1   
2482 1   
2483 1   
2484 1   
2485 1   
2486 1   
2487 1   
2488 1   
2489 1   
2490 1   
2491 1   
2492 1   
2493 1   
2494 1   
2495 1   
2496 1   
2497 1   
2498 1   
2499 1   
2500 1   
2501 1   
2502 1   
2503 1   
2504 1   
2505 1   
2506 1   
2507 1   
2508 1   
2509 1   
2510 1   
2511 1   
2512 1   
2513 1   
2514 1   
2515 1   
2516 1   
2517 1   
2518 1   
2519 1   
2520 1   
2521 1   
2522 1   
2523 1   
2524 1   
2525 1   
2526 1   
2527 1   
2528 1   
2529 1   
2530 1   
2531 1   
2532 1   
2533 1   
2534 1   
2535 1   
2536 1   
2537 1   
2538 1   
2539 1   
2540 1   
2541 1   
2542 1   
2543 1   
2544 1   
2545 1   
2546 1   
2547 1   
2548 1   
2549 1   
2550 1   
2551 1   
2552 1   
2553 1   
2554 1   
2555 1   
2556 1   
2557 1   
2558 1   
2559 1   
2560 1   
2561 1   
2562 1   
2563 1   
2564 1   
2565 1   
2566 1   
2567 1   
2568 1   
2569 1   
2570 1   
2571 1   
2572 1   
2573 1   
2574 1   
2575 1   
2576 1   
2577 1   
2578 1   
2579 1   
2580 1   
2581 1   
2582 1   
2583 1   
2584 1   
2585 1   
2586 1   
2587 1   
2588 1   
2589 1   
2590 1   
2591 1   
2592 1   
2593 1   
2594 1   
2595 1   
2596 1   
2597 1   
2598 1   
2599 1   
2600 1   
2601 1   
2602 1   
2603 1   
2604 1   
2605 1   
2606 1   
2607 1   
2608 1   
2609 1   
2610 1   
2611 1   
2612 1   
2613 1   
2614 1   
2615 1   
2616 1   
2617 1   
2618 1   
2619 1   
2620 1   
2621 1   
2622 1   
2623 1   
2624 1   
2625 1   
2626 1   
2627 1   
2628 1   
2629 1   
2630 1   
2631 1   
2632 1   
2633 1   
2634 1   
2635 1   
2636 1   
2637 1   
2638 1   
2639 1   
2640 1   
2641 1   
2642 1   
2643 1   
2644 1   
2645 1   
2646 1   
2647 1   
2648 1   
2649 1   
2650 1   
2651 1   
2652 1   
2653 1   
2654 1   
2655 1   
2656 1   
2657 1   
2658 1   
2659 1   
2660 1   
2661 1   
2662 1   
2663 1   
2664 1   
2665 1   
2666 1   
2667 1   
2668 1   
2669 1   
2670 1   
2671 1   
2672 1   
2673 1   
2674 1   
2675 1   
2676 1   
2677 1   
2678 1   
2679 1   
2680 1   
2681 1   
2682 1   
2683 1   
2684 1   
2685 1   
2686 1   
2687 1   
2688 1   
2689 1   
2690 1   
2691 1   
2692 1   
2693 1   
2694 1   
2695 1   
2696 1   
2697 1   
2698 1   
2699 1   
2700 1   
2701 1   
2702 1   
2703 1   
2704 1   
2705 1   
2706 1   
2707 1   
2708 1   
2709 1   
2710 1   
2711 1   
2712 1   
2713 1   
2714 1   
2715 1   
2716 1   
2717 1   
2718 1   
2719 1   
2720 1   
2721 1   
2722 1   
2723 1   
2724 1   
2725 1   
2726 1   
2727 1   
2728 1   
2729 1   
2730 1   
2731 1   
2732 1   
2733 1   
2734 1   
2735 1   
2736 1   
2737 1   
2738 1   
2739 1   
2740 1   
2741 1   
2742 1   
2743 1   
2744 1   
2745 1   
2746 1   
2747 1   
2748 1   
2749 1   
2750 1   
2751 1   
2752 1   
2753 1   
2754 1   
2755 1   
2756 1   
2757 1   
2758 1   
2759 1   
2760 1   
2761 1   
2762 1   
2763 1   
2764 1   
2765 1   
2766 1   
2767 1   
2768 1   
2769 1   
2770 1   
2771 1   
2772 1   
2773 1   
2774 1   
2775 1   
2776 1   
2777 1   
2778 1   
2779 1   
2780 1   
2781 1   
2782 1   
2783 1   
2784 1   
2785 1   
2786 1   
2787 1   
2788 1   
2789 1   
2790 1   
2791 1   
2792 1   
2793 1   
2794 1   
2795 1   
2796 1   
2797 1   
2798 1   
2799 1   
2800 1   
2801 1   
2802 1   
2803 1   
2804 1   
2805 1   
2806 1   
2807 1   
2808 1   
2809 1   
2810 1   
2811 1   
2812 1   
2813 1   
2814 1   
2815 1   
2816 1   
2817 1   
2818 1   
2819 1   
2820 1   
2821 1   
2822 1   
2823 1   
2824 1   
2825 1   
2826 1   
2827 1   
2828 1   
2829 1   
2830 1   
2831 1   
2832 1   
2833 1   
2834 1   
2835 1   
2836 1   
2837 1   
2838 1   
2839 1   
2840 1   
2841 1   
2842 1   
2843 1   
2844 1   
2845 1   
2846 1   
2847 1   
2848 1   
2849 1   
2850 1   
2851 1   
2852 1   
2853 1   
2854 1   
2855 1   
2856 1   
2857 1   
2858 1   
2859 1   
2860 1   
2861 1   
2862 1   
2863 1   
2864 1   
2865 1   
2866 1   
2867 1   
2868 1   
2869 1   
2870 1   
2871 1   
2872 1   
2873 1   
2874 1   
2875 1   
2876 1   
2877 1   
2878 1   
2879 1   
2880 1   
2881 1   
2882 1   
2883 1   
2884 1   
2885 1   
2886 1   
2887 1   
2888 1   
2889 1   
2890 1   
2891 1   
2892 1   
2893 1   
2894 1   
2895 1   
2896 1   
2897 1   
2898 1   
2899 1   
2900 1   
2901 1   
2902 1   
2903 1   
2904 1   
2905 1   
2906 1   
2907 1   
2908 1   
2909 1   
2910 1   
2911 1   
2912 1   
2913 1   
2914 1   
2915 1   
2916 1   
2917 1   
2918 1   
2919 1   
2920 1   
2921 1   
2922 1   
2923 1   
2924 1   
2925 1   
2926 1   
2927 1   
2928 1   
2929 1   
2930 1   
2931 1   
2932 1   
2933 1   
2934 1   
2935 1   
2936 1   
2937 1   
2938 1   
2939 1   
2940 1   
2941 1   
2942 1   
2943 1   
2944 1   
2945 1   
2946 1   
2947 1   
2948 1   
2949 1   
2950 1   
2951 1   
2952 1   
2953 1   
2954 1   
2955 1   
2956 1   
2957 1   
2958 1   
2959 1   
2960 1   
2961 1   
2962 1   
2963 1   
2964 1   
2965 1   
2966 1   
2967 1   
2968 1   
2969 1   
2970 1   
2971 1   
2972 1   
2973 1   
2974 1   
2975 1   
2976 1   
2977 1   
2978 1   
2979 1   
2980 1   
2981 1   
2982 1   
2983 1   
2984 1   
2985 1   
2986 1   
2987 1   
2988 1   
2989 1   
2990 1   
2991 1   
2992 1   
2993 1   
2994 1   
2995 1   
2996 1   
2997 1   
2998 1   
2999 1   
3000 1   
3001 1   
3002 1   
3003 1   
3004 1   
3005 1   
3006 1   
3007 1   
3008 1   
3009 1   
3010 1   
3011 1   
3012 1   
3013 1   
3014 1   
3015 1   
3016 1   
3017 1   
3018 1   
3019 1   
3020 1   
3021 1   
3022 1   
3023 1   
3024 1   
3025 1   
3026 1   
3027 1   
3028 1   
3029 1   
3030 1   
3031 1   
3032 1   
3033 1   
3034 1   
3035 1   
3036 1   
3037 1   
3038 1   
3039 1   
3040 1   
3041 1   
3042 1   
3043 1   
3044 1   
3045 1   
3046 1   
3047 1   
3048 1   
3049 1   
3050 1   
3051 1   
3052 1   
3053 1   
3054 1   
3055 1   
3056 1   
3057 1   
3058 1   
3059 1   
3060 1   
3061 1   
3062 1   
3063 1   
3064 1   
3065 1   
3066 1   
3067 1   
3068 1   
3069 1   
3070 1   
3071 1   
3072 1   
3073 1   
3074 1   
3075 1   
3076 1   
3077 1   
3078 1   
3079 1   
3080 1   
3081 1   
3082 1   
3083 1   
3084 1   
3085 1   
3086 1   
3087 1   
3088 1   
3089 1   
3090 1   
3091 1   
3092 1   
3093 1   
3094 1   
3095 1   
3096 1   
3097 1   
3098 1   
3099 1   
3100 1   
3101 1   
3102 1   
3103 1   
3104 1   
3105 1   
3106 1   
3107 1   
3108 1   
3109 1   
3110 1   
3111 1   
3112 1   
3113 1   
3114 1   
3115 1   
3116 1   
3117 1   
3118 1   
3119 1   
3120 1   
3121 1   
3122 1   
3123 1   
3124 1   
3125 1   
3126 1   
3127 1   
3128 1   
3129 1   
3130 1   
3131 1   
3132 1   
3133 1   
3134 1   
3135 1   
3136 1   
3137 1   
3138 1   
3139 1   
3140 1   
3141 1   
3142 1   
3143 1   
3144 1   
3145 1   
3146 1   
3147 1   
3148 1   
3149 1   
3150 1   
3151 1   
3152 1   
3153 1   
3154 1   
3155 1   
3156 1   
3157 1   
3158 1   
3159 1   
3160 1   
3161 1   
3162 1   
3163 1   
3164 1   
3165 1   
3166 1   
3167 1   
3168 1   
3169 1   
3170 1   
3171 1   
3172 1   
3173 1   
3174 1   
3175 1   
3176 1   
3177 1   
3178 1   
3179 1   
3180 1   
3181 1   
3182 1   
3183 1   
3184 1   
3185 1   
3186 1   
3187 1   
3188 1   
3189 1   
3190 1   
3191 1   
3192 1   
3193 1   
3194 1   
3195 1   
3196 1   
3197 1   
3198 1   
3199 1   
3200 1   
3201 1   
3202 1   
3203 1   
3204 1   
3205 1   
3206 1   
3207 1   
3208 1   
3209 1   
3210 1   
3211 1   
3212 1   
3213 1   
3214 1   
3215 1   
3216 1   
3217 1   
3218 1   
3219 1   
3220 1   
3221 1   
3222 1   
3223 1   
3224 1   
3225 1   
3226 1   
3227 1   
3228 1   
3229 1   
3230 1   
3231 1   
3232 1   
3233 1   
3234 1   
3235 1   
3236 1   
3237 1   
3238 1   
3239 1   
3240 1   
3241 1   
3242 1   
3243 1   
3244 1   
3245 1   
3246 1   
3247 1   
3248 1   
3249 1   
3250 1   
3251 1   
3252 1   
3253 1   
3254 1   
3255 1   
3256 1   
3257 1   
3258 1   
3259 1   
3260 1   
3261 1   
3262 1   
3263 1   
3264 1   
3265 1   
3266 1   
3267 1   
3268 1   
3269 1   
3270 1   
3271 1   
3272 1   
3273 1   
3274 1   
3275 1   
3276 1   
3277 1   
3278 1   
3279 1   
3280 1   
3281 1   
3282 1   
3283 1   
3284 1   
3285 1   
3286 1   
3287 1   
3288 1   
3289 1   
3290 1   
3291 1   
3292 1   
3293 1   
3294 1   
3295 1   
3296 1   
3297 1   
3298 1   
3299 1   
3300 1   
3301 1   
3302 1   
3303 1   
3304 1   
3305 1   
3306 1   
3307 1   
3308 1   
3309 1   
3310 1   
3311 1   
3312 1   
3313 1   
3314 1   
3315 1   
3316 1   
3317 1   
3318 1   
3319 1   
3320 1   
3321 1   
3322 1   
3323 1   
3324 1   
3325 1   
3326 1   
3327 1   
3328 1   
3329 1   
3330 1   
3331 1   
3332 1   
3333 1   
3334 1   
3335 1   
3336 1   
3337 1   
3338 1   
3339 1   
3340 1   
3341 1   
3342 1   
3343 1   
3344 1   
3345 1   
3346 1   
3347 1   
3348 1   
3349 1   
3350 1   
3351 1   
3352 1   
3353 1   
3354 1   
3355 1   
3356 1   
3357 1   
3358 1   
3359 1   
3360 1   
3361 1   
3362 1   
3363 1   
3364 1   
3365 1   
3366 1   
3367 1   
3368 1   
3369 1   
3370 1   
3371 1   
3372 1   
3373 1   
3374 1   
3375 1   
3376 1   
3377 1   
3378 1   
3379 1   
3380 1   
3381 1   
3382 1   
3383 1   
3384 1   
3385 1   
3386 1   
3387 1   
3388 1   
3389 1   
3390 1   
3391 1   
3392 1   
3393 1   
3394 1   
3395 1   
3396 1   
3397 1   
3398 1   
3399 1   
3400 1   
3401 1   
3402 1   
3403 1   
3404 1   
3405 1   
3406 1   
3407 1   
3408 1   
3409 1   
3410 1   
3411 1   
3412 1   
3413 1   
3414 1   
3415 1   
3416 1   
3417 1   
3418 1   
3419 1   
3420 1   
3421 1   
3422 1   
3423 1   
3424 1   
3425 1   
3426 1   
3427 1   
3428 1   
3429 1   
3430 1   
3431 1   
3432 1   
3433 1   
3434 1   
3435 1   
3436 1   
3437 1   
3438 1   
3439 1   
3440 1   
3441 1   
3442 1   
3443 1   
3444 1   
3445 1   
3446 1   
3447 1   
3448 1   
3449 1   
3450 1   
3451 1   
3452 1   
3453 1   
3454 1   
3455 1   
3456 1   
3457 1   
3458 1   
3459 1   
3460 1   
3461 1   
3462 1   
3463 1   
3464 1   
3465 1   
3466 1   
3467 1   
3468 1   
3469 1   
3470 1   
3471 1   
3472 1   
3473 1   
3474 1   
3475 1   
3476 1   
3477 1   
3478 1   
3479 1   
3480 1   
3481 1   
3482 1   
3483 1   
3484 1   
3485 1   
3486 1   
3487 1   
3488 1   
3489 1   
3490 1   
3491 1   
3492 1   
3493 1   
3494 1   
3495 1   
3496 1   
3497 1   
3498 1   
3499 1   
3500 1   
3501 1   
3502 1   
3503 1   
3504 1   
3505 1   
3506 1   
3507 1   
3508 1   
3509 1   
3510 1   
3511 1   
3512 1   
3513 1   
3514 1   
3515 1   
3516 1   
3517 1   
3518 1   
3519 1   
3520 1   
3521 1   
3522 1   
3523 1   
3524 1   
3525 1   
3526 1   
3527 1   
3528 1   
3529 1   
3530 1   
3531 1   
3532 1   
3533 1   
3534 1   
3535 1   
3536 1   
3537 1   
3538 1   
3539 1   
3540 1   
3541 1   
3542 1   
3543 1   
3544 1   
3545 1   
3546 1   
3547 1   
3548 1   
3549 1   
3550 1   
3551 1   
3552 1   
3553 1   
3554 1   
3555 1   
3556 1   
3557 1   
3558 1   
3559 1   
3560 1   
3561 1   
3562 1   
3563 1   
3564 1   
3565 1   
3566 1   
3567 1   
3568 1   
3569 1   
3570 1   
3571 1   
3572 1   
3573 1   
3574 1   
3575 1   
3576 1   
3577 1   
3578 1   
3579 1   
3580 1   
3581 1   
3582 1   
3583 1   
3584 1   
3585 1   
3586 1   
3587 1   
3588 1   
3589 1   
3590 1   
3591 1   
3592 1   
3593 1   
3594 1   
3595 1   
3596 1   
3597 1   
3598 1   
3599 1   
3600 1   
3601 1   
3602 1   
3603 1   
3604 1   
3605 1   
3606 1   
3607 1   
3608 1   
3609 1   
3610 1   
3611 1   
3612 1   
3613 1   
3614 1   
3615 1   
3616 1   
3617 1   
3618 1   
3619 1   
3620 1   
3621 1   
3622 1   
3623 1   
3624 1   
3625 1   
3626 1   
3627 1   
3628 1   
3629 1   
3630 1   
3631 1   
3632 1   
3633 1   
3634 1   
3635 1   
3636 1   
3637 1   
3638 1   
3639 1   
3640 1   
3641 1   
3642 1   
3643 1   
3644 1   
3645 1   
3646 1   
3647 1   
3648 1   
3649 1   
3650 1   
3651 1   
3652 1   
3653 1   
3654 1   
3655 1   
3656 1   
3657 1   
3658 1   
3659 1   
3660 1   
3661 1   
3662 1   
3663 1   
3664 1   
3665 1   
3666 1   
3667 1   
3668 1   
3669 1   
3670 1   
3671 1   
3672 1   
3673 1   
3674 1   
3675 1   
3676 1   
3677 1   
3678 1   
3679 1   
3680 1   
3681 1   
3682 1   
3683 1   
3684 1   
3685 1   
3686 1   
3687 1   
3688 1   
3689 1   
3690 1   
3691 1   
3692 1   
3693 1   
3694 1   
3695 1   
3696 1   
3697 1   
3698 1   
3699 1   
3700 1   
3701 1   
3702 1   
3703 1   
3704 1   
3705 1   
3706 1   
3707 1   
3708 1   
3709 1   
3710 1   
3711 1   
3712 1   
3713 1   
3714 1   
3715 1   
3716 1   
3717 1   
3718 1   
3719 1   
3720 1   
3721 1   
3722 1   
3723 1   
3724 1   
3725 1   
3726 1   
3727 1   
3728 1   
3729 1   
3730 1   
3731 1   
3732 1   
3733 1   
3734 1   
3735 1   
3736 1   
3737 1   
3738 1   
3739 1   
3740 1   
3741 1   
3742 1   
3743 1   
3744 1   
3745 1   
3746 1   
3747 1   
3748 1   
3749 1   
3750 1   
3751 1   
3752 1   
3753 1   
3754 1   
3755 1   
3756 1   
3757 1   
3758 1   
3759 1   
3760 1   
3761 1   
3762 1   
3763 1   
3764 1   
3765 1   
3766 1   
3767 1   
3768 1   
3769 1   
3770 1   
3771 1   
3772 1   
3773 1   
3774 1   
3775 1   
3776 1   
3777 1   
3778 1   
3779 1   
3780 1   
3781 1   
3782 1   
3783 1   
3784 1   
3785 1   
3786 1   
3787 1   
3788 1   
3789 1   
3790 1   
3791 1   
3792 1   
3793 1   
3794 1   
3795 1   
3796 1   
3797 1   
3798 1   
3799 1   
3800 1   
3801 1   
3802 1   
3803 1   
3804 1   
3805 1   
3806 1   
3807 1   
3808 1   
3809 1   
3810 1   
3811 1   
3812 1   
3813 1   
3814 1   
3815 1   
3816 1   
3817 1   
3818 1   
3819 1   
3820 1   
3821 1   
3822 1   
3823 1   
3824 1   
3825 1   
3826 1   
3827 1   
3828 1   
3829 1   
3830 1   
3831 1   
3832 1   
3833 1   
3834 1   
3835 1   
3836 1   
3837 1   
3838 1   
3839 1   
3840 1   
3841 1   
3842 1   
3843 1   
3844 1   
3845 1   
3846 1   
3847 1   
3848 1   
3849 1   
3850 1   
3851 1   
3852 1   
3853 1   
3854 1   
3855 1   
3856 1   
3857 1   
3858 1   
3859 1   
3860 1   
3861 1   
3862 1   
3863 1   
3864 1   
3865 1   
3866 1   
3867 1   
3868 1   
3869 1   
3870 1   
3871 1   
3872 1   
3873 1   
3874 1   
3875 1   
3876 1   
3877 1   
3878 1   
3879 1   
3880 1   
3881 1   
3882 1   
3883 1   
3884 1   
3885 1   
3886 1   
3887 1   
3888 1   
3889 1   
3890 1   
3891 1   
3892 1   
3893 1   
3894 1   
3895 1   
3896 1   
3897 1   
3898 1   
3899 1   
3900 1   
3901 1   
3902 1   
3903 1   
3904 1   
3905 1   
3906 1   
3907 1   
3908 1   
3909 1   
3910 1   
3911 1   
3912 1   
3913 1   
3914 1   
3915 1   
3916 1   
3917 1   
3918 1   
3919 1   
3920 1   
3921 1   
3922 1   
3923 1   
3924 1   
3925 1   
3926 1   
3927 1   
3928 1   
3929 1   
3930 1   
3931 1   
3932 1   
3933 1   
3934 1   
3935 1   
3936 1   
3937 1   
3938 1   
3939 1   
3940 1   
3941 1   
3942 1   
3943 1   
3944 1   
3945 1   
3946 1   
3947 1   
3948 1   
3949 1   
3950 1   
3951 1   
3952 1   
3953 1   
3954 1   
3955 1   
3956 1   
3957 1   
3958 1   
3959 1   
3960 1   
3961 1   
3962 1   
3963 1   
3964 1   
3965 1   
3966 1   
3967 1   
3968 1   
3969 1   
3970 1   
3971 1   
3972 1   
3973 1   
3974 1   
3975 1   
3976 1   
3977 1   
3978 1   
3979 1   
3980 1   
3981 1   
3982 1   
3983 1   
3984 1   
3985 1   
3986 1   
3987 1   
3988 1   
3989 1   
3990 1   
3991 1   
3992 1   
3993 1   
3994 1   
3995 1   
3996 1   
3997 1   
3998 1   
3999 1   
4000 1   
4001 1   
4002 1   
4003 1   
4004 1   
4005 1   
4006 1   
4007 1   
4008 1   
4009 1   
4010 1   
4011 1   
4012 1   
4013 1   
4014 1   
4015 1   
4016 1   
4017 1   
4018 1   
4019 1   
4020 1   
4021 1   
4022 1   
4023 1   
4024 1   
4025 1   
4026 1   
4027 1   
4028 1   
4029 1   
4030 1   
4031 1   
4032 1   
4033 1   
4034 1   
4035 1   
4036 1   
4037 1   
4038 1   
4039 1   
4040 1   
4041 1   
4042 1   
4043 1   
4044 1   
4045 1   
4046 1   
4047 1   
4048 1   
4049 1   
4050 1   
4051 1   
4052 1   
4053 1   
4054 1   
4055 1   
4056 1   
4057 1   
4058 1   
4059 1   
4060 1   
4061 1   
4062 1   
4063 1   
4064 1   
4065 1   
4066 1   
4067 1   
4068 1   
4069 1   
4070 1   
4071 1   
4072 1   
4073 1   
4074 1   
4075 1   
4076 1   
4077 1   
4078 1   
4079 1   
4080 1   
4081 1   
4082 1   
4083 1   
4084 1   
4085 1   
4086 1   
4087 1   
4088 1   
4089 1   
4090 1   
4091 1   
4092 1   
4093 1   
4094 1   
4095 1   
4096 1   
4097 1   
4098 1   
4099 1   
4100 1   
4101 1   
4102 1   
4103 1   
4104 1   
4105 1   
4106 1   
4107 1   
4108 1   
4109 1   
4110 1   
4111 1   
4112 1   
4113 1   
4114 1   
4115 1   
4116 1   
4117 1   
4118 1   
4119 1   
4120 1   
4121 1   
4122 1   
4123 1   
4124 1   
4125 1   
4126 1   
4127 1   
4128 1   
4129 1   
4130 1   
4131 1   
4132 1   
4133 1   
4134 1   
4135 1   
4136 1   
4137 1   
4138 1   
4139 1   
4140 1   
4141 1   
4142 1   
4143 1   
4144 1   
4145 1   
4146 1   
4147 1   
4148 1   
4149 1   
4150 1   
4151 1   
4152 1   
4153 1   
4154 1   
4155 1   
4156 1   
4157 1   
4158 1   
4159 1   
4160 1   
4161 1   
4162 1   
4163 1   
4164 1   
4165 1   
4166 1   
4167 1   
4168 1   
4169 1   
4170 1   
4171 1   
4172 1   
4173 1   
4174 1   
4175 1   
4176 1   
4177 1   
4178 1   
4179 1   
4180 1   
4181 1   
4182 1   
4183 1   
4184 1   
4185 1   
4186 1   
4187 1   
4188 1   
4189 1   
4190 1   
4191 1   
4192 1   
4193 1   
4194 1   
4195 1   
4196 1   
4197 1   
4198 1   
4199 1   
4200 1   
4201 1   
4202 1   
4203 1   
4204 1   
4205 1   
4206 1   
4207 1   
4208 1   
4209 1   
4210 1   
4211 1   
4212 1   
4213 1   
4214 1   
4215 1   
4216 1   
4217 1   
4218 1   
4219 1   
4220 1   
4221 1   
4222 1   
4223 1   
4224 1   
4225 1   
4226 1   
4227 1   
4228 1   
4229 1   
4230 1   
4231 1   
4232 1   
4233 1   
4234 1   
4235 1   
4236 1   
4237 1   
4238 1   
4239 1   
4240 1   
4241 1   
4242 1   
4243 1   
4244 1   
4245 1   
4246 1   
4247 1   
4248 1   
4249 1   
4250 1   
4251 1   
4252 1   
4253 1   
4254 1   
4255 1   
4256 1   
4257 1   
4258 1   
4259 1   
4260 1   
4261 1   
4262 1   
4263 1   
4264 1   
4265 1   
4266 1   
4267 1   
4268 1   
4269 1   
4270 1   
4271 1   
4272 1   
4273 1   
4274 1   
4275 1   
4276 1   
4277 1   
4278 1   
4279 1   
4280 1   
4281 1   
4282 1   
4283 1   
4284 1   
4285 1   
4286 1   
4287 1   
4288 1   
4289 1   
4290 1   
4291 1   
4292 1   
4293 1   
4294 1   
4295 1   
4296 1   
4297 1   
4298 1   
4299 1   
4300 1   
4301 1   
4302 1   
4303 1   
4304 1   
4305 1   
4306 1   
4307 1   
4308 1   
4309 1   
4310 1   
4311 1   
4312 1   
4313 1   
4314 1   
4315 1   
4316 1   
4317 1   
4318 1   
4319 1   
4320 1   
4321 1   
4322 1   
4323 1   
4324 1   
4325 1   
4326 1   
4327 1   
4328 1   
4329 1   
4330 1   
4331 1   
4332 1   
4333 1   
4334 1   
4335 1   
4336 1   
4337 1   
4338 1   
4339 1   
4340 1   
4341 1   
4342 1   
4343 1   
4344 1   
4345 1   
4346 1   
4347 1   
4348 1   
4349 1   
4350 1   
4351 1   
4352 1   
4353 1   
4354 1   
4355 1   
4356 1   
4357 1   
4358 1   
4359 1   
4360 1   
4361 1   
4362 1   
4363 1   
4364 1   
4365 1   
4366 1   
4367 1   
4368 1   
4369 1   
4370 1   
4371 1   
4372 1   
4373 1   
4374 1   
4375 1   
4376 1   
4377 1   
4378 1   
4379 1   
4380 1   
4381 1   
4382 1   
4383 1   
4384 1   
4385 1   
4386 1   
4387 1   
4388 1   
4389 1   
4390 1   
4391 1   
4392 1   
4393 1   
4394 1   
4395 1   
4396 1   
4397 1   
4398 1   
4399 1   
4400 1   
4401 1   
4402 1   
4403 1   
4404 1   
4405 1   
4406 1   
4407 1   
4408 1   
4409 1   
4410 1   
4411 1   
4412 1   
4413 1   
4414 1   
4415 1   
4416 1   
4417 1   
4418 1   
4419 1   
4420 1   
4421 1   
4422 1   
4423 1   
4424 1   
4425 1   
4426 1   
4427 1   
4428 1   
4429 1   
4430 1   
4431 1   
4432 1   
4433 1   
4434 1   
4435 1   
4436 1   
4437 1   
4438 1   
4439 1   
4440 1   
4441 1   
4442 1   
4443 1   
4444 1   
4445 1   
4446 1   
4447 1   
4448 1   
4449 1   
4450 1   
4451 1   
4452 1   
4453 1   
4454 1   
4455 1   
4456 1   
4457 1   
4458 1   
4459 1   
4460 1   
4461 1   
4462 1   
4463 1   
4464 1   
4465 1   
4466 1   
4467 1   
4468 1   
4469 1   
4470 1   
4471 1   
4472 1   
4473 1   
4474 1   
4475 1   
4476 1   
4477 1   
4478 1   
4479 1   
4480 1   
4481 1   
4482 1   
4483 1   
4484 1   
4485 1   
4486 1   
4487 1   
4488 1   
4489 1   
4490 1   
4491 1   
4492 1   
4493 1   
4494 1   
4495 1   
4496 1   
4497 1   
4498 1   
4499 1   
4500 1   
4501 1   
4502 1   
4503 1   
4504 1   
4505 1   
4506 1   
4507 1   
4508 1   
4509 1   
4510 1   
4511 1   
4512 1   
4513 1   
4514 1   
4515 1   
4516 1   
4517 1   
4518 1   
4519 1   
4520 1   
4521 1   
4522 1   
4523 1   
4524 1   
4525 1   
4526 1   
4527 1   
4528 1   
4529 1   
4530 1   
4531 1   
4532 1   
4533 1   
4534 1   
4535 1   
4536 1   
4537 1   
4538 1   
4539 1   
4540 1   
4541 1   
4542 1   
4543 1   
4544 1   
4545 1   
4546 1   
4547 1   
4548 1   
4549 1   
4550 1   
4551 1   
4552 1   
4553 1   
4554 1   
4555 1   
4556 1   
4557 1   
4558 1   
4559 1   
4560 1   
4561 1   
4562 1   
4563 1   
4564 1   
4565 1   
4566 1   
4567 1   
4568 1   
4569 1   
4570 1   
4571 1   
4572 1   
4573 1   
4574 1   
4575 1   
4576 1   
4577 1   
4578 1   
4579 1   
4580 1   
4581 1   
4582 1   
4583 1   
4584 1   
4585 1   
4586 1   
4587 1   
4588 1   
4589 1   
4590 1   
4591 1   
4592 1   
4593 1   
4594 1   
4595 1   
4596 1   
4597 1   
4598 1   
4599 1   
4600 1   
4601 1   
4602 1   
4603 1   
4604 1   
4605 1   
4606 1   
4607 1   
4608 1   
4609 1   
4610 1   
4611 1   
4612 1   
4613 1   
4614 1   
4615 1   
4616 1   
4617 1   
4618 1   
4619 1   
4620 1   
4621 1   
4622 1   
4623 1   
4624 1   
4625 1   
4626 1   
4627 1   
4628 1   
4629 1   
4630 1   
4631 1   
4632 1   
4633 1   
4634 1   
4635 1   
4636 1   
4637 1   
4638 1   
4639 1   
4640 1   
4641 1   
4642 1   
4643 1   
4644 1   
4645 1   
4646 1   
4647 1   
4648 1   
4649 1   
4650 1   
4651 1   
4652 1   
4653 1   
4654 1   
4655 1   
4656 1   
4657 1   
4658 1   
4659 1   
4660 1   
4661 1   
4662 1   
4663 1   
4664 1   
4665 1   
4666 1   
4667 1   
4668 1   
4669 1   
4670 1   
4671 1   
4672 1   
4673 1   
4674 1   
4675 1   
4676 1   
4677 1   
4678 1   
4679 1   
4680 1   
4681 1   
4682 1   
4683 1   
4684 1   
4685 1   
4686 1   
4687 1   
4688 1   
4689 1   
4690 1   
4691 1   
4692 1   
4693 1   
4694 1   
4695 1   
4696 1   
4697 1   
4698 1   
4699 1   
4700 1   
4701 1   
4702 1   
4703 1   
4704 1   
4705 1   
4706 1   
4707 1   
4708 1   
4709 1   
4710 1   
4711 1   
4712 1   
4713 1   
4714 1   
4715 1   
4716 1   
4717 1   
4718 1   
4719 1   
4720 1   
4721 1   
4722 1   
4723 1   
4724 1   
4725 1   
4726 1   
4727 1   
4728 1   
4729 1   
4730 1   
4731 1   
4732 1   
4733 1   
4734 1   
4735 1   
4736 1   
4737 1   
4738 1   
4739 1   
4740 1   
4741 1   
4742 1   
4743 1   
4744 1   
4745 1   
4746 1   
4747 1   
4748 1   
4749 1   
4750 1   
4751 1   
4752 1   
4753 1   
4754 1   
4755 1   
4756 1   
4757 1   
4758 1   
4759 1   
4760 1   
4761 1   
4762 1   
4763 1   
4764 1   
4765 1   
4766 1   
4767 1   
4768 1   
4769 1   
4770 1   
4771 1   
4772 1   
4773 1   
4774 1   
4775 1   
4776 1   
4777 1   
4778 1   
4779 1   
4780 1   
4781 1   
4782 1   
4783 1   
4784 1   
4785 1   
4786 1   
4787 1   
4788 1   
4789 1   
4790 1   
4791 1   
4792 1   
4793 1   
4794 1   
4795 1   
4796 1   
4797 1   
4798 1   
4799 1   
4800 1   
4801 1   
4802 1   
4803 1   
4804 1   
4805 1   
4806 1   
4807 1   
4808 1   
4809 1   
4810 1   
4811 1   
4812 1   
4813 1   
4814 1   
4815 1   
4816 1   
4817 1   
4818 1   
4819 1   
4820 1   
4821 1   
4822 1   
4823 1   
4824 1   
4825 1   
4826 1   
4827 1   
4828 1   
4829 1   
4830 1   
4831 1   
4832 1   
4833 1   
4834 1   
4835 1   
4836 1   
4837 1   
4838 1   
4839 1   
4840 1   
4841 1   
4842 1   
4843 1   
4844 1   
4845 1   
4846 1   
4847 1   
4848 1   
4849 1   
4850 1   
4851 1   
4852 1   
4853 1   
4854 1   
4855 1   
4856 1   
4857 1   
4858 1   
4859 1   
4860 1   
4861 1   
4862 1   
4863 1   
4864 1   
4865 1   
4866 1   
4867 1   
4868 1   
4869 1   
4870 1   
4871 1   
4872 1   
4873 1   
4874 1   
4875 1   
4876 1   
4877 1   
4878 1   
4879 1   
4880 1   
4881 1   
4882 1   
4883 1   
4884 1   
4885 1   
4886 1   
4887 1   
4888 1   
4889 1   
4890 1   
4891 1   
4892 1   
4893 1   
4894 1   
4895 1   
4896 1   
4897 1   
4898 1   
4899 1   
4900 1   
4901 1   
4902 1   
4903 1   
4904 1   
4905 1   
4906 1   
4907 1   
4908 1   
4909 1   
4910 1   
4911 1   
4912 1   
4913 1   
4914 1   
4915 1   
4916 1   
4917 1   
4918 1   
4919 1   
4920 1   
4921 1   
4922 1   
4923 1   
4924 1   
4925 1   
4926 1   
4927 1   
4928 1   
4929 1   
4930 1   
4931 1   
4932 1   
4933 1   
4934 1   
4935 1   
4936 1   
4937 1   
4938 1   
4939 1   
4940 1   
4941 1   
4942 1   
4943 1   
4944 1   
4945 1   
4946 1   
4947 1   
4948 1   
4949 1   
4950 1   
4951 1   
4952 1   
4953 1   
4954 1   
4955 1   
4956 1   
4957 1   
4958 1   
4959 1   
4960 1   
4961 1   
4962 1   
4963 1   
4964 1   
4965 1   
4966 1   
4967 1   
4968 1   
4969 1   
4970 1   
4971 1   
4972 1   
4973 1   
4974 1   
4975 1   
4976 1   
4977 1   
4978 1   
4979 1   
4980 1   
4981 1   
4982 1   
4983 1   
4984 1   
4985 1   
4986 1   
4987 1   
4988 1   
4989 1   
4990 1   
4991 1   
4992 1   
4993 1   
4994 1   
4995 1   
4996 1   
4997 1   
4998 1   
4999 1   
5000 1   
5001 1   
5002 1   
5003 1   
5004 1   
5005 1   
5006 1   
5007 1   
5008 1   
5009 1   
5010 1   
5011 1   
5012 1   
5013 1   
5014 1   
5015 1   
5016 1   
5017 1   
5018 1   
5019 1   
5020 1   
5021 1   
5022 1   
5023 1   
5024 1   
5025 1   
5026 1   
5027 1   
5028 1   
5029 1   
5030 1   
5031 1   
5032 1   
5033 1   
5034 1   
5035 1   
5036 1   
5037 1   
5038 1   
5039 1   
5040 1   
5041 1   
5042 1   
5043 1   
5044 1   
5045 1   
5046 1   
5047 1   
5048 1   
5049 1   
5050 1   
5051 1   
5052 1   
5053 1   
5054 1   
5055 1   
5056 1   
5057 1   
5058 1   
5059 1   
5060 1   
5061 1   
5062 1   
5063 1   
5064 1   
5065 1   
5066 1   
5067 1   
5068 1   
5069 1   
5070 1   
5071 1   
5072 1   
5073 1   
5074 1   
5075 1   
5076 1   
5077 1   
5078 1   
5079 1   
5080 1   
5081 1   
5082 1   
5083 1   
5084 1   
5085 1   
5086 1   
5087 1   
5088 1   
5089 1   
5090 1   
5091 1   
5092 1   
5093 1   
5094 1   
5095 1   
5096 1   
5097 1   
5098 1   
5099 1   
5100 1   
5101 1   
5102 1   
5103 1   
5104 1   
5105 1   
5106 1   
5107 1   
5108 1   
5109 1   
5110 1   
5111 1   
5112 1   
5113 1   
5114 1   
5115 1   
5116 1   
5117 1   
5118 1   
5119 1   
5120 1   
5121 1   
5122 1   
5123 1   
5124 1   
5125 1   
5126 1   
5127 1   
5128 1   
5129 1   
5130 1   
5131 1   
5132 1   
5133 1   
5134 1   
5135 1   
5136 1   
5137 1   
5138 1   
5139 1   
5140 1   
5141 1   
5142 1   
5143 1   
5144 1   
5145 1   
5146 1   
5147 1   
5148 1   
5149 1   
5150 1   
5151 1   
5152 1   
5153 1   
5154 1   
5155 1   
5156 1   
5157 1   
5158 1   
5159 1   
5160 1   
5161 1   
5162 1   
5163 1   
5164 1   
5165 1   
5166 1   
5167 1   
5168 1   
5169 1   
5170 1   
5171 1   
5172 1   
5173 1   
5174 1   
5175 1   
5176 1   
5177 1   
5178 1   
5179 1   
5180 1   
5181 1   
5182 1   
5183 1   
5184 1   
5185 1   
5186 1   
5187 1   
5188 1   
5189 1   
5190 1   
5191 1   
5192 1   
5193 1   
5194 1   
5195 1   
5196 1   
5197 1   
5198 1   
5199 1   
5200 1   
5201 1   
5202 1   
5203 1   
5204 1   
5205 1   
5206 1   
5207 1   
5208 1   
5209 1   
5210 1   
5211 1   
5212 1   
5213 1   
5214 1   
5215 1   
5216 1   
5217 1   
5218 1   
5219 1   
5220 1   
5221 1   
5222 1   
5223 1   
5224 1   
5225 1   
5226 1   
5227 1   
5228 1   
5229 1   
5230 1   
5231 1   
5232 1   
5233 1   
5234 1   
5235 1   
5236 1   
5237 1   
5238 1   
5239 1   
5240 1   
5241 1   
5242 1   
5243 1   
5244 1   
5245 1   
5246 1   
5247 1   
5248 1   
5249 1   
5250 1   
5251 1   
5252 1   
5253 1   
5254 1   
5255 1   
5256 1   
5257 1   
5258 1   
5259 1   
5260 1   
5261 1   
5262 1   
5263 1   
5264 1   
5265 1   
5266 1   
5267 1   
5268 1   
5269 1   
5270 1   
5271 1   
5272 1   
5273 1   
5274 1   
5275 1   
5276 1   
5277 1   
5278 1   
5279 1   
5280 1   
5281 1   
5282 1   
5283 1   
5284 1   
5285 1   
5286 1   
5287 1   
5288 1   
5289 1   
5290 1   
5291 1   
5292 1   
5293 1   
5294 1   
5295 1   
5296 1   
5297 1   
5298 1   
5299 1   
5300 1   
5301 1   
5302 1   
5303 1   
5304 1   
5305 1   
5306 1   
5307 1   
5308 1   
5309 1   
5310 1   
5311 1   
5312 1   
5313 1   
5314 1   
5315 1   
5316 1   
5317 1   
5318 1   
5319 1   
5320 1   
5321 1   
5322 1   
5323 1   
5324 1   
5325 1   
5326 1   
5327 1   
5328 1   
5329 1   
5330 1   
5331 1   
5332 1   
5333 1   
5334 1   
5335 1   
5336 1   
5337 1   
5338 1   
5339 1   
5340 1   
5341 1   
5342 1   
5343 1   
5344 1   
5345 1   
5346 1   
5347 1   
5348 1   
5349 1   
5350 1   
5351 1   
5352 1   
5353 1   
5354 1   
5355 1   
5356 1   
5357 1   
5358 1   
5359 1   
5360 1   
5361 1   
5362 1   
5363 1   
5364 1   
5365 1   
5366 1   
5367 1   
5368 1   
5369 1   
5370 1   
5371 1   
5372 1   
5373 1   
5374 1   
5375 1   
5376 1   
5377 1   
5378 1   
5379 1   
5380 1   
5381 1   
5382 1   
5383 1   
5384 1   
5385 1   
5386 1   
5387 1   
5388 1   
5389 1   
5390 1   
5391 1   
5392 1   
5393 1   
5394 1   
5395 1   
5396 1   
5397 1   
5398 1   
5399 1   
5400 1   
5401 1   
5402 1   
5403 1   
5404 1   
5405 1   
5406 1   
5407 1   
5408 1   
5409 1   
5410 1   
5411 1   
5412 1   
5413 1   
5414 1   
5415 1   
5416 1   
5417 1   
5418 1   
5419 1   
5420 1   
5421 1   
5422 1   
5423 1   
5424 1   
5425 1   
5426 1   
5427 1   
5428 1   
5429 1   
5430 1   
5431 1   
5432 1   
5433 1   
5434 1   
5435 1   
5436 1   
5437 1   
5438 1   
5439 1   
5440 1   
5441 1   
5442 1   
5443 1   
5444 1   
5445 1   
5446 1   
5447 1   
5448 1   
5449 1   
5450 1   
5451 1   
5452 1   
5453 1   
5454 1   
5455 1   
5456 1   
5457 1   
5458 1   
5459 1   
5460 1   
5461 1   
5462 1   
5463 1   
5464 1   
5465 1   
5466 1   
5467 1   
5468 1   
5469 1   
5470 1   
5471 1   
5472 1   
5473 1   
5474 1   
5475 1   
5476 1   
5477 1   
5478 1   
5479 1   
5480 1   
5481 1   
5482 1   
5483 1   
5484 1   
5485 1   
5486 1   
5487 1   
5488 1   
5489 1   
5490 1   
5491 1   
5492 1   
5493 1   
5494 1   
5495 1   
5496 1   
5497 1   
5498 1   
5499 1   
5500 1   
5501 1   
5502 1   
5503 1   
5504 1   
5505 1   
5506 1   
5507 1   
5508 1   
5509 1   
5510 1   
5511 1   
5512 1   
5513 1   
5514 1   
5515 1   
5516 1   
5517 1   
5518 1   
5519 1   
5520 1   
5521 1   
5522 1   
5523 1   
5524 1   
5525 1   
5526 1   
5527 1   
5528 1   
5529 1   
5530 1   
5531 1   
5532 1   
5533 1   
5534 1   
5535 1   
5536 1   
5537 1   
5538 1   
5539 1   
5540 1   
5541 1   
5542 1   
5543 1   
5544 1   
5545 1   
5546 1   
5547 1   
5548 1   
5549 1   
5550 1   
5551 1   
5552 1   
5553 1   
5554 1   
5555 1   
5556 1   
5557 1   
5558 1   
5559 1   
5560 1   
5561 1   
5562 1   
5563 1   
5564 1   
5565 1   
5566 1   
5567 1   
5568 1   
5569 1   
5570 1   
5571 1   
5572 1   
5573 1   
5574 1   
5575 1   
5576 1   
5577 1   
5578 1   
5579 1   
5580 1   
5581 1   
5582 1   
5583 1   
5584 1   
5585 1   
5586 1   
5587 1   
5588 1   
5589 1   
5590 1   
5591 1   
5592 1   
5593 1   
5594 1   
5595 1   
5596 1   
5597 1   
5598 1   
5599 1   
5600 1   
5601 1   
5602 1   
5603 1   
5604 1   
5605 1   
5606 1   
5607 1   
5608 1   
5609 1   
5610 1   
5611 1   
5612 1   
5613 1   
5614 1   
5615 1   
5616 1   
5617 1   
5618 1   
5619 1   
5620 1   
5621 1   
5622 1   
5623 1   
5624 1   
5625 1   
5626 1   
5627 1   
5628 1   
5629 1   
5630 1   
5631 1   
5632 1   
5633 1   
5634 1   
5635 1   
5636 1   
5637 1   
5638 1   
5639 1   
5640 1   
5641 1   
5642 1   
5643 1   
5644 1   
5645 1   
5646 1   
5647 1   
5648 1   
5649 1   
5650 1   
5651 1   
5652 1   
5653 1   
5654 1   
5655 1   
5656 1   
5657 1   
5658 1   
5659 1   
5660 1   
5661 1   
5662 1   
5663 1   
5664 1   
5665 1   
5666 1   
5667 1   
5668 1   
5669 1   
5670 1   
5671 1   
5672 1   
5673 1   
5674 1   
5675 1   
5676 1   
5677 1   
5678 1   
5679 1   
5680 1   
5681 1   
5682 1   
5683 1   
5684 1   
5685 1   
5686 1   
5687 1   
5688 1   
5689 1   
5690 1   
5691 1   
5692 1   
5693 1   
5694 1   
5695 1   
5696 1   
5697 1   
5698 1   
5699 1   
5700 1   
5701 1   
5702 1   
5703 1   
5704 1   
5705 1   
5706 1   
5707 1   
5708 1   
5709 1   
5710 1   
5711 1   
5712 1   
5713 1   
5714 1   
5715 1   
5716 1   
5717 1   
5718 1   
5719 1   
5720 1   
5721 1   
5722 1   
5723 1   
5724 1   
5725 1   
5726 1   
5727 1   
5728 1   
5729 1   
5730 1   
5731 1   
5732 1   
5733 1   
5734 1   
5735 1   
5736 1   
5737 1   
5738 1   
5739 1   
5740 1   
5741 1   
5742 1   
5743 1   
5744 1   
5745 1   
5746 1   
5747 1   
5748 1   
5749 1   
5750 1   
5751 1   
5752 1   
5753 1   
5754 1   
5755 1   
5756 1   
5757 1   
5758 1   
5759 1   
5760 1   
5761 1   
5762 1   
5763 1   
5764 1   
5765 1   
5766 1   
5767 1   
5768 1   
5769 1   
5770 1   
5771 1   
5772 1   
5773 1   
5774 1   
5775 1   
5776 1   
5777 1   
5778 1   
5779 1   
5780 1   
5781 1   
5782 1   
5783 1   
5784 1   
5785 1   
5786 1   
5787 1   
5788 1   
5789 1   
5790 1   
5791 1   
5792 1   
5793 1   
5794 1   
5795 1   
5796 1   
5797 1   
5798 1   
5799 1   
5800 1   
5801 1   
5802 1   
5803 1   
5804 1   
5805 1   
5806 1   
5807 1   
5808 1   
5809 1   
5810 1   
5811 1   
5812 1   
5813 1   
5814 1   
5815 1   
5816 1   
5817 1   
5818 1   
5819 1   
5820 1   
5821 1   
5822 1   
5823 1   
5824 1   
5825 1   
5826 1   
5827 1   
5828 1   
5829 1   
5830 1   
5831 1   
5832 1   
5833 1   
5834 1   
5835 1   
5836 1   
5837 1   
5838 1   
5839 1   
5840 1   
5841 1   
5842 1   
5843 1   
5844 1   
5845 1   
5846 1   
5847 1   
5848 1   
5849 1   
5850 1   
5851 1   
5852 1   
5853 1   
5854 1   
5855 1   
5856 1   
5857 1   
5858 1   
5859 1   
5860 1   
5861 1   
5862 1   
5863 1   
5864 1   
5865 1   
5866 1   
5867 1   
5868 1   
5869 1   
5870 1   
5871 1   
5872 1   
5873 1   
5874 1   
5875 1   
5876 1   
5877 1   
5878 1   
5879 1   
5880 1   
5881 1   
5882 1   
5883 1   
5884 1   
5885 1   
5886 1   
5887 1   
5888 1   
5889 1   
5890 1   
5891 1   
5892 1   
5893 1   
5894 1   
5895 1   
5896 1   
5897 1   
5898 1   
5899 1   
5900 1   
5901 1   
5902 1   
5903 1   
5904 1   
5905 1   
5906 1   
5907 1   
5908 1   
5909 1   
5910 1   
5911 1   
5912 1   
5913 1   
5914 1   
5915 1   
5916 1   
5917 1   
5918 1   
5919 1   
5920 1   
5921 1   
5922 1   
5923 1   
5924 1   
5925 1   
5926 1   
5927 1   
5928 1   
5929 1   
5930 1   
5931 1   
5932 1   
5933 1   
5934 1   
5935 1   
5936 1   
5937 1   
5938 1   
5939 1   
5940 1   
5941 1   
5942 1   
5943 1   
5944 1   
5945 1   
5946 1   
5947 1   
5948 1   
5949 1   
5950 1   
5951 1   
5952 1   
5953 1   
5954 1   
5955 1   
5956 1   
5957 1   
5958 1   
5959 1   
5960 1   
5961 1   
5962 1   
5963 1   
5964 1   
5965 1   
5966 1   
5967 1   
5968 1   
5969 1   
5970 1   
5971 1   
5972 1   
5973 1   
5974 1   
5975 1   
5976 1   
5977 1   
5978 1   
5979 1   
5980 1   
5981 1   
5982 1   
5983 1   
5984 1   
5985 1   
5986 1   
5987 1   
5988 1   
5989 1   
5990 1   
5991 1   
5992 1   
5993 1   
5994 1   
5995 1   
5996 1   
5997 1   
5998 1   
5999 1   
6000 1   
6001 1   
6002 1   
6003 1   
6004 1   
6005 1   
6006 1   
6007 1   
6008 1   
6009 1   
6010 1   
6011 1   
6012 1   
6013 1   
6014 1   
6015 1   
6016 1   
6017 1   
6018 1   
6019 1   
6020 1   
6021 1   
6022 1   
6023 1   
6024 1   
6025 1   
6026 1   
6027 1   
6028 1   
6029 1   
6030 1   
6031 1   
6032 1   
6033 1   
6034 1   
6035 1   
6036 1   
6037 1   
6038 1   
6039 1   
6040 1   
6041 1   
6042 1   
6043 1   
6044 1   
6045 1   
6046 1   
6047 1   
6048 1   
6049 1   
6050 1   
6051 1   
6052 1   
6053 1   
6054 1   
6055 1   
6056 1   
6057 1   
6058 1   
6059 1   
6060 1   
6061 1   
6062 1   
6063 1   
6064 1   
6065 1   
6066 1   
6067 1   
6068 1   
6069 1   
6070 1   
6071 1   
6072 1   
6073 1   
6074 1   
6075 1   
6076 1   
6077 1   
6078 1   
6079 1   
6080 1   
6081 1   
6082 1   
6083 1   
6084 1   
6085 1   
6086 1   
6087 1   
6088 1   
6089 1   
6090 1   
6091 1   
6092 1   
6093 1   
6094 1   
6095 1   
6096 1   
6097 1   
6098 1   
6099 1   
6100 1   
6101 1   
6102 1   
6103 1   
6104 1   
6105 1   
6106 1   
6107 1   
6108 1   
6109 1   
6110 1   
6111 1   
6112 1   
6113 1   
6114 1   
6115 1   
6116 1   
6117 1   
6118 1   
6119 1   
6120 1   
6121 1   
6122 1   
6123 1   
6124 1   
6125 1   
6126 1   
6127 1   
6128 1   
6129 1   
6130 1   
6131 1   
6132 1   
6133 1   
6134 1   
6135 1   
6136 1   
6137 1   
6138 1   
6139 1   
6140 1   
6141 1   
6142 1   
6143 1   
6144 1   
6145 1   
6146 1   
6147 1   
6148 1   
6149 1   
6150 1   
6151 1   
6152 1   
6153 1   
6154 1   
6155 1   
6156 1   
6157 1   
6158 1   
6159 1   
6160 1   
6161 1   
6162 1   
6163 1   
6164 1   
6165 1   
6166 1   
6167 1   
6168 1   
6169 1   
6170 1   
6171 1   
6172 1   
6173 1   
6174 1   
6175 1   
6176 1   
6177 1   
6178 1   
6179 1   
6180 1   
6181 1   
6182 1   
6183 1   
6184 1   
6185 1   
6186 1   
6187 1   
6188 1   
6189 1   
6190 1   
6191 1   
6192 1   
6193 1   
6194 1   
6195 1   
6196 1   
6197 1   
6198 1   
6199 1   
6200 1   
6201 1   
6202 1   
6203 1   
6204 1   
6205 1   
6206 1   
6207 1   
6208 1   
6209 1   
6210 1   
6211 1   
6212 1   
6213 1   
6214 1   
6215 1   
6216 1   
6217 1   
6218 1   
6219 1   
6220 1   
6221 1   
6222 1   
6223 1   
6224 1   
6225 1   
6226 1   
6227 1   
6228 1   
6229 1   
6230 1   
6231 1   
6232 1   
6233 1   
6234 1   
6235 1   
6236 1   
6237 1   
6238 1   
6239 1   
6240 1   
6241 1   
6242 1   
6243 1   
6244 1   
6245 1   
6246 1   
6247 1   
6248 1   
6249 1   
6250 1   
6251 1   
6252 1   
6253 1   
6254 1   
6255 1   
6256 1   
6257 1   
6258 1   
6259 1   
6260 1   
6261 1   
6262 1   
6263 1   
6264 1   
6265 1   
6266 1   
6267 1   
6268 1   
6269 1   
6270 1   
6271 1   
6272 1   
6273 1   
6274 1   
6275 1   
6276 1   
6277 1   
6278 1   
6279 1   
6280 1   
6281 1   
6282 1   
6283 1   
6284 1   
6285 1   
6286 1   
6287 1   
6288 1   
6289 1   
6290 1   
6291 1   
6292 1   
6293 1   
6294 1   
6295 1   
6296 1   
6297 1   
6298 1   
6299 1   
6300 1   
6301 1   
6302 1   
6303 1   
6304 1   
6305 1   
6306 1   
6307 1   
6308 1   
6309 1   
6310 1   
6311 1   
6312 1   
6313 1   
6314 1   
6315 1   
6316 1   
6317 1   
6318 1   
6319 1   
6320 1   
6321 1   
6322 1   
6323 1   
6324 1   
6325 1   
6326 1   
6327 1   
6328 1   
6329 1   
6330 1   
6331 1   
6332 1   
6333 1   
6334 1   
6335 1   
6336 1   
6337 1   
6338 1   
6339 1   
6340 1   
6341 1   
6342 1   
6343 1   
6344 1   
6345 1   
6346 1   
6347 1   
6348 1   
6349 1   
6350 1   
6351 1   
6352 1   
6353 1   
6354 1   
6355 1   
6356 1   
6357 1   
6358 1   
6359 1   
6360 1   
6361 1   
6362 1   
6363 1   
6364 1   
6365 1   
6366 1   
6367 1   
6368 1   
6369 1   
6370 1   
6371 1   
6372 1   
6373 1   
6374 1   
6375 1   
6376 1   
6377 1   
6378 1   
6379 1   
6380 1   
6381 1   
6382 1   
6383 1   
6384 1   
6385 1   
6386 1   
6387 1   
6388 1   
6389 1   
6390 1   
6391 1   
6392 1   
6393 1   
6394 1   
6395 1   
6396 1   
6397 1   
6398 1   
6399 1   
6400 1   
6401 1   
6402 1   
6403 1   
6404 1   
6405 1   
6406 1   
6407 1   
6408 1   
6409 1   
6410 1   
6411 1   
6412 1   
6413 1   
6414 1   
6415 1   
6416 1   
6417 1   
6418 1   
6419 1   
6420 1   
6421 1   
6422 1   
6423 1   
6424 1   
6425 1   
6426 1   
6427 1   
6428 1   
6429 1   
6430 1   
6431 1   
6432 1   
6433 1   
6434 1   
6435 1   
6436 1   
6437 1   
6438 1   
6439 1   
6440 1   
6441 1   
6442 1   
6443 1   
6444 1   
6445 1   
6446 1   
6447 1   
6448 1   
6449 1   
6450 1   
6451 1   
6452 1   
6453 1   
6454 1   
6455 1   
6456 1   
6457 1   
6458 1   
6459 1   
6460 1   
6461 1   
6462 1   
6463 1   
6464 1   
6465 1   
6466 1   
6467 1   
6468 1   
6469 1   
6470 1   
6471 1   
6472 1   
6473 1   
6474 1   
6475 1   
6476 1   
6477 1   
6478 1   
6479 1   
6480 1   
6481 1   
6482 1   
6483 1   
6484 1   
6485 1   
6486 1   
6487 1   
6488 1   
6489 1   
6490 1   
6491 1   
6492 1   
6493 1   
6494 1   
6495 1   
6496 1   
6497 1   
6498 1   
6499 1   
6500 1   
6501 1   
6502 1   
6503 1   
6504 1   
6505 1   
6506 1   
6507 1   
6508 1   
6509 1   
6510 1   
6511 1   
6512 1   
6513 1   
6514 1   
6515 1   
6516 1   
6517 1   
6518 1   
6519 1   
6520 1   
6521 1   
6522 1   
6523 1   
6524 1   
6525 1   
6526 1   
6527 1   
6528 1   
6529 1   
6530 1   
6531 1   
6532 1   
6533 1   
6534 1   
6535 1   
6536 1   
6537 1   
6538 1   
6539 1   
6540 1   
6541 1   
6542 1   
6543 1   
6544 1   
6545 1   
6546 1   
6547 1   
6548 1   
6549 1   
6550 1   
6551 1   
6552 1   
6553 1   
6554 1   
6555 1   
6556 1   
6557 1   
6558 1   
6559 1   
6560 1   
6561 1   
6562 1   
6563 1   
6564 1   
6565 1   
6566 1   
6567 1   
6568 1   
6569 1   
6570 1   
6571 1   
6572 1   
6573 1   
6574 1   
6575 1   
6576 1   
6577 1   
6578 1   
6579 1   
6580 1   
6581 1   
6582 1   
6583 1   
6584 1   
6585 1   
6586 1   
6587 1   
6588 1   
6589 1   
6590 1   
6591 1   
6592 1   
6593 1   
6594 1   
6595 1   
6596 1   
6597 1   
6598 1   
6599 1   
6600 1   
6601 1   
6602 1   
6603 1   
6604 1   
6605 1   
6606 1   
6607 1   
6608 1   
6609 1   
6610 1   
6611 1   
6612 1   
6613 1   
6614 1   
6615 1   
6616 1   
6617 1   
6618 1   
6619 1   
6620 1   
6621 1   
6622 1   
6623 1   
6624 1   
6625 1   
6626 1   
6627 1   
6628 1   
6629 1   
6630 1   
6631 1   
6632 1   
6633 1   
6634 1   
6635 1   
6636 1   
6637 1   
6638 1   
6639 1   
6640 1   
6641 1   
6642 1   
6643 1   
6644 1   
6645 1   
6646 1   
6647 1   
6648 1   
6649 1   
6650 1   
6651 1   
6652 1   
6653 1   
6654 1   
6655 1   
6656 1   
6657 1   
6658 1   
6659 1   
6660 1   
6661 1   
6662 1   
6663 1   
6664 1   
6665 1   
6666 1   
6667 1   
6668 1   
6669 1   
6670 1   
6671 1   
6672 1   
6673 1   
6674 1   
6675 1   
6676 1   
6677 1   
6678 1   
6679 1   
6680 1   
6681 1   
6682 1   
6683 1   
6684 1   
6685 1   
6686 1   
6687 1   
6688 1   
6689 1   
6690 1   
6691 1   
6692 1   
6693 1   
6694 1   
6695 1   
6696 1   
6697 1   
6698 1   
6699 1   
6700 1   
6701 1   
6702 1   
6703 1   
6704 1   
6705 1   
6706 1   
6707 1   
6708 1   
6709 1   
6710 1   
6711 1   
6712 1   
6713 1   
6714 1   
6715 1   
6716 1   
6717 1   
6718 1   
6719 1   
6720 1   
6721 1   
6722 1   
6723 1   
6724 1   
6725 1   
6726 1   
6727 1   
6728 1   
6729 1   
6730 1   
6731 1   
6732 1   
6733 1   
6734 1   
6735 1   
6736 1   
6737 1   
6738 1   
6739 1   
6740 1   
6741 1   
6742 1   
6743 1   
6744 1   
6745 1   
6746 1   
6747 1   
6748 1   
6749 1   
6750 1   
6751 1   
6752 1   
6753 1   
6754 1   
6755 1   
6756 1   
6757 1   
6758 1   
6759 1   
6760 1   
6761 1   
6762 1   
6763 1   
6764 1   
6765 1   
6766 1   
6767 1   
6768 1   
6769 1   
6770 1   
6771 1   
6772 1   
6773 1   
6774 1   
6775 1   
6776 1   
6777 1   
6778 1   
6779 1   
6780 1   
6781 1   
6782 1   
6783 1   
6784 1   
6785 1   
6786 1   
6787 1   
6788 1   
6789 1   
6790 1   
6791 1   
6792 1   
6793 1   
6794 1   
6795 1   
6796 1   
6797 1   
6798 1   
6799 1   
6800 1   
6801 1   
6802 1   
6803 1   
6804 1   
6805 1   
6806 1   
6807 1   
6808 1   
6809 1   
6810 1   
6811 1   
6812 1   
6813 1   
6814 1   
6815 1   
6816 1   
6817 1   
6818 1   
6819 1   
6820 1   
6821 1   
6822 1   
6823 1   
6824 1   
6825 1   
6826 1   
6827 1   
6828 1   
6829 1   
6830 1   
6831 1   
6832 1   
6833 1   
6834 1   
6835 1   
6836 1   
6837 1   
6838 1   
6839 1   
6840 1   
6841 1   
6842 1   
6843 1   
6844 1   
6845 1   
6846 1   
6847 1   
6848 1   
6849 1   
6850 1   
6851 1   
6852 1   
6853 1   
6854 1   
6855 1   
6856 1   
6857 1   
6858 1   
6859 1   
6860 1   
6861 1   
6862 1   
6863 1   
6864 1   
6865 1   
6866 1   
6867 1   
6868 1   
6869 1   
6870 1   
6871 1   
6872 1   
6873 1   
6874 1   
6875 1   
6876 1   
6877 1   
6878 1   
6879 1   
6880 1   
6881 1   
6882 1   
6883 1   
6884 1   
6885 1   
6886 1   
6887 1   
6888 1   
6889 1   
6890 1   
6891 1   
6892 1   
6893 1   
6894 1   
6895 1   
6896 1   
6897 1   
6898 1   
6899 1   
6900 1   
6901 1   
6902 1   
6903 1   
6904 1   
6905 1   
6906 1   
6907 1   
6908 1   
6909 1   
6910 1   
6911 1   
6912 1   
6913 1   
6914 1   
6915 1   
6916 1   
6917 1   
6918 1   
6919 1   
6920 1   
6921 1   
6922 1   
6923 1   
6924 1   
6925 1   
6926 1   
6927 1   
6928 1   
6929 1   
6930 1   
6931 1   
6932 1   
6933 1   
6934 1   
6935 1   
6936 1   
6937 1   
6938 1   
6939 1   
6940 1   
6941 1   
6942 1   
6943 1   
6944 1   
6945 1   
6946 1   
6947 1   
6948 1   
6949 1   
6950 1   
6951 1   
6952 1   
6953 1   
6954 1   
6955 1   
6956 1   
6957 1   
6958 1   
6959 1   
6960 1   
6961 1   
6962 1   
6963 1   
6964 1   
6965 1   
6966 1   
6967 1   
6968 1   
6969 1   
6970 1   
6971 1   
6972 1   
6973 1   
6974 1   
6975 1   
6976 1   
6977 1   
6978 1   
6979 1   
6980 1   
6981 1   
6982 1   
6983 1   
6984 1   
6985 1   
6986 1   
6987 1   
6988 1   
6989 1   
6990 1   
6991 1   
6992 1   
6993 1   
6994 1   
6995 1   
6996 1   
6997 1   
6998 1   
6999 1   
7000 1   
7001 1   
7002 1   
7003 1   
7004 1   
7005 1   
7006 1   
7007 1   
7008 1   
7009 1   
7010 1   
7011 1   
7012 1   
7013 1   
7014 1   
7015 1   
7016 1   
7017 1   
7018 1   
7019 1   
7020 1   
7021 1   
7022 1   
7023 1   
7024 1   
7025 1   
7026 1   
7027 1   
7028 1   
7029 1   
7030 1   
7031 1   
7032 1   
7033 1   
7034 1   
7035 1   
7036 1   
7037 1   
7038 1   
7039 1   
7040 1   
7041 1   
7042 1   
7043 1   
7044 1   
7045 1   
7046 1   
7047 1   
7048 1   
7049 1   
7050 1   
7051 1   
7052 1   
7053 1   
7054 1   
7055 1   
7056 1   
7057 1   
7058 1   
7059 1   
7060 1   
7061 1   
7062 1   
7063 1   
7064 1   
7065 1   
7066 1   
7067 1   
7068 1   
7069 1   
7070 1   
7071 1   
7072 1   
7073 1   
7074 1   
7075 1   
7076 1   
7077 1   
7078 1   
7079 1   
7080 1   
7081 1   
7082 1   
7083 1   
7084 1   
7085 1   
7086 1   
7087 1   
7088 1   
7089 1   
7090 1   
7091 1   
7092 1   
7093 1   
7094 1   
7095 1   
7096 1   
7097 1   
7098 1   
7099 1   
7100 1   
7101 1   
7102 1   
7103 1   
7104 1   
7105 1   
7106 1   
7107 1   
7108 1   
7109 1   
7110 1   
7111 1   
7112 1   
7113 1   
7114 1   
7115 1   
7116 1   
7117 1   
7118 1   
7119 1   
7120 1   
7121 1   
7122 1   
7123 1   
7124 1   
7125 1   
7126 1   
7127 1   
7128 1   
7129 1   
7130 1   
7131 1   
7132 1   
7133 1   
7134 1   
7135 1   
7136 1   
7137 1   
7138 1   
7139 1   
7140 1   
7141 1   
7142 1   
7143 1   
7144 1   
7145 1   
7146 1   
7147 1   
7148 1   
7149 1   
7150 1   
7151 1   
7152 1   
7153 1   
7154 1   
7155 1   
7156 1   
7157 1   
7158 1   
7159 1   
7160 1   
7161 1   
7162 1   
7163 1   
7164 1   
7165 1   
7166 1   
7167 1   
7168 1   
7169 1   
7170 1   
7171 1   
7172 1   
7173 1   
7174 1   
7175 1   
7176 1   
7177 1   
7178 1   
7179 1   
7180 1   
7181 1   
7182 1   
7183 1   
7184 1   
7185 1   
7186 1   
7187 1   
7188 1   
7189 1   
7190 1   
7191 1   
7192 1   
7193 1   
7194 1   
7195 1   
7196 1   
7197 1   
7198 1   
7199 1   
7200 1   
7201 1   
7202 1   
7203 1   
7204 1   
7205 1   
7206 1   
7207 1   
7208 1   
7209 1   
7210 1   
7211 1   
7212 1   
7213 1   
7214 1   
7215 1   
7216 1   
7217 1   
7218 1   
7219 1   
7220 1   
7221 1   
7222 1   
7223 1   
7224 1   
7225 1   
7226 1   
7227 1   
7228 1   
7229 1   
7230 1   
7231 1   
7232 1   
7233 1   
7234 1   
7235 1   
7236 1   
7237 1   
7238 1   
7239 1   
7240 1   
7241 1   
7242 1   
7243 1   
7244 1   
7245 1   
7246 1   
7247 1   
7248 1   
7249 1   
7250 1   
7251 1   
7252 1   
7253 1   
7254 1   
7255 1   
7256 1   
7257 1   
7258 1   
7259 1   
7260 1   
7261 1   
7262 1   
7263 1   
7264 1   
7265 1   
7266 1   
7267 1   
7268 1   
7269 1   
7270 1   
7271 1   
7272 1   
7273 1   
7274 1   
7275 1   
7276 1   
7277 1   
7278 1   
7279 1   
7280 1   
7281 1   
7282 1   
7283 1   
7284 1   
7285 1   
7286 1   
7287 1   
7288 1   
7289 1   
7290 1   
7291 1   
7292 1   
7293 1   
7294 1   
7295 1   
7296 1   
7297 1   
7298 1   
7299 1   
7300 1   
7301 1   
7302 1   
7303 1   
7304 1   
7305 1   
7306 1   
7307 1   
7308 1   
7309 1   
7310 1   
7311 1   
7312 1   
7313 1   
7314 1   
7315 1   
7316 1   
7317 1   
7318 1   
7319 1   
7320 1   
7321 1   
7322 1   
7323 1   
7324 1   
7325 1   
7326 1   
7327 1   
7328 1   
7329 1   
7330 1   
7331 1   
7332 1   
7333 1   
7334 1   
7335 1   
7336 1   
7337 1   
7338 1   
7339 1   
7340 1   
7341 1   
7342 1   
7343 1   
7344 1   
7345 1   
7346 1   
7347 1   
7348 1   
7349 1   
7350 1   
7351 1   
7352 1   
7353 1   
7354 1   
7355 1   
7356 1   
7357 1   
7358 1   
7359 1   
7360 1   
7361 1   
7362 1   
7363 1   
7364 1   
7365 1   
7366 1   
7367 1   
7368 1   
7369 1   
7370 1   
7371 1   
7372 1   
7373 1   
7374 1   
7375 1   
7376 1   
7377 1   
7378 1   
7379 1   
7380 1   
7381 1   
7382 1   
7383 1   
7384 1   
7385 1   
7386 1   
7387 1   
7388 1   
7389 1   
7390 1   
7391 1   
7392 1   
7393 1   
7394 1   
7395 1   
7396 1   
7397 1   
7398 1   
7399 1   
7400 1   
7401 1   
7402 1   
7403 1   
7404 1   
7405 1   
7406 1   
7407 1   
7408 1   
7409 1   
7410 1   
7411 1   
7412 1   
7413 1   
7414 1   
7415 1   
7416 1   
7417 1   
7418 1   
7419 1   
7420 1   
7421 1   
7422 1   
7423 1   
7424 1   
7425 1   
7426 1   
7427 1   
7428 1   
7429 1   
7430 1   
7431 1   
7432 1   
7433 1   
7434 1   
7435 1   
7436 1   
7437 1   
7438 1   
7439 1   
7440 1   
7441 1   
7442 1   
7443 1   
7444 1   
7445 1   
7446 1   
7447 1   
7448 1   
7449 1   
7450 1   
7451 1   
7452 1   
7453 1   
7454 1   
7455 1   
7456 1   
7457 1   
7458 1   
7459 1   
7460 1   
7461 1   
7462 1   
7463 1   
7464 1   
7465 1   
7466 1   
7467 1   
7468 1   
7469 1   
7470 1   
7471 1   
7472 1   
7473 1   
7474 1   
7475 1   
7476 1   
7477 1   
7478 1   
7479 1   
7480 1   
7481 1   
7482 1   
7483 1   
7484 1   
7485 1   
7486 1   
7487 1   
7488 1   
7489 1   
7490 1   
7491 1   
7492 1   
7493 1   
7494 1   
7495 1   
7496 1   
7497 1   
7498 1   
7499 1   
7500 1   
7501 1   
7502 1   
7503 1   
7504 1   
7505 1   
7506 1   
7507 1   
7508 1   
7509 1   
7510 1   
7511 1   
7512 1   
7513 1   
7514 1   
7515 1   
7516 1   
7517 1   
7518 1   
7519 1   
7520 1   
7521 1   
7522 1   
7523 1   
7524 1   
7525 1   
7526 1   
7527 1   
7528 1   
7529 1   
7530 1   
7531 1   
7532 1   
7533 1   
7534 1   
7535 1   
7536 1   
7537 1   
7538 1   
7539 1   
7540 1   
7541 1   
7542 1   
7543 1   
7544 1   
7545 1   
7546 1   
7547 1   
7548 1   
7549 1   
7550 1   
7551 1   
7552 1   
7553 1   
7554 1   
7555 1   
7556 1   
7557 1   
7558 1   
7559 1   
7560 1   
7561 1   
7562 1   
7563 1   
7564 1   
7565 1   
7566 1   
7567 1   
7568 1   
7569 1   
7570 1   
7571 1   
7572 1   
7573 1   
7574 1   
7575 1   
7576 1   
7577 1   
7578 1   
7579 1   
7580 1   
7581 1   
7582 1   
7583 1   
7584 1   
7585 1   
7586 1   
7587 1   
7588 1   
7589 1   
7590 1   
7591 1   
7592 1   
7593 1   
7594 1   
7595 1   
7596 1   
7597 1   
7598 1   
7599 1   
7600 1   
7601 1   
7602 1   
7603 1   
7604 1   
7605 1   
7606 1   
7607 1   
7608 1   
7609 1   
7610 1   
7611 1   
7612 1   
7613 1   
7614 1   
7615 1   
7616 1   
7617 1   
7618 1   
7619 1   
7620 1   
7621 1   
7622 1   
7623 1   
7624 1   
7625 1   
7626 1   
7627 1   
7628 1   
7629 1   
7630 1   
7631 1   
7632 1   
7633 1   
7634 1   
7635 1   
7636 1   
7637 1   
7638 1   
7639 1   
7640 1   
7641 1   
7642 1   
7643 1   
7644 1   
7645 1   
7646 1   
7647 1   
7648 1   
7649 1   
7650 1   
7651 1   
7652 1   
7653 1   
7654 1   
7655 1   
7656 1   
7657 1   
7658 1   
7659 1   
7660 1   
7661 1   
7662 1   
7663 1   
7664 1   
7665 1   
7666 1   
7667 1   
7668 1   
7669 1   
7670 1   
7671 1   
7672 1   
7673 1   
7674 1   
7675 1   
7676 1   
7677 1   
7678 1   
7679 1   
7680 1   
7681 1   
7682 1   
7683 1   
7684 1   
7685 1   
7686 1   
7687 1   
7688 1   
7689 1   
7690 1   
7691 1   
7692 1   
7693 1   
7694 1   
7695 1   
7696 1   
7697 1   
7698 1   
7699 1   
7700 1   
7701 1   
7702 1   
7703 1   
7704 1   
7705 1   
7706 1   
7707 1   
7708 1   
7709 1   
7710 1   
7711 1   
7712 1   
7713 1   
7714 1   
7715 1   
7716 1   
7717 1   
7718 1   
7719 1   
7720 1   
7721 1   
7722 1   
7723 1   
7724 1   
7725 1   
7726 1   
7727 1   
7728 1   
7729 1   
7730 1   
7731 1   
7732 1   
7733 1   
7734 1   
7735 1   
7736 1   
7737 1   
7738 1   
7739 1   
7740 1   
7741 1   
7742 1   
7743 1   
7744 1   
7745 1   
7746 1   
7747 1   
7748 1   
7749 1   
7750 1   
7751 1   
7752 1   
7753 1   
7754 1   
7755 1   
7756 1   
7757 1   
7758 1   
7759 1   
7760 1   
7761 1   
7762 1   
7763 1   
7764 1   
7765 1   
7766 1   
7767 1   
7768 1   
7769 1   
7770 1   
7771 1   
7772 1   
7773 1   
7774 1   
7775 1   
7776 1   
7777 1   
7778 1   
7779 1   
7780 1   
7781 1   
7782 1   
7783 1   
7784 1   
7785 1   
7786 1   
7787 1   
7788 1   
7789 1   
7790 1   
7791 1   
7792 1   
7793 1   
7794 1   
7795 1   
7796 1   
7797 1   
7798 1   
7799 1   
7800 1   
7801 1   
7802 1   
7803 1   
7804 1   
7805 1   
7806 1   
7807 1   
7808 1   
7809 1   
7810 1   
7811 1   
7812 1   
7813 1   
7814 1   
7815 1   
7816 1   
7817 1   
7818 1   
7819 1   
7820 1   
7821 1   
7822 1   
7823 1   
7824 1   
7825 1   
7826 1   
7827 1   
7828 1   
7829 1   
7830 1   
7831 1   
7832 1   
7833 1   
7834 1   
7835 1   
7836 1   
7837 1   
7838 1   
7839 1   
7840 1   
7841 1   
7842 1   
7843 1   
7844 1   
7845 1   
7846 1   
7847 1   
7848 1   
7849 1   
7850 1   
7851 1   
7852 1   
7853 1   
7854 1   
7855 1   
7856 1   
7857 1   
7858 1   
7859 1   
7860 1   
7861 1   
7862 1   
7863 1   
7864 1   
7865 1   
7866 1   
7867 1   
7868 1   
7869 1   
7870 1   
7871 1   
7872 1   
7873 1   
7874 1   
7875 1   
7876 1   
7877 1   
7878 1   
7879 1   
7880 1   
7881 1   
7882 1   
7883 1   
7884 1   
7885 1   
7886 1   
7887 1   
7888 1   
7889 1   
7890 1   
7891 1   
7892 1   
7893 1   
7894 1   
7895 1   
7896 1   
7897 1   
7898 1   
7899 1   
7900 1   
7901 1   
7902 1   
7903 1   
7904 1   
7905 1   
7906 1   
7907 1   
7908 1   
7909 1   
7910 1   
7911 1   
7912 1   
7913 1   
7914 1   
7915 1   
7916 1   
7917 1   
7918 1   
7919 1   
7920 1   
7921 1   
7922 1   
7923 1   
7924 1   
7925 1   
7926 1   
7927 1   
7928 1   
7929 1   
7930 1   
7931 1   
7932 1   
7933 1   
7934 1   
7935 1   
7936 1   
7937 1   
7938 1   
7939 1   
7940 1   
7941 1   
7942 1   
7943 1   
7944 1   
7945 1   
7946 1   
7947 1   
7948 1   
7949 1   
7950 1   
7951 1   
7952 1   
7953 1   
7954 1   
7955 1   
7956 1   
7957 1   
7958 1   
7959 1   
7960 1   
7961 1   
7962 1   
7963 1   
7964 1   
7965 1   
7966 1   
7967 1   
7968 1   
7969 1   
7970 1   
7971 1   
7972 1   
7973 1   
7974 1   
7975 1   
7976 1   
7977 1   
7978 1   
7979 1   
7980 1   
7981 1   
7982 1   
7983 1   
7984 1   
7985 1   
7986 1   
7987 1   
7988 1   
7989 1   
7990 1   
7991 1   
7992 1   
7993 1   
7994 1   
7995 1   
7996 1   
7997 1   
7998 1   
7999 1   
8000 1   
8001 1   
8002 1   
8003 1   
8004 1   
8005 1   
8006 1   
8007 1   
8008 1   
8009 1   
8010 1   
8011 1   
8012 1   
8013 1   
8014 1   
8015 1   
8016 1   
8017 1   
8018 1   
8019 1   
8020 1   
8021 1   
8022 1   
8023 1   
8024 1   
8025 1   
8026 1   
8027 1   
8028 1   
8029 1   
8030 1   
8031 1   
8032 1   
8033 1   
8034 1   
8035 1   
8036 1   
8037 1   
8038 1   
8039 1   
8040 1   
8041 1   
8042 1   
8043 1   
8044 1   
8045 1   
8046 1   
8047 1   
8048 1   
8049 1   
8050 1   
8051 1   
8052 1   
8053 1   
8054 1   
8055 1   
8056 1   
8057 1   
8058 1   
8059 1   
8060 1   
8061 1   
8062 1   
8063 1   
8064 1   
8065 1   
8066 1   
8067 1   
8068 1   
8069 1   
8070 1   
8071 1   
8072 1   
8073 1   
8074 1   
8075 1   
8076 1   
8077 1   
8078 1   
8079 1   
8080 1   
8081 1   
8082 1   
8083 1   
8084 1   
8085 1   
8086 1   
8087 1   
8088 1   
8089 1   
8090 1   
8091 1   
8092 1   
8093 1   
8094 1   
8095 1   
8096 1   
8097 1   
8098 1   
8099 1   
8100 1   
8101 1   
8102 1   
8103 1   
8104 1   
8105 1   
8106 1   
8107 1   
8108 1   
8109 1   
8110 1   
8111 1   
8112 1   
8113 1   
8114 1   
8115 1   
8116 1   
8117 1   
8118 1   
8119 1   
8120 1   
8121 1   
8122 1   
8123 1   
8124 1   
8125 1   
8126 1   
8127 1   
8128 1   
8129 1   
8130 1   
8131 1   
8132 1   
8133 1   
8134 1   
8135 1   
8136 1   
8137 1   
8138 1   
8139 1   
8140 1   
8141 1   
8142 1   
8143 1   
8144 1   
8145 1   
8146 1   
8147 1   
8148 1   
8149 1   
8150 1   
8151 1   
8152 1   
8153 1   
8154 1   
8155 1   
8156 1   
8157 1   
8158 1   
8159 1   
8160 1   
8161 1   
8162 1   
8163 1   
8164 1   
8165 1   
8166 1   
8167 1   
8168 1   
8169 1   
8170 1   
8171 1   
8172 1   
8173 1   
8174 1   
8175 1   
8176 1   
8177 1   
8178 1   
8179 1   
8180 1   
8181 1   
8182 1   
8183 1   
8184 1   
8185 1   
8186 1   
8187 1   
8188 1   
8189 1   
8190 1   
8191 1   
8192 1   
8193 1   
8194 1   
8195 1   
8196 1   
8197 1   
8198 1   
8199 1   
8200 1   
8201 1   
8202 1   
8203 1   
8204 1   
8205 1   
8206 1   
8207 1   
8208 1   
8209 1   
8210 1   
8211 1   
8212 1   
8213 1   
8214 1   
8215 1   
8216 1   
8217 1   
8218 1   
8219 1   
8220 1   
8221 1   
8222 1   
8223 1   
8224 1   
8225 1   
8226 1   
8227 1   
8228 1   
8229 1   
8230 1   
8231 1   
8232 1   
8233 1   
8234 1   
8235 1   
8236 1   
8237 1   
8238 1   
8239 1   
8240 1   
8241 1   
8242 1   
8243 1   
8244 1   
8245 1   
8246 1   
8247 1   
8248 1   
8249 1   
8250 1   
8251 1   
8252 1   
8253 1   
8254 1   
8255 1   
8256 1   
8257 1   
8258 1   
8259 1   
8260 1   
8261 1   
8262 1   
8263 1   
8264 1   
8265 1   
8266 1   
8267 1   
8268 1   
8269 1   
8270 1   
8271 1   
8272 1   
8273 1   
8274 1   
8275 1   
8276 1   
8277 1   
8278 1   
8279 1   
8280 1   
8281 1   
8282 1   
8283 1   
8284 1   
8285 1   
8286 1   
8287 1   
8288 1   
8289 1   
8290 1   
8291 1   
8292 1   
8293 1   
8294 1   
8295 1   
8296 1   
8297 1   
8298 1   
8299 1   
8300 1   
8301 1   
8302 1   
8303 1   
8304 1   
8305 1   
8306 1   
8307 1   
8308 1   
8309 1   
8310 1   
8311 1   
8312 1   
8313 1   
8314 1   
8315 1   
8316 1   
8317 1   
8318 1   
8319 1   
8320 1   
8321 1   
8322 1   
8323 1   
8324 1   
8325 1   
8326 1   
8327 1   
8328 1   
8329 1   
8330 1   
8331 1   
8332 1   
8333 1   
8334 1   
8335 1   
8336 1   
8337 1   
8338 1   
8339 1   
8340 1   
8341 1   
8342 1   
8343 1   
8344 1   
8345 1   
8346 1   
8347 1   
8348 1   
8349 1   
8350 1   
8351 1   
8352 1   
8353 1   
8354 1   
8355 1   
8356 1   
8357 1   
8358 1   
8359 1   
8360 1   
8361 1   
8362 1   
8363 1   
8364 1   
8365 1   
8366 1   
8367 1   
8368 1   
8369 1   
8370 1   
8371 1   
8372 1   
8373 1   
8374 1   
8375 1   
8376 1   
8377 1   
8378 1   
8379 1   
8380 1   
8381 1   
8382 1   
8383 1   
8384 1   
8385 1   
8386 1   
8387 1   
8388 1   
8389 1   
8390 1   
8391 1   
8392 1   
8393 1   
8394 1   
8395 1   
8396 1   
8397 1   
8398 1   
8399 1   
8400 1   
8401 1   
8402 1   
8403 1   
8404 1   
8405 1   
8406 1   
8407 1   
8408 1   
8409 1   
8410 1   
8411 1   
8412 1   
8413 1   
8414 1   
8415 1   
8416 1   
8417 1   
8418 1   
8419 1   
8420 1   
8421 1   
8422 1   
8423 1   
8424 1   
8425 1   
8426 1   
8427 1   
8428 1   
8429 1   
8430 1   
8431 1   
8432 1   
8433 1   
8434 1   
8435 1   
8436 1   
8437 1   
8438 1   
8439 1   
8440 1   
8441 1   
8442 1   
8443 1   
8444 1   
8445 1   
8446 1   
8447 1   
8448 1   
8449 1   
8450 1   
8451 1   
8452 1   
8453 1   
8454 1   
8455 1   
8456 1   
8457 1   
8458 1   
8459 1   
8460 1   
8461 1   
8462 1   
8463 1   
8464 1   
8465 1   
8466 1   
8467 1   
8468 1   
8469 1   
8470 1   
8471 1   
8472 1   
8473 1   
8474 1   
8475 1   
8476 1   
8477 1   
8478 1   
8479 1   
8480 1   
8481 1   
8482 1   
8483 1   
8484 1   
8485 1   
8486 1   
8487 1   
8488 1   
8489 1   
8490 1   
8491 1   
8492 1   
8493 1   
8494 1   
8495 1   
8496 1   
8497 1   
8498 1   
8499 1   
8500 1   
8501 1   
8502 1   
8503 1   
8504 1   
8505 1   
8506 1   
8507 1   
8508 1   
8509 1   
8510 1   
8511 1   
8512 1   
8513 1   
8514 1   
8515 1   
8516 1   
8517 1   
8518 1   
8519 1   
8520 1   
8521 1   
8522 1   
8523 1   
8524 1   
8525 1   
8526 1   
8527 1   
8528 1   
8529 1   
8530 1   
8531 1   
8532 1   
8533 1   
8534 1   
8535 1   
8536 1   
8537 1   
8538 1   
8539 1   
8540 1   
8541 1   
8542 1   
8543 1   
8544 1   
8545 1   
8546 1   
8547 1   
8548 1   
8549 1   
8550 1   
8551 1   
8552 1   
8553 1   
8554 1   
8555 1   
8556 1   
8557 1   
8558 1   
8559 1   
8560 1   
8561 1   
8562 1   
8563 1   
8564 1   
8565 1   
8566 1   
8567 1   
8568 1   
8569 1   
8570 1   
8571 1   
8572 1   
8573 1   
8574 1   
8575 1   
8576 1   
8577 1   
8578 1   
8579 1   
8580 1   
8581 1   
8582 1   
8583 1   
8584 1   
8585 1   
8586 1   
8587 1   
8588 1   
8589 1   
8590 1   
8591 1   
8592 1   
8593 1   
8594 1   
8595 1   
8596 1   
8597 1   
8598 1   
8599 1   
8600 1   
8601 1   
8602 1   
8603 1   
8604 1   
8605 1   
8606 1   
8607 1   
8608 1   
8609 1   
8610 1   
8611 1   
8612 1   
8613 1   
8614 1   
8615 1   
8616 1   
8617 1   
8618 1   
8619 1   
8620 1   
8621 1   
8622 1   
8623 1   
8624 1   
8625 1   
8626 1   
8627 1   
8628 1   
8629 1   
8630 1   
8631 1   
8632 1   
8633 1   
8634 1   
8635 1   
8636 1   
8637 1   
8638 1   
8639 1   
8640 1   
8641 1   
8642 1   
8643 1   
8644 1   
8645 1   
8646 1   
8647 1   
8648 1   
8649 1   
8650 1   
8651 1   
8652 1   
8653 1   
8654 1   
8655 1   
8656 1   
8657 1   
8658 1   
8659 1   
8660 1   
8661 1   
8662 1   
8663 1   
8664 1   
8665 1   
8666 1   
8667 1   
8668 1   
8669 1   
8670 1   
8671 1   
8672 1   
8673 1   
8674 1   
8675 1   
8676 1   
8677 1   
8678 1   
8679 1   
8680 1   
8681 1   
8682 1   
8683 1   
8684 1   
8685 1   
8686 1   
8687 1   
8688 1   
8689 1   
8690 1   
8691 1   
8692 1   
8693 1   
8694 1   
8695 1   
8696 1   
8697 1   
8698 1   
8699 1   
8700 1   
8701 1   
8702 1   
8703 1   
8704 1   
8705 1   
8706 1   
8707 1   
8708 1   
8709 1   
8710 1   
8711 1   
8712 1   
8713 1   
8714 1   
8715 1   
8716 1   
8717 1   
8718 1   
8719 1   
8720 1   
8721 1   
8722 1   
8723 1   
8724 1   
8725 1   
8726 1   
8727 1   
8728 1   
8729 1   
8730 1   
8731 1   
8732 1   
8733 1   
8734 1   
8735 1   
8736 1   
8737 1   
8738 1   
8739 1   
8740 1   
8741 1   
8742 1   
8743 1   
8744 1   
8745 1   
8746 1   
8747 1   
8748 1   
8749 1   
8750 1   
8751 1   
8752 1   
8753 1   
8754 1   
8755 1   
8756 1   
8757 1   
8758 1   
8759 1   
8760 1   
8761 1   
8762 1   
8763 1   
8764 1   
8765 1   
8766 1   
8767 1   
8768 1   
8769 1   
8770 1   
8771 1   
8772 1   
8773 1   
8774 1   
8775 1   
8776 1   
8777 1   
8778 1   
8779 1   
8780 1   
8781 1   
8782 1   
8783 1   
8784 1   
8785 1   
8786 1   
8787 1   
8788 1   
8789 1   
8790 1   
8791 1   
8792 1   
8793 1   
8794 1   
8795 1   
8796 1   
8797 1   
8798 1   
8799 1   
8800 1   
8801 1   
8802 1   
8803 1   
8804 1   
8805 1   
8806 1   
8807 1   
8808 1   
8809 1   
8810 1   
8811 1   
8812 1   
8813 1   
8814 1   
8815 1   
8816 1   
8817 1   
8818 1   
8819 1   
8820 1   
8821 1   
8822 1   
8823 1   
8824 1   
8825 1   
8826 1   
8827 1   
8828 1   
8829 1   
8830 1   
8831 1   
8832 1   
8833 1   
8834 1   
8835 1   
8836 1   
8837 1   
8838 1   
8839 1   
8840 1   
8841 1   
8842 1   
8843 1   
8844 1   
8845 1   
8846 1   
8847 1   
8848 1   
8849 1   
8850 1   
8851 1   
8852 1   
8853 1   
8854 1   
8855 1   
8856 1   
8857 1   
8858 1   
8859 1   
8860 1   
8861 1   
8862 1   
8863 1   
8864 1   
8865 1   
8866 1   
8867 1   
8868 1   
8869 1   
8870 1   
8871 1   
8872 1   
8873 1   
8874 1   
8875 1   
8876 1   
8877 1   
8878 1   
8879 1   
8880 1   
8881 1   
8882 1   
8883 1   
8884 1   
8885 1   
8886 1   
8887 1   
8888 1   
8889 1   
8890 1   
8891 1   
8892 1   
8893 1   
8894 1   
8895 1   
8896 1   
8897 1   
8898 1   
8899 1   
8900 1   
8901 1   
8902 1   
8903 1   
8904 1   
8905 1   
8906 1   
8907 1   
8908 1   
8909 1   
8910 1   
8911 1   
8912 1   
8913 1   
8914 1   
8915 1   
8916 1   
8917 1   
8918 1   
8919 1   
8920 1   
8921 1   
8922 1   
8923 1   
8924 1   
8925 1   
8926 1   
8927 1   
8928 1   
8929 1   
8930 1   
8931 1   
8932 1   
8933 1   
8934 1   
8935 1   
8936 1   
8937 1   
8938 1   
8939 1   
8940 1   
8941 1   
8942 1   
8943 1   
8944 1   
8945 1   
8946 1   
8947 1   
8948 1   
8949 1   
8950 1   
8951 1   
8952 1   
8953 1   
8954 1   
8955 1   
8956 1   
8957 1   
8958 1   
8959 1   
8960 1   
8961 1   
8962 1   
8963 1   
8964 1   
8965 1   
8966 1   
8967 1   
8968 1   
8969 1   
8970 1   
8971 1   
8972 1   
8973 1   
8974 1   
8975 1   
8976 1   
8977 1   
8978 1   
8979 1   
8980 1   
8981 1   
8982 1   
8983 1   
8984 1   
8985 1   
8986 1   
8987 1   
8988 1   
8989 1   
8990 1   
8991 1   
8992 1   
8993 1   
8994 1   
8995 1   
8996 1   
8997 1   
8998 1   
8999 1   
9000 1   
9001 1   
9002 1   
9003 1   
9004 1   
9005 1   
9006 1   
9007 1   
9008 1   
9009 1   
9010 1   
9011 1   
9012 1   
9013 1   
9014 1   
9015 1   
9016 1   
9017 1   
9018 1   
9019 1   
9020 1   
9021 1   
9022 1   
9023 1   
9024 1   
9025 1   
9026 1   
9027 1   
9028 1   
9029 1   
9030 1   
9031 1   
9032 1   
9033 1   
9034 1   
9035 1   
9036 1   
9037 1   
9038 1   
9039 1   
9040 1   
9041 1   
9042 1   
9043 1   
9044 1   
9045 1   
9046 1   
9047 1   
9048 1   
9049 1   
9050 1   
9051 1   
9052 1   
9053 1   
9054 1   
9055 1   
9056 1   
9057 1   
9058 1   
9059 1   
9060 1   
9061 1   
9062 1   
9063 1   
9064 1   
9065 1   
9066 1   
9067 1   
9068 1   
9069 1   
9070 1   
9071 1   
9072 1   
9073 1   
9074 1   
9075 1   
9076 1   
9077 1   
9078 1   
9079 1   
9080 1   
9081 1   
9082 1   
9083 1   
9084 1   
9085 1   
9086 1   
9087 1   
9088 1   
9089 1   
9090 1   
9091 1   
9092 1   
9093 1   
9094 1   
9095 1   
9096 1   
9097 1   
9098 1   
9099 1   
9100 1   
9101 1   
9102 1   
9103 1   
9104 1   
9105 1   
9106 1   
9107 1   
9108 1   
9109 1   
9110 1   
9111 1   
9112 1   
9113 1   
9114 1   
9115 1   
9116 1   
9117 1   
9118 1   
9119 1   
9120 1   
9121 1   
9122 1   
9123 1   
9124 1   
9125 1   
9126 1   
9127 1   
9128 1   
9129 1   
9130 1   
9131 1   
9132 1   
9133 1   
9134 1   
9135 1   
9136 1   
9137 1   
9138 1   
9139 1   
9140 1   
9141 1   
9142 1   
9143 1   
9144 1   
9145 1   
9146 1   
9147 1   
9148 1   
9149 1   
9150 1   
9151 1   
9152 1   
9153 1   
9154 1   
9155 1   
9156 1   
9157 1   
9158 1   
9159 1   
9160 1   
9161 1   
9162 1   
9163 1   
9164 1   
9165 1   
9166 1   
9167 1   
9168 1   
9169 1   
9170 1   
9171 1   
9172 1   
9173 1   
9174 1   
9175 1   
9176 1   
9177 1   
9178 1   
9179 1   
9180 1   
9181 1   
9182 1   
9183 1   
9184 1   
9185 1   
9186 1   
9187 1   
9188 1   
9189 1   
9190 1   
9191 1   
9192 1   
9193 1   
9194 1   
9195 1   
9196 1   
9197 1   
9198 1   
9199 1   
9200 1   
9201 1   
9202 1   
9203 1   
9204 1   
9205 1   
9206 1   
9207 1   
9208 1   
9209 1   
9210 1   
9211 1   
9212 1   
9213 1   
9214 1   
9215 1   
9216 1   
9217 1   
9218 1   
9219 1   
9220 1   
9221 1   
9222 1   
9223 1   
9224 1   
9225 1   
9226 1   
9227 1   
9228 1   
9229 1   
9230 1   
9231 1   
9232 1   
9233 1   
9234 1   
9235 1   
9236 1   
9237 1   
9238 1   
9239 1   
9240 1   
9241 1   
9242 1   
9243 1   
9244 1   
9245 1   
9246 1   
9247 1   
9248 1   
9249 1   
9250 1   
9251 1   
9252 1   
9253 1   
9254 1   
9255 1   
9256 1   
9257 1   
9258 1   
9259 1   
9260 1   
9261 1   
9262 1   
9263 1   
9264 1   
9265 1   
9266 1   
9267 1   
9268 1   
9269 1   
9270 1   
9271 1   
9272 1   
9273 1   
9274 1   
9275 1   
9276 1   
9277 1   
9278 1   
9279 1   
9280 1   
9281 1   
9282 1   
9283 1   
9284 1   
9285 1   
9286 1   
9287 1   
9288 1   
9289 1   
9290 1   
9291 1   
9292 1   
9293 1   
9294 1   
9295 1   
9296 1   
9297 1   
9298 1   
9299 1   
9300 1   
9301 1   
9302 1   
9303 1   
9304 1   
9305 1   
9306 1   
9307 1   
9308 1   
9309 1   
9310 1   
9311 1   
9312 1   
9313 1   
9314 1   
9315 1   
9316 1   
9317 1   
9318 1   
9319 1   
9320 1   
9321 1   
9322 1   
9323 1   
9324 1   
9325 1   
9326 1   
9327 1   
9328 1   
9329 1   
9330 1   
9331 1   
9332 1   
9333 1   
9334 1   
9335 1   
9336 1   
9337 1   
9338 1   
9339 1   
9340 1   
9341 1   
9342 1   
9343 1   
9344 1   
9345 1   
9346 1   
9347 1   
9348 1   
9349 1   
9350 1   
9351 1   
9352 1   
9353 1   
9354 1   
9355 1   
9356 1   
9357 1   
9358 1   
9359 1   
9360 1   
9361 1   
9362 1   
9363 1   
9364 1   
9365 1   
9366 1   
9367 1   
9368 1   
9369 1   
9370 1   
9371 1   
9372 1   
9373 1   
9374 1   
9375 1   
9376 1   
9377 1   
9378 1   
9379 1   
9380 1   
9381 1   
9382 1   
9383 1   
9384 1   
9385 1   
9386 1   
9387 1   
9388 1   
9389 1   
9390 1   
9391 1   
9392 1   
9393 1   
9394 1   
9395 1   
9396 1   
9397 1   
9398 1   
9399 1   
9400 1   
9401 1   
9402 1   
9403 1   
9404 1   
9405 1   
9406 1   
9407 1   
9408 1   
9409 1   
9410 1   
9411 1   
9412 1   
9413 1   
9414 1   
9415 1   
9416 1   
9417 1   
9418 1   
9419 1   
9420 1   
9421 1   
9422 1   
9423 1   
9424 1   
9425 1   
9426 1   
9427 1   
9428 1   
9429 1   
9430 1   
9431 1   
9432 1   
9433 1   
9434 1   
9435 1   
9436 1   
9437 1   
9438 1   
9439 1   
9440 1   
9441 1   
9442 1   
9443 1   
9444 1   
9445 1   
9446 1   
9447 1   
9448 1   
9449 1   
9450 1   
9451 1   
9452 1   
9453 1   
9454 1   
9455 1   
9456 1   
9457 1   
9458 1   
9459 1   
9460 1   
9461 1   
9462 1   
9463 1   
9464 1   
9465 1   
9466 1   
9467 1   
9468 1   
9469 1   
9470 1   
9471 1   
9472 1   
9473 1   
9474 1   
9475 1   
9476 1   
9477 1   
9478 1   
9479 1   
9480 1   
9481 1   
9482 1   
9483 1   
9484 1   
9485 1   
9486 1   
9487 1   
9488 1   
9489 1   
9490 1   
9491 1   
9492 1   
9493 1   
9494 1   
9495 1   
9496 1   
9497 1   
9498 1   
9499 1   
9500 1   
9501 1   
9502 1   
9503 1   
9504 1   
9505 1   
9506 1   
9507 1   
9508 1   
9509 1   
9510 1   
9511 1   
9512 1   
9513 1   
9514 1   
9515 1   
9516 1   
9517 1   
9518 1   
9519 1   
9520 1   
9521 1   
9522 1   
9523 1   
9524 1   
9525 1   
9526 1   
9527 1   
9528 1   
9529 1   
9530 1   
9531 1   
9532 1   
9533 1   
9534 1   
9535 1   
9536 1   
9537 1   
9538 1   
9539 1   
9540 1   
9541 1   
9542 1   
9543 1   
9544 1   
9545 1   
9546 1   
9547 1   
9548 1   
9549 1   
9550 1   
9551 1   
9552 1   
9553 1   
9554 1   
9555 1   
9556 1   
9557 1   
9558 1   
9559 1   
9560 1   
9561 1   
9562 1   
9563 1   
9564 1   
9565 1   
9566 1   
9567 1   
9568 1   
9569 1   
9570 1   
9571 1   
9572 1   
9573 1   
9574 1   
9575 1   
9576 1   
9577 1   
9578 1   
9579 1   
9580 1   
9581 1   
9582 1   
9583 1   
9584 1   
9585 1   
9586 1   
9587 1   
9588 1   
9589 1   
9590 1   
9591 1   
9592 1   
9593 1   
9594 1   
9595 1   
9596 1   
9597 1   
9598 1   
9599 1   
9600 1   
9601 1   
9602 1   
9603 1   
9604 1   
9605 1   
9606 1   
9607 1   
9608 1   
9609 1   
9610 1   
9611 1   
9612 1   
9613 1   
9614 1   
9615 1   
9616 1   
9617 1   
9618 1   
9619 1   
9620 1   
9621 1   
9622 1   
9623 1   
9624 1   
9625 1   
9626 1   
9627 1   
9628 1   
9629 1   
9630 1   
9631 1   
9632 1   
9633 1   
9634 1   
9635 1   
9636 1   
9637 1   
9638 1   
9639 1   
9640 1   
9641 1   
9642 1   
9643 1   
9644 1   
9645 1   
9646 1   
9647 1   
9648 1   
9649 1   
9650 1   
9651 1   
9652 1   
9653 1   
9654 1   
9655 1   
9656 1   
9657 1   
9658 1   
9659 1   
9660 1   
9661 1   
9662 1   
9663 1   
9664 1   
9665 1   
9666 1   
9667 1   
9668 1   
9669 1   
9670 1   
9671 1   
9672 1   
9673 1   
9674 1   
9675 1   
9676 1   
9677 1   
9678 1   
9679 1   
9680 1   
9681 1   
9682 1   
9683 1   
9684 1   
9685 1   
9686 1   
9687 1   
9688 1   
9689 1   
9690 1   
9691 1   
9692 1   
9693 1   
9694 1   
9695 1   
9696 1   
9697 1   
9698 1   
9699 1   
9700 1   
9701 1   
9702 1   
9703 1   
9704 1   
9705 1   
9706 1   
9707 1   
9708 1   
9709 1   
9710 1   
9711 1   
9712 1   
9713 1   
9714 1   
9715 1   
9716 1   
9717 1   
9718 1   
9719 1   
9720 1   
9721 1   
9722 1   
9723 1   
9724 1   
9725 1   
9726 1   
9727 1   
9728 1   
9729 1   
9730 1   
9731 1   
9732 1   
9733 1   
9734 1   
9735 1   
9736 1   
9737 1   
9738 1   
9739 1   
9740 1   
9741 1   
9742 1   
9743 1   
9744 1   
9745 1   
9746 1   
9747 1   
9748 1   
9749 1   
9750 1   
9751 1   
9752 1   
9753 1   
9754 1   
9755 1   
9756 1   
9757 1   
9758 1   
9759 1   
9760 1   
9761 1   
9762 1   
9763 1   
9764 1   
9765 1   
9766 1   
9767 1   
9768 1   
9769 1   
9770 1   
9771 1   
9772 1   
9773 1   
9774 1   
9775 1   
9776 1   
9777 1   
9778 1   
9779 1   
9780 1   
9781 1   
9782 1   
9783 1   
9784 1   
9785 1   
9786 1   
9787 1   
9788 1   
9789 1   
9790 1   
9791 1   
9792 1   
9793 1   
9794 1   
9795 1   
9796 1   
9797 1   
9798 1   
9799 1   
9800 1   
9801 1   
9802 1   
9803 1   
9804 1   
9805 1   
9806 1   
9807 1   
9808 1   
9809 1   
9810 1   
9811 1   
9812 1   
9813 1   
9814 1   
9815 1   
9816 1   
9817 1   
9818 1   
9819 1   
9820 1   
9821 1   
9822 1   
9823 1   
9824 1   
9825 1   
9826 1   
9827 1   
9828 1   
9829 1   
9830 1   
9831 1   
9832 1   
9833 1   
9834 1   
9835 1   
9836 1   
9837 1   
9838 1   
9839 1   
9840 1   
9841 1   
9842 1   
9843 1   
9844 1   
9845 1   
9846 1   
9847 1   
9848 1   
9849 1   
9850 1   
9851 1   
9852 1   
9853 1   
9854 1   
9855 1   
9856 1   
9857 1   
9858 1   
9859 1   
9860 1   
9861 1   
9862 1   
9863 1   
9864 1   
9865 1   
9866 1   
9867 1   
9868 1   
9869 1   
9870 1   
9871 1   
9872 1   
9873 1   
9874 1   
9875 1   
9876 1   
9877 1   
9878 1   
9879 1   
9880 1   
9881 1   
9882 1   
9883 1   
9884 1   
9885 1   
9886 1   
9887 1   
9888 1   
9889 1   
9890 1   
9891 1   
9892 1   
9893 1   
9894 1   
9895 1   
9896 1   
9897 1   
9898 1   
9899 1   
9900 1   
9901 1   
9902 1   
9903 1   
9904 1   
9905 1   
9906 1   
9907 1   
9908 1   
9909 1   
9910 1   
9911 1   
9912 1   
9913 1   
9914 1   
9915 1   
9916 1   
9917 1   
9918 1   
9919 1   
9920 1   
9921 1   
9922 1   
9923 1   
9924 1   
9925 1   
9926 1   
9927 1   
9928 1   
9929 1   
9930 1   
9931 1   
9932 1   
9933 1   
9934 1   
9935 1   
9936 1   
9937 1   
9938 1   
9939 1   
9940 1   
9941 1   
9942 1   
9943 1   
9944 1   
9945 1   
9946 1   
9947 1   
9948 1   
9949 1   
9950 1   
9951 1   
9952 1   
9953 1   
9954 1   
9955 1   
9956 1   
9957 1   
9958 1   
9959 1   
9960 1   
9961 1   
9962 1   
9963 1   
9964 1   
9965 1   
9966 1   
9967 1   
9968 1   
9969 1   
9970 1   
9971 1   
9972 1   
9973 1   
9974 1   
9975 1   
9976 1   
9977 1   
9978 1   
9979 1   
9980 1   
9981 1   
9982 1   
9983 1   
9984 1   
9985 1   
9986 1   
9987 1   
9988 1   
9989 1   
9990 1   
9991 1   
9992 1   
9993 1   
9994 1   
9995 1   
9996 1   
9997 1   
9998 1   
9999 1   
10000 1   
10001 1   
DEPOT_SECTION
1
-1
EOF
