NAME : XML10000_2223_01
COMMENT : Generated as the XML100 dataset from the CVRPLIB
TYPE : CVRP
DIMENSION : 10001
EDGE_WEIGHT_TYPE : EUC_2D
CAPACITY : 45
NODE_COORD_SECTION
1    5000 5000
2    404  7501
3    7866 7937
4    7439 5023
5    7650 8087
6    7653 9934
7    7714 9984
8    107  8757
9    4437 2348
10   7444 9903
11   901  8765
12   4253 2097
13   357  9695
14   8122 7933
15   6373 8114
16   4548 2670
17   4779 2702
18   7254 4212
19   4559 2774
20   7381 7898
21   540  8491
22   7724 8388
23   7439 5767
24   7163 5406
25   8265 5785
26   830  3546
27   7645 9234
28   1126 8988
29   7399 9223
30   4707 2654
31   546  8842
32   8841 4689
33   736  3415
34   108  3381
35   7760 4209
36   7370 5605
37   8158 5466
38   572  9033
39   3317 2928
40   7448 9565
41   4244 2785
42   4399 3179
43   7862 7817
44   1293 8905
45   7664 8007
46   4867 2213
47   4634 2659
48   553  8209
49   4469 2508
50   9022 8242
51   996  8385
52   541  8720
53   5806 9853
54   598  8675
55   379  8385
56   7939 8003
57   8129 4889
58   535  8694
59   8295 5127
60   854  3197
61   7587 7549
62   4721 2860
63   4543 1923
64   4645 2647
65   8215 9234
66   7411 9448
67   7670 7843
68   5400 3440
69   7889 9345
70   314  3625
71   4549 2775
72   6665 4038
73   8115 5384
74   7998 8474
75   4053 2575
76   4577 2811
77   4656 1922
78   7314 8519
79   7498 8590
80   7916 5412
81   224  3205
82   7243 5619
83   585  3212
84   7265 7839
85   7581 5746
86   258  3410
87   4848 2281
88   4586 2698
89   7207 7909
90   7494 9943
91   8026 5866
92   7440 7929
93   8025 7913
94   8418 7719
95   6874 7584
96   81   3467
97   115  8878
98   4358 2627
99   6580 7718
100  8663 5263
101  161  2919
102  7454 8222
103  7873 7623
104  3197 4142
105  4219 2902
106  8839 9219
107  1136 4715
108  4840 3011
109  6860 9921
110  7713 7897
111  8990 9461
112  472  9178
113  8386 4768
114  5307 2762
115  719  8392
116  714  3735
117  8194 4302
118  8227 9710
119  7683 6147
120  7325 7913
121  180  3262
122  8089 5177
123  8006 8318
124  4936 2215
125  7251 8299
126  6448 7721
127  536  3557
128  404  8382
129  8215 5423
130  7845 8704
131  293  7387
132  228  3989
133  7033 7510
134  7291 5046
135  7245 8864
136  7782 9609
137  6775 9701
138  8008 9442
139  7877 9643
140  8003 5365
141  8100 9761
142  381  8091
143  8568 5257
144  1114 8704
145  4140 3431
146  5478 2783
147  7103 8314
148  7900 9314
149  5652 3208
150  9159 4886
151  1091 9882
152  7807 9439
153  7476 9421
154  4521 1568
155  7887 9559
156  538  3514
157  8258 9505
158  7653 9683
159  7581 8204
160  6860 3420
161  7223 9965
162  593  8465
163  7629 8448
164  8003 8207
165  8627 5564
166  7998 5411
167  7643 8079
168  7818 8344
169  4966 2324
170  4390 2872
171  7600 5394
172  4695 1543
173  4912 2896
174  7459 9547
175  4427 1885
176  828  3348
177  539  8478
178  7811 4893
179  8059 8104
180  5032 1776
181  266  3657
182  7818 9805
183  7396 7761
184  8446 5302
185  245  3231
186  4436 2323
187  6562 8667
188  483  7342
189  708  8999
190  106  3454
191  8689 5692
192  7716 7524
193  7432 8724
194  7449 7424
195  7212 7550
196  5363 2445
197  4401 2158
198  186  3353
199  482  8531
200  7449 7601
201  513  3628
202  7710 8032
203  633  8081
204  4798 3023
205  617  8692
206  8753 6424
207  7542 7805
208  8822 9597
209  7762 5311
210  7997 4772
211  859  8790
212  616  8395
213  3813 2471
214  251  3155
215  537  4268
216  7989 5484
217  4642 3013
218  7840 7997
219  1388 8936
220  4706 2524
221  7917 5114
222  8792 9657
223  7702 5513
224  745  3186
225  5839 2992
226  4289 3169
227  9023 9770
228  6973 5466
229  944  7793
230  7377 7795
231  1389 8547
232  308  7903
233  7981 5327
234  726  2682
235  4280 2992
236  7983 5710
237  8291 5092
238  6377 8025
239  9344 5815
240  8259 5477
241  6620 8272
242  7968 9368
243  659  8344
244  704  2954
245  4573 2564
246  467  8843
247  8024 9631
248  249  3447
249  7885 8290
250  7905 9900
251  8258 4978
252  630  8812
253  7682 9644
254  4814 2133
255  4312 2177
256  9056 9091
257  327  3069
258  7692 8021
259  688  8934
260  8033 6348
261  417  8570
262  8348 9428
263  477  4142
264  343  8301
265  330  9372
266  8413 8976
267  8132 4544
268  1369 8255
269  4220 3439
270  8061 7767
271  4516 2560
272  7788 8920
273  8591 7846
274  5081 3759
275  7365 7734
276  849  9037
277  291  3268
278  7307 7564
279  5108 2192
280  512  3574
281  8388 8050
282  6953 7690
283  4759 2403
284  4538 2149
285  8480 9855
286  7515 8127
287  966  8122
288  7674 7961
289  7432 9070
290  600  8615
291  7749 9867
292  8233 5077
293  7497 7785
294  7710 7294
295  7111 9865
296  7627 4988
297  5031 3225
298  7399 5023
299  331  8501
300  7767 7835
301  911  3599
302  7819 7731
303  8308 9471
304  6952 8288
305  499  8740
306  7436 9528
307  490  3410
308  7729 6134
309  4902 3533
310  1083 9182
311  7643 9346
312  370  8289
313  343  3667
314  8127 9233
315  4860 2786
316  874  8474
317  9309 9263
318  4994 2542
319  590  8822
320  606  2778
321  5385 2260
322  4635 2581
323  7794 9073
324  152  2776
325  7114 9879
326  7141 9000
327  7438 8470
328  7945 5325
329  7373 9879
330  7689 9454
331  270  3783
332  7932 9416
333  4376 1934
334  8236 5279
335  9451 4859
336  7952 5135
337  5779 2698
338  7624 5584
339  408  8319
340  7472 8337
341  294  7524
342  8022 9657
343  7257 8395
344  4303 2390
345  766  3489
346  77   3460
347  7182 7975
348  5024 2321
349  7978 5749
350  8522 4987
351  355  2758
352  280  3381
353  6413 9184
354  7299 7415
355  7136 5171
356  7845 9650
357  4879 2763
358  7470 8402
359  7834 9611
360  4106 3446
361  5410 2606
362  7538 8000
363  7643 8885
364  7676 5047
365  290  4170
366  7546 9538
367  7858 8218
368  8179 9536
369  8148 5873
370  7914 8965
371  4811 2405
372  7980 5005
373  8094 5026
374  5029 2359
375  7654 9628
376  4908 2439
377  6953 5846
378  769  8645
379  4403 2681
380  7474 4521
381  8204 5104
382  6254 6466
383  7504 7399
384  561  3944
385  8497 7399
386  254  3735
387  895  3130
388  7343 8417
389  527  8491
390  675  8850
391  4717 2355
392  8407 5357
393  8046 5655
394  4488 3108
395  567  3844
396  8123 5975
397  632  7593
398  8233 8187
399  1175 7953
400  1357 8078
401  757  8611
402  4696 2766
403  4373 3044
404  4853 2692
405  4247 2831
406  8073 5375
407  4085 2028
408  8148 4910
409  1339 9123
410  8290 9520
411  8034 5404
412  4958 1653
413  8005 9253
414  5033 2934
415  7587 8318
416  7860 5885
417  1178 8296
418  4268 2833
419  235  2770
420  8406 9119
421  7086 9782
422  4862 2956
423  8374 5413
424  8036 5388
425  7702 8082
426  8029 5604
427  4853 2296
428  6349 8331
429  8941 9016
430  8314 6138
431  7875 9460
432  3957 1766
433  21   3538
434  742  9127
435  6469 7426
436  7335 8302
437  4829 1642
438  7588 7309
439  4740 3053
440  367  4007
441  7716 5474
442  3464 2607
443  7677 9382
444  8465 6501
445  8060 5169
446  7450 9824
447  8195 9217
448  8274 8036
449  373  3007
450  7829 9676
451  7683 9891
452  9041 4604
453  894  8483
454  7073 9550
455  535  8503
456  4319 2456
457  7827 5087
458  7411 9129
459  7540 8537
460  4013 2820
461  6920 5545
462  3963 3109
463  560  8569
464  240  9515
465  8080 5584
466  349  3250
467  8358 9404
468  499  8506
469  65   9006
470  4919 3043
471  4353 2502
472  953  8865
473  7975 9771
474  131  8913
475  7882 9393
476  6860 5312
477  7026 9723
478  379  3985
479  8105 5566
480  8417 5500
481  393  2802
482  8469 5393
483  7673 7019
484  924  8638
485  3973 2098
486  6833 9630
487  552  8863
488  7553 8207
489  7488 9552
490  8363 9108
491  8147 9123
492  6889 5521
493  4373 2635
494  9108 6523
495  7974 8430
496  8109 9485
497  7672 8092
498  7171 5303
499  8130 6388
500  7538 4292
501  4607 2604
502  537  8801
503  7919 5609
504  7347 4429
505  7560 7973
506  8158 5222
507  398  8496
508  4329 2465
509  8276 4770
510  7919 5470
511  8207 4960
512  8019 7461
513  4618 3791
514  7766 9412
515  7878 9438
516  8097 5386
517  3983 3141
518  1371 8124
519  3947 2381
520  8064 5505
521  7823 6348
522  7887 5174
523  7648 9889
524  3908 3293
525  564  8470
526  696  9094
527  8475 5593
528  7970 5227
529  5651 3000
530  4235 2746
531  8241 8887
532  7895 9388
533  713  8403
534  3932 2405
535  7883 6759
536  8205 5901
537  541  8339
538  8573 5716
539  85   3650
540  437  8093
541  7677 9290
542  8875 5590
543  8347 4912
544  596  3466
545  79   3644
546  39   3493
547  5590 3782
548  8099 5607
549  7026 7870
550  120  3347
551  7328 5365
552  238  8560
553  1526 9083
554  295  8411
555  4509 958 
556  7401 8375
557  7446 5704
558  7788 4970
559  7981 4642
560  587  8360
561  7707 9394
562  7711 7532
563  6863 8422
564  4157 2658
565  720  4143
566  8136 8348
567  473  8937
568  4486 2532
569  1608 8387
570  7911 9475
571  7153 5408
572  8459 9340
573  7797 8900
574  7928 8845
575  8084 5519
576  321  8352
577  4498 2593
578  4    2890
579  8144 9227
580  6904 7570
581  7334 3942
582  7890 9551
583  1112 8326
584  795  9176
585  4588 2712
586  527  8193
587  8399 4971
588  924  3311
589  7865 5992
590  4101 2718
591  682  4392
592  467  8680
593  8431 8707
594  4433 2846
595  8009 5513
596  7945 9372
597  624  9076
598  7552 7881
599  490  8794
600  5065 2726
601  951  9351
602  5396 2798
603  7980 9858
604  7841 8952
605  6153 2464
606  462  7900
607  1150 9121
608  706  3445
609  4503 2452
610  7883 5978
611  9107 5773
612  624  8274
613  4663 2995
614  8864 4699
615  8322 4446
616  462  3053
617  4800 1895
618  8029 9131
619  7871 8930
620  9092 8195
621  4243 2729
622  7627 8808
623  8288 9368
624  270  3142
625  7867 4781
626  3966 2526
627  7798 9958
628  4254 2942
629  4327 2716
630  8231 8445
631  7673 8009
632  3984 2380
633  7443 5906
634  4539 2420
635  7317 7989
636  389  3024
637  7844 9480
638  959  3058
639  4678 2433
640  4202 2502
641  488  8085
642  295  8601
643  73   3453
644  8698 5221
645  7711 8760
646  7480 4877
647  4646 2363
648  4261 2839
649  7193 8605
650  8561 9865
651  201  3457
652  7350 7950
653  8227 5363
654  8437 7030
655  8449 5659
656  8710 6218
657  7979 5340
658  7614 9501
659  7990 6173
660  8397 9962
661  4600 2538
662  62   7992
663  8327 9347
664  8373 5716
665  7633 4649
666  627  8570
667  240  8904
668  7191 8200
669  837  8103
670  374  3272
671  4706 3289
672  8339 7757
673  4651 2616
674  1424 7825
675  4471 2611
676  7781 9545
677  4998 3378
678  8801 5315
679  4455 2631
680  4949 1992
681  1159 8825
682  8786 8912
683  246  3445
684  7987 5480
685  7739 7415
686  440  8819
687  8279 5328
688  5297 2913
689  7535 9960
690  7720 5628
691  553  3352
692  7994 5874
693  8087 7571
694  29   3047
695  8103 9371
696  630  8346
697  8898 8417
698  6269 5376
699  7018 9531
700  7482 9552
701  8767 9599
702  604  4152
703  220  4292
704  7313 8266
705  4813 2873
706  628  8734
707  152  8547
708  469  8850
709  8106 9596
710  4508 2904
711  8079 4973
712  5047 3177
713  4576 2493
714  3972 2314
715  7888 8421
716  641  7222
717  6832 5379
718  7939 5333
719  8004 9517
720  4567 3189
721  8173 9618
722  7768 4162
723  8432 9658
724  167  3243
725  875  7951
726  8058 8780
727  7291 9725
728  8068 8070
729  1597 8488
730  401  1611
731  8880 5949
732  4896 2534
733  8211 5538
734  7362 8694
735  7121 8246
736  7982 6287
737  4605 2488
738  8048 9583
739  7377 7576
740  8326 4474
741  1112 8851
742  4372 2902
743  8520 4994
744  7807 5818
745  8518 5388
746  750  2729
747  836  8468
748  418  8743
749  7803 9851
750  7990 4365
751  7470 8094
752  7603 5031
753  8540 5975
754  7530 8633
755  569  8672
756  8120 9123
757  7373 8243
758  306  3572
759  8185 8041
760  7983 5622
761  4371 2716
762  7522 5715
763  7446 8282
764  7083 8060
765  7725 7943
766  6922 8820
767  4612 2997
768  7561 4965
769  8006 5137
770  940  3850
771  7968 5277
772  97   8511
773  7838 7515
774  7251 9461
775  295  3730
776  7991 4640
777  375  8769
778  543  8281
779  7623 5201
780  8102 9491
781  3248 2022
782  8155 7703
783  8214 5523
784  236  8626
785  289  3179
786  305  3364
787  8119 9075
788  6284 7554
789  4489 3650
790  7697 8061
791  3832 2394
792  7753 9737
793  8214 9566
794  797  8593
795  7766 9401
796  7910 5447
797  8467 9562
798  6973 8887
799  7766 9512
800  7884 9565
801  4938 3517
802  7406 7714
803  8917 7759
804  569  3295
805  967  8423
806  7370 8466
807  8603 5456
808  8511 4475
809  627  3257
810  8046 5274
811  8060 6523
812  152  9100
813  8531 6509
814  8347 9436
815  8614 5523
816  7691 4752
817  381  3198
818  7613 9065
819  7570 7143
820  7991 9332
821  8543 5356
822  8064 6538
823  7432 8197
824  6527 7391
825  7788 9800
826  637  8593
827  5940 8579
828  7780 8356
829  4770 1994
830  1255 9049
831  261  8563
832  7915 8673
833  8032 5328
834  4514 3544
835  188  3271
836  7812 8319
837  40   8282
838  4    3294
839  237  3969
840  7341 8023
841  7363 9037
842  636  3197
843  4777 2595
844  7740 8803
845  8073 5176
846  8138 9334
847  1373 9348
848  7962 5721
849  3932 3288
850  8042 6056
851  439  3379
852  347  8698
853  8753 5381
854  8363 9675
855  34   3487
856  948  3871
857  7790 9670
858  7676 9442
859  59   3332
860  3001 2819
861  4742 2448
862  434  3636
863  8959 9308
864  7387 7995
865  7862 5105
866  7773 5674
867  285  3019
868  803  9641
869  7918 8303
870  550  7693
871  4439 3323
872  593  8753
873  80   8588
874  143  3409
875  8311 8446
876  7841 9398
877  486  8646
878  7762 9358
879  7599 4767
880  9695 9530
881  7957 9736
882  481  8552
883  8180 9870
884  9525 5624
885  21   3091
886  330  3454
887  7741 5256
888  180  3416
889  8153 9426
890  263  8603
891  412  8809
892  7620 8433
893  862  8689
894  7277 7111
895  1115 7947
896  4914 3465
897  7482 5808
898  4398 2681
899  1016 2851
900  4551 2469
901  389  4597
902  675  7856
903  8413 8910
904  709  7740
905  4658 2581
906  366  8532
907  5004 2665
908  549  8491
909  958  3124
910  7899 7218
911  8316 6634
912  421  8402
913  8354 5899
914  8043 7830
915  4963 2931
916  201  8454
917  4750 2871
918  57   3447
919  4854 3543
920  341  3291
921  8010 9616
922  255  8101
923  289  8891
924  7533 8229
925  454  8373
926  8193 9938
927  558  8911
928  752  3257
929  28   8442
930  4684 2614
931  4809 2491
932  8281 6052
933  7908 9320
934  66   3457
935  6600 4468
936  7623 8062
937  4945 2116
938  7466 8130
939  8392 6009
940  4815 2586
941  7969 5612
942  4789 2299
943  219  3558
944  8029 4576
945  7335 5348
946  7535 7304
947  229  3669
948  7443 8182
949  7164 7547
950  7971 8540
951  7418 4915
952  7841 5630
953  7545 7959
954  7395 7650
955  762  8494
956  174  8336
957  8081 9373
958  7945 6133
959  441  2822
960  7105 7887
961  493  3825
962  707  8924
963  8659 3959
964  801  8445
965  976  2060
966  4568 2238
967  7526 4740
968  112  3083
969  1186 7740
970  8103 5165
971  62   3293
972  7511 7765
973  7720 5234
974  7901 5549
975  1233 3596
976  327  3115
977  6863 8997
978  7973 9758
979  1007 9453
980  517  8587
981  5913 1682
982  7675 4536
983  903  8312
984  7229 7318
985  8193 5426
986  7881 9195
987  216  9410
988  812  8246
989  7902 5048
990  4500 2800
991  3862 2935
992  816  4254
993  8242 7077
994  4601 2437
995  6842 8514
996  7773 5441
997  500  8455
998  7731 9644
999  8955 8260
1000 266  4090
1001 528  3545
1002 821  8625
1003 7022 8267
1004 7969 8120
1005 5035 3039
1006 4850 2331
1007 8010 8876
1008 7071 8474
1009 6946 9677
1010 845  8604
1011 7061 8464
1012 7650 9049
1013 7475 9608
1014 6887 8149
1015 163  3456
1016 4668 2530
1017 8153 5742
1018 8303 9479
1019 7966 5381
1020 7976 7869
1021 956  8069
1022 281  3326
1023 997  3722
1024 7318 8410
1025 313  3478
1026 7706 8119
1027 1041 2410
1028 4444 2839
1029 727  8411
1030 6887 8477
1031 7892 4401
1032 7754 9468
1033 5185 2420
1034 3698 2285
1035 7005 7860
1036 8051 5220
1037 7704 7119
1038 7700 7996
1039 6341 8282
1040 6647 9871
1041 7351 8533
1042 560  8627
1043 7590 7859
1044 4581 2597
1045 165  8838
1046 7948 7814
1047 3992 782 
1048 63   3490
1049 680  9339
1050 1220 2292
1051 7670 7925
1052 126  3105
1053 7795 5513
1054 7065 9470
1055 7608 7857
1056 7692 5037
1057 4878 2233
1058 8019 9026
1059 6577 8785
1060 4951 2610
1061 8473 5463
1062 8202 5439
1063 441  8477
1064 1070 8220
1065 722  8310
1066 423  8533
1067 880  8604
1068 919  8527
1069 4638 2160
1070 455  3647
1071 8149 9169
1072 4467 3754
1073 7944 7504
1074 4965 2539
1075 1403 9007
1076 613  8561
1077 1606 8412
1078 7190 5327
1079 4889 3399
1080 4014 2086
1081 8449 7205
1082 8107 7965
1083 4613 2895
1084 8172 9745
1085 8127 3586
1086 4361 2502
1087 7359 7967
1088 8074 7913
1089 425  8135
1090 3851 2759
1091 8618 5387
1092 243  3504
1093 7986 5294
1094 4185 2643
1095 664  3589
1096 225  8196
1097 8198 9022
1098 4592 2683
1099 195  3177
1100 8501 5482
1101 8272 5242
1102 559  8536
1103 251  8303
1104 4681 2172
1105 8742 9470
1106 4530 2576
1107 6950 7916
1108 983  8749
1109 8333 5154
1110 7400 7916
1111 434  3352
1112 7594 7699
1113 121  3911
1114 7663 9159
1115 1126 3885
1116 8136 5339
1117 4343 2797
1118 7096 7647
1119 7877 9507
1120 210  3235
1121 114  3375
1122 4728 2318
1123 7594 7477
1124 502  3666
1125 7426 7875
1126 8338 5629
1127 693  8586
1128 7883 9377
1129 264  8718
1130 8194 5552
1131 7647 8136
1132 7674 8244
1133 1500 8971
1134 3686 1931
1135 877  8644
1136 979  3706
1137 7066 7778
1138 7912 9716
1139 4105 3312
1140 6852 9791
1141 4359 2080
1142 139  8642
1143 7946 5395
1144 7741 8053
1145 1029 7576
1146 8766 5302
1147 1358 9147
1148 7615 8309
1149 7788 8233
1150 4669 3354
1151 8009 9856
1152 7426 9702
1153 7401 5076
1154 8426 5543
1155 3854 3748
1156 995  8554
1157 8034 5547
1158 144  3447
1159 432  2711
1160 7653 8098
1161 8072 9935
1162 7285 7828
1163 283  9025
1164 4333 2978
1165 8708 8484
1166 444  8130
1167 98   9024
1168 5151 3085
1169 7156 5328
1170 7629 9932
1171 6333 6599
1172 7205 4912
1173 6721 8695
1174 7761 7808
1175 4735 2321
1176 7750 5081
1177 48   8085
1178 4193 2218
1179 8276 9810
1180 360  8645
1181 433  8497
1182 8415 6122
1183 288  8732
1184 5184 2913
1185 7677 7932
1186 8248 9309
1187 245  3113
1188 4788 2758
1189 82   8705
1190 7855 5581
1191 617  4143
1192 8161 8474
1193 5747 3312
1194 7999 9690
1195 5080 2603
1196 7959 9414
1197 4610 2052
1198 749  9219
1199 149  2946
1200 7700 4969
1201 7856 4818
1202 4227 3338
1203 7971 6271
1204 23   3491
1205 4346 3102
1206 8152 4397
1207 7328 8127
1208 7560 9073
1209 714  3926
1210 796  8428
1211 7273 8876
1212 8033 7395
1213 7497 7425
1214 7748 9455
1215 7675 5209
1216 7908 9668
1217 7450 7900
1218 197  8474
1219 8257 4967
1220 1095 7784
1221 8108 8297
1222 580  7883
1223 7780 5578
1224 7787 9540
1225 8119 9823
1226 8543 5650
1227 7665 8105
1228 4387 2550
1229 8391 9368
1230 288  4582
1231 8167 9157
1232 8176 9908
1233 7261 7855
1234 328  8485
1235 7780 9534
1236 7840 5271
1237 7856 9574
1238 1704 3018
1239 346  9023
1240 649  8196
1241 7216 7700
1242 7978 5367
1243 4672 2601
1244 7519 7317
1245 4050 3115
1246 8164 5130
1247 4541 2792
1248 75   3909
1249 666  8439
1250 7575 7976
1251 1244 2633
1252 8034 9603
1253 7670 4711
1254 334  3221
1255 608  8266
1256 8926 9299
1257 8301 9822
1258 7853 9727
1259 4506 2956
1260 4757 2389
1261 7600 5604
1262 790  3376
1263 4143 2666
1264 8371 4933
1265 8571 5549
1266 708  8204
1267 763  3614
1268 901  8835
1269 52   8607
1270 463  3285
1271 7757 8687
1272 7320 8398
1273 1400 8995
1274 599  8283
1275 7667 7543
1276 7716 9470
1277 877  8853
1278 898  9274
1279 7698 9070
1280 6970 5244
1281 512  9042
1282 8264 9524
1283 1150 3787
1284 4658 2578
1285 7660 5872
1286 4969 3135
1287 466  6933
1288 7950 8982
1289 7    3374
1290 87   8581
1291 8100 9193
1292 8479 8678
1293 7584 7444
1294 3623 2625
1295 4673 2952
1296 7052 8061
1297 4347 3209
1298 7943 9588
1299 7463 7770
1300 8234 5584
1301 7683 8343
1302 7630 8428
1303 89   3534
1304 8016 5108
1305 135  2812
1306 5010 2504
1307 7833 9257
1308 5062 2852
1309 7709 9532
1310 8098 5299
1311 8836 5160
1312 7970 9160
1313 124  8553
1314 8194 5496
1315 8489 5420
1316 4721 2703
1317 446  3533
1318 3749 2687
1319 7873 7684
1320 8013 5371
1321 8285 4726
1322 8363 4500
1323 474  8964
1324 7319 9351
1325 8128 8182
1326 4152 2696
1327 7383 8240
1328 600  2311
1329 8846 6323
1330 207  8139
1331 168  8050
1332 1160 7868
1333 380  8583
1334 7973 8098
1335 594  3668
1336 601  8991
1337 8319 7493
1338 751  8929
1339 980  8169
1340 7435 9237
1341 571  4053
1342 7913 7816
1343 7886 4242
1344 8271 9587
1345 7925 5901
1346 6874 6872
1347 4739 2831
1348 8010 8651
1349 4193 2258
1350 956  3066
1351 7578 5382
1352 8063 4703
1353 8171 7309
1354 7118 7947
1355 8709 6052
1356 7399 8826
1357 7788 9406
1358 4501 2539
1359 468  8644
1360 4582 2254
1361 8052 8813
1362 420  8925
1363 8238 9106
1364 6930 7002
1365 7505 8155
1366 4458 3518
1367 570  8526
1368 7166 9568
1369 697  2757
1370 7868 5282
1371 1066 8628
1372 7997 9507
1373 4542 1790
1374 7955 7981
1375 546  7822
1376 7278 5032
1377 8207 4410
1378 8511 9899
1379 563  8530
1380 6925 9304
1381 7457 7665
1382 9397 7811
1383 5158 1603
1384 464  8379
1385 8464 4544
1386 5297 2553
1387 7755 8664
1388 316  3526
1389 8317 5478
1390 8285 5405
1391 1121 3641
1392 7614 7376
1393 4726 2699
1394 881  8552
1395 126  3287
1396 488  8574
1397 8219 4356
1398 7538 8287
1399 8555 6200
1400 4160 2947
1401 1324 2588
1402 8005 9405
1403 190  8237
1404 7141 7889
1405 7723 9666
1406 7326 9867
1407 7619 8745
1408 8013 5458
1409 547  9597
1410 7645 6222
1411 7035 7647
1412 4506 2901
1413 8034 5350
1414 1042 9366
1415 379  3931
1416 1460 8227
1417 7791 9652
1418 4546 2625
1419 7872 9296
1420 6893 7903
1421 4664 2771
1422 7085 7852
1423 8009 8128
1424 130  3164
1425 772  8380
1426 978  7983
1427 7978 9493
1428 839  7781
1429 4559 2770
1430 5266 2664
1431 402  2920
1432 7507 9835
1433 287  9404
1434 7914 5898
1435 7662 8883
1436 6715 8658
1437 1238 8783
1438 7903 9246
1439 1303 3352
1440 9246 9848
1441 99   8485
1442 7818 9570
1443 8124 5407
1444 792  7837
1445 1331 2771
1446 8437 4695
1447 183  3348
1448 347  3095
1449 7511 5215
1450 8278 5400
1451 479  8615
1452 7824 8329
1453 600  8582
1454 223  2961
1455 678  9155
1456 3804 2402
1457 7625 8330
1458 8326 5762
1459 7986 9227
1460 8345 5865
1461 1296 3463
1462 7328 5312
1463 7780 8243
1464 4341 2555
1465 182  2806
1466 3430 2140
1467 4808 2215
1468 207  3410
1469 8174 5378
1470 4662 1834
1471 7948 8182
1472 25   9161
1473 652  8648
1474 3627 2897
1475 285  9533
1476 5013 2304
1477 390  3270
1478 7434 7631
1479 7657 8612
1480 7069 8238
1481 730  7980
1482 7412 8720
1483 7506 7875
1484 324  2792
1485 4096 2425
1486 965  9137
1487 1226 9197
1488 4705 2491
1489 7930 5655
1490 7987 5071
1491 8020 9308
1492 7697 8301
1493 7788 5173
1494 7281 9606
1495 6939 7598
1496 7888 5022
1497 7650 8021
1498 8183 7613
1499 7804 9782
1500 1654 9203
1501 508  8578
1502 8028 8802
1503 7381 8006
1504 3507 1943
1505 7290 9519
1506 7865 9693
1507 8242 9622
1508 8485 7071
1509 1175 8895
1510 7934 5877
1511 7916 5408
1512 8192 5009
1513 432  3574
1514 8179 7907
1515 5213 3183
1516 7735 5689
1517 7692 8213
1518 7528 9816
1519 7934 8640
1520 262  3014
1521 675  8352
1522 83   3815
1523 687  4067
1524 8052 9441
1525 585  7849
1526 8255 5306
1527 7088 5600
1528 7627 8050
1529 1580 8604
1530 573  8284
1531 7574 8514
1532 7855 9015
1533 9010 8728
1534 4136 2623
1535 4382 2652
1536 8192 5597
1537 428  8726
1538 609  7938
1539 5176 1640
1540 7686 9094
1541 128  3699
1542 244  7966
1543 1089 7781
1544 6876 7343
1545 9016 8813
1546 107  7733
1547 4344 2592
1548 568  3252
1549 4157 3110
1550 7840 9499
1551 7555 8185
1552 7123 9075
1553 7425 7884
1554 870  3270
1555 6732 9107
1556 7822 9978
1557 4460 2333
1558 7948 4380
1559 7814 9786
1560 7592 9861
1561 7454 9397
1562 6903 9169
1563 148  8162
1564 7864 9115
1565 8229 6418
1566 8088 9487
1567 7111 9810
1568 30   2238
1569 584  3696
1570 7328 8296
1571 7706 8172
1572 1147 3543
1573 476  8657
1574 4067 2538
1575 8023 9526
1576 8212 5086
1577 234  2476
1578 569  8480
1579 8806 4098
1580 401  8822
1581 458  9057
1582 4747 2552
1583 7776 5064
1584 7891 9716
1585 8088 5951
1586 852  8219
1587 7814 7945
1588 5436 2532
1589 7988 5461
1590 425  3586
1591 7985 5888
1592 7544 7844
1593 8171 9335
1594 8002 7456
1595 110  9076
1596 761  3043
1597 8183 7440
1598 7570 9671
1599 7926 8324
1600 4596 2759
1601 482  8866
1602 72   8378
1603 3983 2796
1604 4159 2184
1605 9019 5167
1606 7814 9666
1607 7900 8065
1608 7968 5418
1609 8269 9043
1610 7673 7016
1611 9505 9857
1612 4654 2632
1613 269  8396
1614 8469 5263
1615 8049 8166
1616 434  8108
1617 663  3409
1618 7872 4025
1619 8229 8587
1620 8288 8883
1621 484  7983
1622 7558 8479
1623 8353 5502
1624 4473 2652
1625 4336 2532
1626 592  3062
1627 7853 9265
1628 8538 5508
1629 7909 8053
1630 7583 8948
1631 7847 9513
1632 8225 5369
1633 8286 5781
1634 7982 7838
1635 8137 8867
1636 7803 5011
1637 7223 8916
1638 664  8504
1639 426  8151
1640 8279 9447
1641 4619 2920
1642 8042 7533
1643 8408 5014
1644 869  8157
1645 512  3259
1646 214  8706
1647 630  3793
1648 8427 5347
1649 8226 5002
1650 7578 8520
1651 7675 7331
1652 7341 9963
1653 8021 9787
1654 279  3976
1655 8263 9764
1656 7715 7849
1657 688  8399
1658 7820 8011
1659 7980 5238
1660 3567 2234
1661 580  3136
1662 4892 2763
1663 7647 8530
1664 7764 9752
1665 4670 2900
1666 4376 2554
1667 1232 8022
1668 8557 9831
1669 7954 5301
1670 7731 8404
1671 7942 7241
1672 7035 8353
1673 8064 9461
1674 384  8660
1675 4664 2300
1676 6881 9499
1677 8348 9603
1678 7753 9117
1679 5242 1873
1680 5905 8506
1681 8078 5065
1682 6696 8506
1683 8170 9640
1684 4574 2170
1685 4040 3082
1686 3968 3367
1687 9078 8690
1688 8054 7302
1689 556  8144
1690 8406 9535
1691 614  3086
1692 7355 8247
1693 4670 2403
1694 3619 4407
1695 8754 9669
1696 3496 2591
1697 4651 2205
1698 4827 3184
1699 798  8423
1700 18   7114
1701 4389 2697
1702 7364 7909
1703 7935 5230
1704 1303 4098
1705 7107 9148
1706 4578 2501
1707 651  7878
1708 7477 8603
1709 495  2804
1710 5503 2212
1711 8220 5213
1712 3636 1652
1713 7508 7723
1714 8170 9742
1715 7214 9760
1716 7403 8309
1717 6836 9518
1718 993  8290
1719 550  3602
1720 4398 2314
1721 8191 9363
1722 8611 7722
1723 8334 9892
1724 8411 8012
1725 571  2986
1726 525  8532
1727 2268 2924
1728 8814 9463
1729 6910 5266
1730 1112 2237
1731 4561 2985
1732 1078 7131
1733 560  9065
1734 7847 8229
1735 7926 9994
1736 8641 9300
1737 7814 7716
1738 1179 8559
1739 598  7983
1740 7941 5619
1741 704  7633
1742 8224 8645
1743 7683 8592
1744 1213 8324
1745 8026 4902
1746 94   3629
1747 219  3159
1748 8115 9289
1749 7804 9438
1750 7577 4421
1751 492  8825
1752 4678 2880
1753 143  3238
1754 915  3897
1755 7444 6035
1756 1000 8252
1757 7244 7817
1758 7163 7990
1759 3983 2961
1760 352  8693
1761 8234 9386
1762 7113 7990
1763 7990 9299
1764 7997 5391
1765 891  8355
1766 710  9011
1767 5424 2022
1768 365  9506
1769 5172 1944
1770 8027 5071
1771 732  3203
1772 4817 3615
1773 7319 8020
1774 3702 2823
1775 4003 2630
1776 8029 5370
1777 7990 5984
1778 4471 2898
1779 8217 5329
1780 7564 7545
1781 5076 3339
1782 1126 8405
1783 6996 5003
1784 56   3023
1785 7633 7843
1786 909  4008
1787 417  8331
1788 880  8685
1789 4057 2006
1790 584  2860
1791 5677 2276
1792 8009 9027
1793 9312 8626
1794 148  3625
1795 593  8985
1796 591  8176
1797 7775 8235
1798 4828 3025
1799 7571 8819
1800 7920 9116
1801 262  2708
1802 8138 8373
1803 8100 8780
1804 4664 3149
1805 7375 8494
1806 257  3168
1807 7843 4919
1808 3823 1727
1809 4766 2710
1810 8157 5100
1811 7    1093
1812 8357 4858
1813 6203 2846
1814 7733 5964
1815 7456 6952
1816 8141 9524
1817 8866 6245
1818 7889 8369
1819 7608 8288
1820 7833 5163
1821 7589 8145
1822 7    3462
1823 1066 8454
1824 7992 7141
1825 730  8544
1826 7610 9289
1827 4402 3195
1828 7327 7820
1829 499  9081
1830 330  3035
1831 4841 3185
1832 7670 9867
1833 628  7983
1834 6984 8964
1835 8124 9650
1836 4682 2686
1837 7524 9540
1838 8082 9284
1839 1139 9080
1840 7367 8005
1841 9461 8330
1842 5361 3084
1843 4395 3151
1844 6717 8303
1845 8115 9268
1846 283  8598
1847 4495 2892
1848 8765 4753
1849 4388 2844
1850 7973 8938
1851 8318 5154
1852 758  8271
1853 7214 8710
1854 7906 8003
1855 447  3031
1856 8999 9713
1857 8368 6073
1858 8007 5474
1859 7603 9702
1860 7458 8639
1861 7426 9333
1862 7775 9264
1863 7174 8227
1864 6648 5209
1865 4399 1926
1866 356  8515
1867 4169 2789
1868 7647 7566
1869 7590 9268
1870 7411 9485
1871 8221 9114
1872 43   3466
1873 928  7673
1874 8134 5276
1875 3927 2198
1876 716  3212
1877 198  2526
1878 7626 7854
1879 764  2996
1880 8221 5176
1881 7731 7476
1882 4524 2614
1883 4380 2406
1884 7953 5358
1885 4169 2849
1886 3918 2686
1887 8224 7539
1888 7067 8076
1889 411  8179
1890 7708 9142
1891 1291 8221
1892 601  8673
1893 300  3741
1894 4103 2691
1895 726  8178
1896 4124 2049
1897 560  2763
1898 590  8543
1899 918  8312
1900 198  3585
1901 4014 1933
1902 7862 9284
1903 7804 5057
1904 4440 2700
1905 8165 9537
1906 4852 2257
1907 7785 7257
1908 270  3133
1909 4278 2836
1910 1013 4661
1911 7752 5399
1912 9026 4719
1913 8533 5465
1914 7648 5518
1915 7914 5554
1916 8498 5479
1917 4529 1848
1918 7894 9382
1919 8141 4798
1920 8205 8713
1921 263  3702
1922 4426 2428
1923 3966 2630
1924 76   3265
1925 439  8816
1926 7487 8819
1927 7595 7647
1928 7718 9631
1929 1082 8700
1930 308  2856
1931 126  3378
1932 446  8327
1933 7573 7864
1934 431  3322
1935 6930 8138
1936 8086 9474
1937 8375 9631
1938 578  2633
1939 683  8680
1940 7232 8339
1941 695  3549
1942 7975 5401
1943 7869 5110
1944 7288 7700
1945 794  9481
1946 593  8468
1947 8259 7902
1948 8562 9552
1949 337  8504
1950 7931 8817
1951 368  3196
1952 8029 5888
1953 7792 9267
1954 4311 3160
1955 8814 4863
1956 7883 8032
1957 7700 9646
1958 7089 9732
1959 7837 5744
1960 7567 8945
1961 606  8524
1962 7869 9521
1963 7258 7886
1964 690  3031
1965 7972 5490
1966 7906 4769
1967 7570 8412
1968 963  8280
1969 4382 2606
1970 612  8561
1971 145  3444
1972 7577 8013
1973 8250 8300
1974 7615 8028
1975 4473 2749
1976 4120 2632
1977 7768 9959
1978 229  3371
1979 7867 9075
1980 1124 8571
1981 7797 8520
1982 7481 9114
1983 774  8884
1984 59   3600
1985 7377 8323
1986 7333 5921
1987 814  3144
1988 4299 2470
1989 3675 3163
1990 8108 9527
1991 7671 9581
1992 45   8330
1993 193  8193
1994 7647 7903
1995 730  3193
1996 677  8575
1997 8318 5385
1998 7632 8957
1999 4370 1489
2000 3606 2185
2001 4153 3323
2002 7828 9833
2003 8164 5814
2004 8290 5081
2005 7601 5975
2006 8096 5731
2007 7386 5427
2008 4676 2785
2009 7642 5081
2010 8790 9251
2011 712  3022
2012 7529 9440
2013 5224 2585
2014 156  3358
2015 3694 2297
2016 7254 5370
2017 3791 4416
2018 7921 5151
2019 8697 5613
2020 8685 4605
2021 7681 6145
2022 844  8789
2023 7646 8204
2024 3743 2118
2025 8873 5556
2026 7868 4592
2027 156  8669
2028 7878 8651
2029 4212 2815
2030 7735 9218
2031 3921 2324
2032 4919 2130
2033 8772 5702
2034 7996 9067
2035 8116 5282
2036 4482 2654
2037 8034 5630
2038 8013 4847
2039 8337 8633
2040 7531 5395
2041 7468 7779
2042 8440 9790
2043 7087 8889
2044 4660 2624
2045 4741 2361
2046 2    7842
2047 1004 8381
2048 4904 3398
2049 5250 2821
2050 8390 7578
2051 8313 8356
2052 543  8210
2053 8215 5814
2054 8353 8635
2055 674  9771
2056 557  3301
2057 8979 9903
2058 7646 9066
2059 4647 2216
2060 622  8680
2061 4506 1752
2062 7854 9680
2063 7524 7845
2064 7746 9695
2065 671  8805
2066 7662 9281
2067 7495 7877
2068 6627 7058
2069 7995 9310
2070 7986 8181
2071 3439 3227
2072 8216 5533
2073 4509 2717
2074 4436 2723
2075 8742 9030
2076 699  8783
2077 7432 8757
2078 7989 8575
2079 8661 9802
2080 7075 9415
2081 385  3627
2082 537  8547
2083 736  3393
2084 7434 8936
2085 752  3691
2086 3935 1640
2087 7935 9572
2088 7588 8050
2089 7985 5281
2090 771  9054
2091 332  3315
2092 524  8254
2093 465  8537
2094 4279 2701
2095 197  7683
2096 396  8104
2097 7733 7860
2098 1042 8182
2099 2246 3296
2100 8733 5623
2101 4736 1631
2102 4675 3357
2103 6    8049
2104 323  8293
2105 7483 5623
2106 80   3813
2107 682  8868
2108 277  8950
2109 7692 9594
2110 56   3611
2111 7559 8263
2112 7647 8145
2113 4618 2226
2114 7777 5615
2115 7053 8264
2116 5065 3167
2117 59   8732
2118 1249 3393
2119 280  8415
2120 7336 9313
2121 166  3370
2122 6846 8458
2123 4636 2721
2124 7688 4882
2125 8255 9570
2126 3209 2276
2127 4510 2662
2128 4505 2909
2129 803  2656
2130 4389 3207
2131 8511 5498
2132 360  7998
2133 637  7266
2134 8166 7885
2135 7722 4800
2136 4448 3176
2137 7832 9437
2138 7199 7879
2139 7915 9206
2140 8500 5995
2141 7552 8075
2142 7717 9268
2143 7893 9489
2144 8053 9324
2145 8423 5864
2146 578  7665
2147 7764 7629
2148 7968 9718
2149 4653 3009
2150 8034 9545
2151 607  4406
2152 4445 3607
2153 7764 8955
2154 400  3409
2155 7322 7982
2156 6919 8474
2157 7781 5671
2158 362  8710
2159 332  3667
2160 6140 6467
2161 8592 5678
2162 8105 5157
2163 1115 8895
2164 7768 5470
2165 111  8438
2166 8757 6112
2167 7269 8427
2168 4705 1645
2169 2346 4134
2170 4277 2760
2171 5291 2134
2172 3773 2219
2173 7547 7902
2174 7116 9424
2175 7805 8142
2176 882  2984
2177 4939 2160
2178 947  8703
2179 8688 4785
2180 1017 3467
2181 4273 2150
2182 992  8404
2183 8257 5367
2184 762  8796
2185 7464 5684
2186 5016 2409
2187 216  3592
2188 1089 8121
2189 8190 9902
2190 7700 8440
2191 7868 7485
2192 8089 4929
2193 7698 8681
2194 4026 2506
2195 7756 8375
2196 4546 2363
2197 8041 5319
2198 8405 7726
2199 7595 8881
2200 4997 2704
2201 8552 9386
2202 675  9246
2203 4751 2977
2204 8192 9169
2205 7843 9370
2206 8267 9258
2207 7876 6054
2208 259  3491
2209 7521 8652
2210 8337 5313
2211 563  8270
2212 1099 8192
2213 7498 6991
2214 7909 5487
2215 7742 9669
2216 678  8589
2217 247  8644
2218 504  8414
2219 564  3225
2220 299  3467
2221 7800 5426
2222 7767 5437
2223 7855 9375
2224 8276 9258
2225 5773 3847
2226 8113 6159
2227 1112 8403
2228 8342 5307
2229 7935 9872
2230 260  8217
2231 338  3892
2232 7883 8007
2233 7809 7800
2234 1486 9130
2235 7464 8952
2236 7783 8027
2237 7448 5103
2238 6245 9593
2239 4137 2013
2240 4348 3119
2241 1957 4512
2242 4452 2242
2243 694  3167
2244 688  9010
2245 5243 2518
2246 7199 8225
2247 690  3159
2248 8051 9680
2249 7324 7958
2250 7959 7925
2251 1190 9174
2252 410  4742
2253 7854 9736
2254 4325 2622
2255 7617 9141
2256 4190 2420
2257 6773 4444
2258 7751 4903
2259 461  8817
2260 161  3462
2261 564  8584
2262 378  8717
2263 96   3457
2264 8501 9966
2265 7559 7456
2266 1333 8700
2267 1078 8369
2268 8188 5269
2269 7028 4925
2270 4665 2944
2271 7981 9779
2272 7723 4185
2273 33   3073
2274 798  3405
2275 7583 8641
2276 7442 7840
2277 263  3054
2278 7163 8346
2279 400  8837
2280 1047 9727
2281 7300 8531
2282 7895 5482
2283 8257 8080
2284 8141 4699
2285 7572 7961
2286 7759 9428
2287 4736 2291
2288 4022 2362
2289 8374 9786
2290 8281 5708
2291 365  2598
2292 5786 3590
2293 4676 2589
2294 448  8372
2295 8689 5377
2296 4680 2335
2297 188  3267
2298 401  8820
2299 4679 2612
2300 4579 3127
2301 7211 8131
2302 3959 1908
2303 4497 3320
2304 8252 5327
2305 3982 3017
2306 692  8698
2307 7500 7375
2308 7644 8496
2309 1089 8464
2310 3953 2208
2311 8134 5087
2312 6852 5115
2313 7094 6867
2314 5255 2193
2315 3983 2798
2316 7635 7737
2317 694  3208
2318 5126 2833
2319 383  8053
2320 3995 2386
2321 466  3547
2322 4480 3405
2323 7778 7873
2324 8652 4568
2325 391  2756
2326 7166 7863
2327 7507 8628
2328 358  3440
2329 8291 5637
2330 7622 9331
2331 714  8357
2332 242  3865
2333 175  7490
2334 8421 7985
2335 7267 9300
2336 7170 5514
2337 3942 2243
2338 1424 8668
2339 4457 2431
2340 7614 4830
2341 310  8769
2342 4926 3131
2343 176  8843
2344 7668 5206
2345 5105 2439
2346 185  9797
2347 8457 7644
2348 8313 6394
2349 7296 9796
2350 432  8692
2351 7892 9402
2352 239  3318
2353 879  3629
2354 647  8800
2355 7925 5403
2356 7965 5748
2357 181  8093
2358 120  3130
2359 8359 5223
2360 7955 5497
2361 7358 8261
2362 7291 9672
2363 1081 3432
2364 7790 8264
2365 4587 2291
2366 5741 4473
2367 8088 5328
2368 5048 1434
2369 8187 5797
2370 441  3618
2371 202  9015
2372 7419 9827
2373 429  9206
2374 176  8358
2375 8138 9509
2376 174  9035
2377 4569 3390
2378 7221 7894
2379 535  8534
2380 256  3501
2381 4633 2338
2382 7833 9544
2383 8316 7705
2384 1009 8721
2385 848  8455
2386 187  8509
2387 7893 8212
2388 5033 3317
2389 8116 9375
2390 4330 3155
2391 4627 2949
2392 7632 9238
2393 7404 9916
2394 1043 8705
2395 389  3165
2396 53   7992
2397 608  8860
2398 4130 3418
2399 5614 2172
2400 7520 8891
2401 7831 8997
2402 8959 5703
2403 4692 2772
2404 8232 9224
2405 817  8209
2406 288  8347
2407 4148 2869
2408 907  7842
2409 7694 9197
2410 7428 8026
2411 4657 2993
2412 951  3954
2413 4007 1973
2414 4829 2707
2415 7870 7278
2416 8026 5949
2417 552  8800
2418 8351 6192
2419 3083 2019
2420 7608 9455
2421 5168 2938
2422 7948 9227
2423 4606 3283
2424 8243 8663
2425 7336 9871
2426 6791 7331
2427 4    8700
2428 4524 2702
2429 7910 7677
2430 3384 1489
2431 7749 9265
2432 4020 2826
2433 7548 7983
2434 240  3695
2435 4452 2552
2436 8020 9000
2437 7652 9790
2438 1041 3525
2439 4773 3583
2440 6857 7178
2441 730  8296
2442 760  8533
2443 7492 5217
2444 7364 9920
2445 7993 9342
2446 1736 4642
2447 1393 8903
2448 7925 9697
2449 4863 2853
2450 7813 7899
2451 7311 8196
2452 7748 5464
2453 5240 3308
2454 680  8453
2455 4682 3017
2456 5179 1655
2457 8173 5708
2458 8901 6175
2459 118  8375
2460 488  2989
2461 545  2958
2462 7647 8205
2463 399  3463
2464 715  3854
2465 7931 8094
2466 231  8701
2467 7871 4575
2468 7402 9986
2469 8141 9921
2470 8504 9160
2471 7371 9425
2472 359  3704
2473 8040 5556
2474 7682 7980
2475 7719 5451
2476 7979 5331
2477 8151 8985
2478 135  2947
2479 3809 2296
2480 9564 9924
2481 4770 2249
2482 8032 9337
2483 7047 7974
2484 8138 4857
2485 4093 2208
2486 7889 5346
2487 3959 2147
2488 7859 9570
2489 7824 6348
2490 6971 7962
2491 782  8581
2492 8352 8943
2493 7617 5019
2494 789  8669
2495 7960 5666
2496 480  8063
2497 6427 9279
2498 7781 9413
2499 4853 2651
2500 4890 3799
2501 1118 8887
2502 7994 7401
2503 685  3185
2504 8476 5858
2505 4973 2194
2506 6696 8871
2507 357  9335
2508 3613 2597
2509 568  8670
2510 8435 4786
2511 7262 8655
2512 8186 5281
2513 632  8315
2514 201  3624
2515 7564 5287
2516 4787 2906
2517 7942 4419
2518 4495 2173
2519 442  2865
2520 8119 5144
2521 270  3563
2522 8080 8907
2523 466  3491
2524 336  3171
2525 4162 2167
2526 8330 9621
2527 7862 9564
2528 202  8617
2529 7508 9654
2530 7835 5196
2531 425  3388
2532 7440 8129
2533 4076 2629
2534 4714 3502
2535 1122 3148
2536 764  3833
2537 597  3726
2538 6872 7454
2539 995  3439
2540 4020 3084
2541 8518 7795
2542 6921 7956
2543 4821 2171
2544 8014 5497
2545 7925 7294
2546 7127 7811
2547 3789 3345
2548 7168 7754
2549 5077 2386
2550 68   2430
2551 7923 5717
2552 7092 9656
2553 242  3301
2554 147  3377
2555 86   4207
2556 307  3151
2557 561  9656
2558 8461 9960
2559 7425 8071
2560 7295 9012
2561 4931 1594
2562 8471 5133
2563 3326 2680
2564 4417 2584
2565 528  8746
2566 4555 3870
2567 7754 9357
2568 8173 9391
2569 7904 8344
2570 8394 5364
2571 4797 3086
2572 8047 9637
2573 8078 5195
2574 7670 5876
2575 535  8606
2576 4914 2370
2577 8127 8713
2578 4379 3061
2579 7399 8614
2580 734  8426
2581 439  2741
2582 7068 4635
2583 363  2899
2584 603  8279
2585 7977 8289
2586 8384 5465
2587 4524 2284
2588 7652 9421
2589 8409 9678
2590 8048 5261
2591 8445 5509
2592 4820 2638
2593 7781 9576
2594 7723 5252
2595 602  8212
2596 8140 7744
2597 7791 9155
2598 1077 9471
2599 7508 8563
2600 7664 4916
2601 453  8605
2602 8115 5566
2603 8393 5173
2604 7738 9565
2605 4275 2274
2606 7423 9578
2607 445  3537
2608 7513 8158
2609 5135 2745
2610 7967 7923
2611 7719 8031
2612 1036 3550
2613 8326 7098
2614 6146 8347
2615 7921 7655
2616 7835 9542
2617 7857 5964
2618 28   4000
2619 4868 2434
2620 4754 3477
2621 7069 5595
2622 719  8401
2623 4037 2793
2624 8179 5481
2625 431  3682
2626 8020 5503
2627 4330 2226
2628 8879 8297
2629 7756 5569
2630 208  8905
2631 4739 2017
2632 8546 5354
2633 849  2627
2634 6765 8402
2635 7554 4817
2636 7838 9357
2637 7920 8774
2638 7890 5101
2639 194  3952
2640 1581 8792
2641 316  3243
2642 179  3301
2643 5241 2439
2644 7747 5609
2645 8415 5337
2646 4644 2644
2647 5283 3598
2648 7956 4688
2649 831  8540
2650 8107 9517
2651 4428 2223
2652 7852 5268
2653 8238 5394
2654 7842 9699
2655 7525 8245
2656 4014 2901
2657 4801 2620
2658 8487 8074
2659 1397 7953
2660 7808 9155
2661 61   3515
2662 661  8558
2663 8027 5518
2664 417  8836
2665 7590 9588
2666 7088 7808
2667 1048 8275
2668 881  8582
2669 4490 2699
2670 7779 9046
2671 5596 3499
2672 4585 2831
2673 889  8083
2674 7808 5688
2675 4091 2409
2676 4912 3064
2677 7411 8105
2678 551  8550
2679 8103 9336
2680 130  3553
2681 3599 2401
2682 4125 2966
2683 5466 2466
2684 237  3409
2685 7213 5640
2686 4791 2497
2687 451  8272
2688 8029 9486
2689 5309 3204
2690 4511 2730
2691 8137 7367
2692 8149 5587
2693 8136 5102
2694 7585 6008
2695 7469 9219
2696 3959 2588
2697 301  3481
2698 8207 9013
2699 7657 9443
2700 3168 2866
2701 8102 9603
2702 148  3708
2703 427  8312
2704 7802 7879
2705 8755 4892
2706 462  8722
2707 817  8705
2708 8084 5899
2709 974  3470
2710 314  8871
2711 112  3726
2712 7134 8761
2713 4071 3368
2714 7931 7718
2715 1009 8315
2716 4182 3167
2717 7320 8479
2718 7382 7733
2719 6955 8080
2720 7312 8297
2721 528  3006
2722 8216 5328
2723 7490 9516
2724 8045 9204
2725 7714 5073
2726 481  3359
2727 4560 1414
2728 7698 8022
2729 7556 8297
2730 1116 8700
2731 8559 4416
2732 3865 2823
2733 77   3709
2734 7391 8215
2735 4051 3105
2736 6861 7882
2737 7435 8275
2738 222  8077
2739 1208 8436
2740 7986 9377
2741 4087 2855
2742 643  8515
2743 164  8550
2744 8458 7879
2745 770  2856
2746 533  2710
2747 4884 2663
2748 4285 770 
2749 7408 7791
2750 7513 9300
2751 5314 3443
2752 7701 9664
2753 8099 9440
2754 7533 8804
2755 9260 8679
2756 8319 9967
2757 6604 7864
2758 4362 2264
2759 507  2475
2760 555  8181
2761 4611 2439
2762 8573 9328
2763 7667 8767
2764 7411 8039
2765 6830 8377
2766 4695 2938
2767 7306 8122
2768 5074 2933
2769 7011 8218
2770 8222 8600
2771 4607 3210
2772 4529 2600
2773 8041 6644
2774 125  3167
2775 417  3342
2776 395  8663
2777 253  8311
2778 8801 9446
2779 2141 7800
2780 145  3227
2781 4883 2386
2782 7761 7859
2783 976  3774
2784 7733 5084
2785 8134 5237
2786 878  3654
2787 75   4692
2788 4870 3319
2789 7479 8065
2790 8117 9867
2791 8028 5235
2792 4675 2213
2793 9199 5165
2794 7970 9427
2795 7628 8032
2796 7776 8216
2797 7478 8400
2798 8178 4562
2799 7965 6276
2800 410  3462
2801 7695 4278
2802 7696 5232
2803 4900 2140
2804 8042 5374
2805 7360 8244
2806 655  8362
2807 6729 8106
2808 7183 7463
2809 7581 8067
2810 7776 5481
2811 7909 9628
2812 8155 5410
2813 4794 1490
2814 7011 8965
2815 7938 8966
2816 7989 9914
2817 4834 2003
2818 4270 2887
2819 4550 2135
2820 324  8214
2821 6595 7590
2822 1081 9633
2823 1290 3126
2824 1225 7878
2825 576  8765
2826 612  8363
2827 7440 6087
2828 324  8613
2829 4685 3353
2830 5366 2540
2831 44   2227
2832 8121 5101
2833 7451 7985
2834 6864 6927
2835 102  3601
2836 489  8563
2837 6963 8084
2838 843  8390
2839 7981 9645
2840 7705 8301
2841 330  3643
2842 4693 2640
2843 1056 8260
2844 1193 9287
2845 508  8997
2846 7162 7803
2847 437  8597
2848 1033 9076
2849 4852 2686
2850 8329 9450
2851 7788 5566
2852 9187 4006
2853 7883 5586
2854 5450 1635
2855 7443 7814
2856 8492 5356
2857 7926 8272
2858 631  8457
2859 7975 8381
2860 510  8408
2861 7574 9086
2862 600  8190
2863 9208 8946
2864 522  8100
2865 7102 5832
2866 8159 9391
2867 4455 2770
2868 117  2654
2869 7416 7521
2870 7825 8813
2871 467  3243
2872 4116 2192
2873 4182 2553
2874 237  3353
2875 193  9712
2876 7922 5403
2877 8163 7979
2878 8305 9462
2879 171  3476
2880 240  3758
2881 9691 5442
2882 7844 8967
2883 7936 9760
2884 7677 7891
2885 565  3593
2886 303  8903
2887 7837 8699
2888 371  8693
2889 4866 2793
2890 8184 5255
2891 7621 8077
2892 4305 2805
2893 238  2938
2894 1297 3483
2895 1306 8376
2896 9590 9111
2897 8352 5167
2898 1    3340
2899 4194 3218
2900 11   9058
2901 8123 4921
2902 5028 1956
2903 7868 5244
2904 894  8413
2905 7614 5105
2906 7486 9470
2907 7555 7982
2908 4771 2243
2909 8386 5097
2910 254  3266
2911 687  9087
2912 8026 9026
2913 4576 2705
2914 7334 8034
2915 816  3317
2916 1587 3053
2917 4148 2533
2918 8063 7892
2919 7903 9950
2920 6849 8011
2921 6081 8126
2922 7270 8165
2923 3711 2081
2924 415  3804
2925 8650 5320
2926 32   3099
2927 6604 8916
2928 8805 6276
2929 7665 7846
2930 8048 9573
2931 4478 2208
2932 8493 5177
2933 7790 8167
2934 7373 7678
2935 6841 5333
2936 7864 7380
2937 4405 2684
2938 8047 9237
2939 7907 9480
2940 8387 4764
2941 7752 7933
2942 523  8536
2943 8077 5505
2944 845  8919
2945 222  3279
2946 382  1690
2947 7356 8299
2948 7995 9857
2949 8167 5866
2950 8721 7834
2951 4803 2919
2952 199  3325
2953 7715 9659
2954 3555 3470
2955 7335 5513
2956 8465 5445
2957 3845 2538
2958 380  8651
2959 7729 9547
2960 675  4436
2961 4621 3279
2962 4657 2846
2963 6994 8198
2964 7046 8919
2965 4099 3529
2966 8251 5445
2967 1096 8014
2968 8505 6910
2969 3954 2127
2970 118  3217
2971 8128 5651
2972 7439 7808
2973 7435 4704
2974 524  8798
2975 7040 8035
2976 7206 8275
2977 7260 6930
2978 4245 2678
2979 4119 2205
2980 6890 8786
2981 6987 8718
2982 4415 2750
2983 4482 2299
2984 9108 4976
2985 8693 5819
2986 789  8854
2987 7401 7477
2988 7484 8375
2989 7557 8455
2990 390  8757
2991 279  8514
2992 3993 2721
2993 310  8938
2994 7935 7893
2995 738  8571
2996 8533 5267
2997 7358 7643
2998 7396 8042
2999 7779 5730
3000 7766 9506
3001 4795 3918
3002 27   3727
3003 1635 8129
3004 3932 2281
3005 719  3594
3006 862  4011
3007 7895 7875
3008 503  2959
3009 4830 2500
3010 7932 5752
3011 3394 3184
3012 1115 7905
3013 182  3288
3014 338  8985
3015 8595 7815
3016 731  8742
3017 7532 8133
3018 8114 4208
3019 7952 4955
3020 8391 5437
3021 26   3534
3022 7771 7640
3023 7603 4730
3024 4814 1970
3025 885  8764
3026 8636 9571
3027 875  8544
3028 7625 7403
3029 8037 5114
3030 878  8725
3031 1009 8858
3032 7895 7431
3033 323  2117
3034 4535 2756
3035 1237 7854
3036 7348 9400
3037 4490 2503
3038 8101 7569
3039 1276 8117
3040 4600 2489
3041 7433 9886
3042 767  8628
3043 7982 8636
3044 4551 2031
3045 6336 2362
3046 7809 8986
3047 1117 8756
3048 4694 1637
3049 629  3395
3050 4930 3148
3051 4283 2846
3052 7711 7831
3053 7591 8118
3054 503  8397
3055 724  8149
3056 584  2731
3057 8054 7951
3058 356  3728
3059 953  8186
3060 97   3132
3061 8414 9465
3062 1037 8671
3063 7922 5185
3064 303  3596
3065 3659 2277
3066 8389 6150
3067 625  4415
3068 7692 7992
3069 4365 2175
3070 142  3708
3071 705  8120
3072 7047 8832
3073 7585 8599
3074 7945 9291
3075 8118 4658
3076 4179 3078
3077 1113 8287
3078 392  8545
3079 7822 9374
3080 126  2441
3081 7503 8148
3082 46   3335
3083 7610 5495
3084 7145 8732
3085 7626 7474
3086 9820 5140
3087 8536 9364
3088 7881 9485
3089 4572 2738
3090 8085 9371
3091 8111 5849
3092 4445 2421
3093 797  8416
3094 8442 8360
3095 7962 5310
3096 5103 2823
3097 3981 2101
3098 7356 9318
3099 7879 5723
3100 459  3273
3101 455  8685
3102 7806 8125
3103 7693 8604
3104 279  8885
3105 9549 5298
3106 7748 5365
3107 8108 5770
3108 8399 3973
3109 8257 5599
3110 8308 7093
3111 232  3072
3112 4633 2566
3113 4255 2459
3114 4017 2243
3115 753  2774
3116 1603 2822
3117 7883 9324
3118 5184 2231
3119 7930 5074
3120 577  3541
3121 5360 3376
3122 1212 2398
3123 4618 2156
3124 412  3350
3125 8069 9882
3126 7777 9628
3127 7831 8769
3128 8336 5459
3129 8765 9647
3130 5937 2321
3131 282  8217
3132 7706 4562
3133 7654 8750
3134 8652 6248
3135 3420 2340
3136 7865 8753
3137 7316 8213
3138 7601 8043
3139 3807 1837
3140 8460 8542
3141 1519 8612
3142 8151 4920
3143 4403 2900
3144 610  3985
3145 1747 9579
3146 8050 5324
3147 4482 1973
3148 806  8544
3149 4331 2774
3150 8167 5682
3151 5282 2752
3152 94   3185
3153 7468 9156
3154 7684 9578
3155 7783 9146
3156 4580 2163
3157 5247 2038
3158 77   8488
3159 7454 6265
3160 7857 7963
3161 7570 8364
3162 8723 5991
3163 7819 7587
3164 8365 9393
3165 8098 9708
3166 355  3462
3167 6068 1551
3168 4250 3097
3169 7879 9198
3170 8296 8525
3171 7687 4160
3172 7679 7881
3173 6    3466
3174 8059 8964
3175 8051 5987
3176 459  8174
3177 4497 2221
3178 4749 2679
3179 152  8893
3180 1496 7816
3181 4054 2711
3182 9240 4936
3183 8275 8902
3184 8315 5281
3185 7422 9545
3186 484  2811
3187 8013 8262
3188 571  8464
3189 4972 2623
3190 7768 5731
3191 2045 8984
3192 8786 5472
3193 1500 7582
3194 552  3510
3195 6881 8432
3196 7307 9814
3197 8425 8989
3198 6983 9407
3199 7639 8122
3200 347  3263
3201 480  8573
3202 7804 9605
3203 8033 5240
3204 8390 9746
3205 357  3530
3206 4315 3182
3207 205  2414
3208 7607 8374
3209 1719 3151
3210 157  3107
3211 8243 9760
3212 769  8093
3213 7580 5191
3214 8161 5817
3215 210  8652
3216 926  8238
3217 7137 9751
3218 1233 7869
3219 7359 9586
3220 7869 8523
3221 381  3330
3222 7220 7948
3223 169  3163
3224 8276 9378
3225 8368 9347
3226 356  3579
3227 1170 3729
3228 6207 9307
3229 7014 8056
3230 504  8244
3231 8571 5932
3232 356  8506
3233 8005 9172
3234 137  3019
3235 7815 5450
3236 7852 9757
3237 7779 9105
3238 7529 8006
3239 7946 9532
3240 1062 3336
3241 4532 2851
3242 7734 9435
3243 6339 7831
3244 7972 9586
3245 885  9790
3246 8443 5703
3247 750  3695
3248 7575 8047
3249 325  2656
3250 673  8796
3251 1317 8929
3252 4381 2715
3253 7893 5277
3254 627  9004
3255 4968 2055
3256 7507 7853
3257 578  3654
3258 276  3478
3259 594  3193
3260 7725 8195
3261 422  8939
3262 8488 8652
3263 502  8627
3264 7668 9487
3265 3292 1727
3266 8    3350
3267 7783 8691
3268 7886 5807
3269 926  8767
3270 8291 5437
3271 7641 7203
3272 684  3240
3273 1125 8259
3274 7516 9656
3275 7560 7618
3276 482  3828
3277 5756 4431
3278 843  2977
3279 7900 5627
3280 948  3240
3281 4297 2822
3282 4891 1980
3283 3884 1672
3284 8924 5726
3285 715  3935
3286 1744 3490
3287 5202 3386
3288 422  2946
3289 216  8162
3290 7515 9630
3291 7578 7782
3292 1258 8131
3293 9349 6623
3294 6634 6827
3295 504  7621
3296 7362 7764
3297 7858 7793
3298 7785 5329
3299 8565 5362
3300 7851 5610
3301 250  3131
3302 6746 8406
3303 105  7484
3304 4255 2929
3305 480  3020
3306 7048 8126
3307 517  3289
3308 4307 2329
3309 7576 9261
3310 4520 2610
3311 8154 5310
3312 250  3242
3313 499  8889
3314 7854 8666
3315 7391 7806
3316 8145 5134
3317 492  8680
3318 4660 2934
3319 322  8363
3320 488  8543
3321 98   3597
3322 4900 2924
3323 315  2923
3324 8115 9716
3325 4776 2042
3326 7658 9509
3327 7882 9349
3328 87   8063
3329 6874 9466
3330 7879 9586
3331 7465 7287
3332 6783 5676
3333 574  3006
3334 7600 4691
3335 7522 9745
3336 7847 5358
3337 8213 7220
3338 374  3448
3339 7043 7059
3340 8477 9006
3341 4293 4316
3342 177  9520
3343 794  3692
3344 110  8456
3345 4112 2375
3346 1343 8902
3347 8546 8563
3348 821  3413
3349 8089 9831
3350 7844 7991
3351 8334 5231
3352 8207 5351
3353 400  3279
3354 913  3067
3355 8669 4933
3356 7816 7631
3357 8065 8354
3358 7564 6370
3359 625  8616
3360 4755 3113
3361 223  8649
3362 4911 2489
3363 180  3169
3364 4210 3108
3365 8304 4258
3366 869  9261
3367 7314 9959
3368 930  8525
3369 5275 2602
3370 7588 8151
3371 7941 9498
3372 8821 6047
3373 7703 9921
3374 8427 5967
3375 6880 8483
3376 8127 7115
3377 177  3653
3378 7512 9000
3379 7985 5277
3380 4286 2696
3381 422  8256
3382 8354 4554
3383 743  7826
3384 3832 2990
3385 7393 5223
3386 897  3925
3387 8602 9114
3388 7675 8248
3389 1041 2570
3390 4845 3333
3391 7529 9343
3392 8054 4938
3393 4569 2742
3394 7953 9521
3395 148  8268
3396 7355 4665
3397 8097 9006
3398 830  3978
3399 7589 8282
3400 4203 2830
3401 7854 8468
3402 8340 5956
3403 4354 2820
3404 471  8543
3405 7689 9729
3406 624  3260
3407 489  8804
3408 7622 8237
3409 365  3030
3410 7081 5167
3411 574  3549
3412 688  8597
3413 7534 7938
3414 3965 1893
3415 8703 9354
3416 4664 1960
3417 7263 7973
3418 7477 7870
3419 7404 8178
3420 164  1324
3421 7853 8808
3422 6547 9876
3423 4480 3537
3424 4399 2994
3425 7723 9263
3426 682  8544
3427 8215 9741
3428 7117 8256
3429 4032 2209
3430 4574 2380
3431 457  8648
3432 7656 7861
3433 663  8328
3434 295  3426
3435 7591 9962
3436 1937 8343
3437 4467 2359
3438 214  3329
3439 7976 9306
3440 1269 8013
3441 296  2958
3442 650  2917
3443 893  4424
3444 7691 8357
3445 7155 7645
3446 7728 9385
3447 690  8603
3448 4702 2397
3449 8065 9860
3450 643  8104
3451 6928 8182
3452 770  8195
3453 7378 7553
3454 8353 6618
3455 314  8310
3456 828  8956
3457 522  8857
3458 4249 2363
3459 7540 5545
3460 7796 8147
3461 8144 8653
3462 7924 5591
3463 242  3514
3464 7693 5947
3465 776  3060
3466 1881 8544
3467 4805 2319
3468 793  8557
3469 269  3197
3470 4462 2786
3471 8551 9367
3472 7503 9752
3473 8234 9617
3474 4430 3443
3475 4174 2457
3476 554  8108
3477 445  3584
3478 6284 7717
3479 956  8315
3480 8006 9722
3481 4486 2524
3482 193  3109
3483 7893 5444
3484 7661 6727
3485 131  3143
3486 7835 8201
3487 7601 7931
3488 7526 9454
3489 4607 1483
3490 7776 8815
3491 8497 9788
3492 8156 7338
3493 817  8214
3494 4746 1658
3495 8106 8425
3496 8172 8040
3497 7199 7804
3498 4714 2334
3499 4409 2756
3500 452  8334
3501 333  8381
3502 596  8595
3503 180  3813
3504 7337 5509
3505 196  3476
3506 636  9132
3507 5011 2187
3508 653  3093
3509 4732 2525
3510 7597 7790
3511 8022 9221
3512 5103 2406
3513 586  8846
3514 4825 2414
3515 1376 8400
3516 7274 8032
3517 851  8734
3518 8824 5427
3519 6350 2367
3520 1207 4200
3521 8307 8356
3522 4227 2943
3523 7413 9240
3524 7524 8071
3525 1061 3905
3526 7790 9821
3527 521  3552
3528 8145 8422
3529 36   3304
3530 7943 9409
3531 8276 3947
3532 7789 5820
3533 536  3511
3534 1457 9114
3535 8278 5473
3536 4372 2148
3537 7328 8375
3538 8104 5967
3539 8108 5999
3540 8960 8352
3541 805  8880
3542 727  7883
3543 573  8884
3544 572  7599
3545 8104 9169
3546 8402 5672
3547 25   2920
3548 7466 8540
3549 4395 3174
3550 7518 4591
3551 8489 9244
3552 7030 8014
3553 7824 7969
3554 339  7640
3555 6905 8271
3556 82   3742
3557 8047 7952
3558 4291 2363
3559 4361 2028
3560 7932 5221
3561 560  8618
3562 685  8035
3563 316  8891
3564 8367 5737
3565 7488 8265
3566 7320 5417
3567 4455 3054
3568 222  3936
3569 7955 5680
3570 4906 2086
3571 8017 4820
3572 4429 3067
3573 275  8152
3574 7821 5843
3575 7621 5185
3576 1498 7821
3577 7756 5692
3578 7670 8063
3579 4193 2612
3580 1095 2586
3581 7387 8056
3582 7701 8022
3583 7808 6033
3584 7837 5763
3585 568  8673
3586 1064 8604
3587 1610 4509
3588 3248 2034
3589 4222 2616
3590 7784 8270
3591 4161 3331
3592 7419 9499
3593 5461 2171
3594 7499 7208
3595 7712 5331
3596 6650 9212
3597 4230 2553
3598 5002 2414
3599 3705 2127
3600 7836 4940
3601 4212 1969
3602 624  9191
3603 286  8033
3604 8148 5335
3605 1653 4155
3606 6584 8273
3607 8257 9998
3608 996  4973
3609 8439 7617
3610 419  3025
3611 3775 3137
3612 8313 8727
3613 4911 2325
3614 6662 6698
3615 7781 9848
3616 7425 6053
3617 263  8958
3618 7706 7646
3619 8034 8163
3620 7655 9087
3621 824  7873
3622 3763 1866
3623 7967 5152
3624 8013 6211
3625 1395 8167
3626 6548 7644
3627 340  2566
3628 233  3666
3629 8017 7917
3630 4703 2293
3631 4402 3188
3632 7466 8222
3633 7575 8714
3634 420  8017
3635 7545 5952
3636 7763 9911
3637 7344 9203
3638 7136 8510
3639 4383 2601
3640 452  3665
3641 7690 7250
3642 7945 5835
3643 8013 7815
3644 7957 7647
3645 531  8643
3646 574  3268
3647 8175 9747
3648 91   3139
3649 779  7795
3650 478  8472
3651 8017 4997
3652 7995 5409
3653 8129 4887
3654 7317 9782
3655 7555 8203
3656 645  8792
3657 7993 9013
3658 8428 8627
3659 8639 5585
3660 699  8560
3661 7282 8423
3662 7116 8363
3663 107  3800
3664 909  9141
3665 4968 2359
3666 1128 8247
3667 4769 3002
3668 8135 5595
3669 8178 5297
3670 7761 7647
3671 7241 8221
3672 8095 5453
3673 7265 8583
3674 792  8790
3675 6875 7969
3676 8092 5412
3677 311  3400
3678 8162 5152
3679 8557 4444
3680 4191 2395
3681 9529 9358
3682 4512 2658
3683 7486 7969
3684 8315 9391
3685 8288 9099
3686 252  3182
3687 345  3380
3688 7668 5327
3689 8063 9150
3690 7711 8612
3691 8487 5112
3692 7627 9591
3693 914  8797
3694 703  8259
3695 132  3528
3696 348  3383
3697 7880 9716
3698 4667 2698
3699 9767 5532
3700 4375 2157
3701 7897 8169
3702 4145 2660
3703 7523 7928
3704 7858 8247
3705 7664 8127
3706 8245 6912
3707 4719 2850
3708 8060 5194
3709 4514 3231
3710 7914 5420
3711 4712 2740
3712 4913 3743
3713 7590 5698
3714 4611 3024
3715 220  3615
3716 7983 8600
3717 8359 9216
3718 1166 9125
3719 7683 9898
3720 8207 8266
3721 786  8090
3722 656  7931
3723 7605 9956
3724 189  7950
3725 464  8313
3726 123  3433
3727 7705 5174
3728 5392 4973
3729 387  3362
3730 4720 3408
3731 4627 2812
3732 1699 8298
3733 549  3314
3734 4285 2432
3735 7980 5151
3736 8251 9340
3737 5170 3073
3738 103  2825
3739 8293 9705
3740 1769 8128
3741 85   3162
3742 8152 5212
3743 7477 8091
3744 7092 8258
3745 7990 8012
3746 7372 8506
3747 7191 8264
3748 8653 9381
3749 7556 9819
3750 8497 5247
3751 7207 5395
3752 323  2546
3753 249  3425
3754 7281 7767
3755 4934 2577
3756 4861 2607
3757 8168 7598
3758 929  3062
3759 8312 9564
3760 8210 5858
3761 7666 7746
3762 1028 8719
3763 4857 2517
3764 4209 2737
3765 8034 8934
3766 492  2913
3767 6960 8247
3768 8320 9925
3769 8064 7690
3770 7966 6398
3771 4555 2643
3772 674  8615
3773 6889 9050
3774 4399 2850
3775 5427 2727
3776 5363 2425
3777 4847 2888
3778 7934 5188
3779 7422 7748
3780 7878 8080
3781 6605 8589
3782 8117 9814
3783 8113 5345
3784 7416 8579
3785 218  4062
3786 7155 8518
3787 4997 2977
3788 8654 9495
3789 8246 5376
3790 4319 3180
3791 4314 2853
3792 8183 8295
3793 8052 5389
3794 7265 4693
3795 251  3290
3796 8436 5868
3797 4933 2673
3798 4655 2463
3799 7799 9513
3800 528  8821
3801 8250 9651
3802 7153 7817
3803 8095 7832
3804 7578 8049
3805 306  3410
3806 8521 5624
3807 7995 5481
3808 7642 7951
3809 8375 9726
3810 8093 5479
3811 3985 2026
3812 382  8188
3813 8295 7658
3814 8043 4693
3815 7536 5708
3816 6977 8418
3817 7938 9373
3818 7871 6088
3819 8323 5228
3820 8408 9330
3821 4490 2730
3822 7995 9784
3823 4388 2694
3824 455  3373
3825 7783 8999
3826 478  8861
3827 4229 3731
3828 8084 5383
3829 3909 3197
3830 8166 7940
3831 1242 9589
3832 8345 5554
3833 7405 7823
3834 4733 2178
3835 8072 5285
3836 7495 8098
3837 7012 5771
3838 5397 3022
3839 7413 7446
3840 104  9067
3841 360  8693
3842 397  9008
3843 615  3634
3844 3557 3125
3845 507  3554
3846 4177 2734
3847 791  2992
3848 4109 2541
3849 7286 8218
3850 3776 2354
3851 161  3537
3852 8162 5066
3853 269  2982
3854 618  8847
3855 428  2750
3856 4535 2031
3857 145  8919
3858 7421 7556
3859 7863 5421
3860 850  8596
3861 6785 7481
3862 7655 9050
3863 4425 2497
3864 7153 4519
3865 7472 5218
3866 7921 4949
3867 4907 2810
3868 7413 8010
3869 367  4553
3870 5064 2479
3871 4931 2700
3872 7833 4965
3873 7778 5448
3874 1248 8557
3875 470  8751
3876 5775 6214
3877 7111 6108
3878 4519 2518
3879 4483 2884
3880 4775 2708
3881 8368 5670
3882 8424 6094
3883 4326 2428
3884 8018 9765
3885 8276 6751
3886 6826 7603
3887 4746 2553
3888 278  3367
3889 7791 7847
3890 505  7938
3891 101  8055
3892 33   2740
3893 8727 5874
3894 8519 5219
3895 104  3256
3896 7534 7935
3897 16   8453
3898 4732 3305
3899 8133 8788
3900 507  2410
3901 108  2847
3902 7607 9531
3903 678  8602
3904 3232 957 
3905 559  9303
3906 553  8412
3907 4385 2322
3908 6654 8298
3909 8045 5202
3910 4836 1793
3911 7387 9596
3912 4680 2617
3913 4581 2750
3914 8481 5942
3915 8138 5355
3916 4573 2686
3917 89   3864
3918 7230 5256
3919 916  8774
3920 7234 6060
3921 7428 8515
3922 8383 9429
3923 782  8363
3924 4651 2513
3925 5099 2731
3926 8056 8539
3927 544  8684
3928 8549 8718
3929 7795 5807
3930 671  3702
3931 448  3216
3932 8733 9761
3933 7924 8137
3934 7843 5392
3935 8714 9186
3936 7342 8529
3937 638  3226
3938 7779 9706
3939 4565 2653
3940 7898 9636
3941 4636 2304
3942 3202 2959
3943 689  3792
3944 7655 7700
3945 8218 9813
3946 8188 6353
3947 520  9229
3948 88   8549
3949 596  4000
3950 740  9045
3951 7987 7792
3952 6576 5207
3953 820  8394
3954 7585 8232
3955 4607 3021
3956 7640 8712
3957 594  2959
3958 7867 8751
3959 8077 4548
3960 4604 2332
3961 7069 8137
3962 198  3385
3963 7026 5321
3964 4684 2704
3965 7638 9468
3966 560  8971
3967 8326 7593
3968 8088 5277
3969 4535 3039
3970 6864 7007
3971 7576 5041
3972 212  3861
3973 1066 8595
3974 247  3565
3975 4133 2504
3976 7311 7707
3977 737  8662
3978 701  8221
3979 7393 6253
3980 8516 9307
3981 1128 8828
3982 8379 8383
3983 7217 9166
3984 8204 9364
3985 4529 2985
3986 1293 4525
3987 8276 9408
3988 265  3422
3989 257  8038
3990 7389 8569
3991 806  8652
3992 8377 9027
3993 8263 9992
3994 251  3066
3995 603  8408
3996 7    3686
3997 44   3385
3998 4365 2533
3999 4955 2509
4000 271  3229
4001 234  3163
4002 7405 8426
4003 740  8614
4004 340  3455
4005 8151 8573
4006 788  8874
4007 8535 4961
4008 7524 7605
4009 7785 8677
4010 7435 9298
4011 8040 4622
4012 7806 5434
4013 8327 5569
4014 7430 9419
4015 536  8796
4016 8080 7518
4017 7252 6066
4018 1154 4155
4019 267  3210
4020 925  9127
4021 7501 4130
4022 7445 8058
4023 7661 8163
4024 7777 8461
4025 924  8149
4026 7828 4842
4027 522  8367
4028 707  8297
4029 5442 2604
4030 439  8676
4031 3692 2319
4032 8042 7774
4033 7714 8125
4034 419  3020
4035 798  3476
4036 4422 2332
4037 444  3337
4038 514  8468
4039 4700 2421
4040 4434 2758
4041 1803 3617
4042 4963 3101
4043 4333 2304
4044 8275 6089
4045 114  3094
4046 365  8439
4047 7275 5695
4048 318  3900
4049 725  9550
4050 7846 8903
4051 7856 4810
4052 3698 3064
4053 6956 7801
4054 5012 1994
4055 7630 5440
4056 7848 8561
4057 8220 9279
4058 7523 8153
4059 8179 5289
4060 1100 3451
4061 264  3670
4062 7498 9011
4063 6858 9292
4064 7717 7896
4065 5378 2730
4066 628  8413
4067 7647 8662
4068 8079 5309
4069 4590 2240
4070 4549 2428
4071 7568 8807
4072 4678 2931
4073 763  4279
4074 8285 9958
4075 61   3398
4076 7667 9309
4077 8151 8413
4078 7815 5209
4079 7796 7613
4080 7169 7592
4081 7510 7720
4082 7215 7812
4083 8636 9779
4084 7956 9434
4085 1973 4084
4086 5043 2716
4087 7365 7504
4088 7640 7537
4089 7973 5137
4090 810  8845
4091 8275 5328
4092 7135 8367
4093 7113 9157
4094 764  7993
4095 5242 2575
4096 1181 7751
4097 1026 9618
4098 4135 1851
4099 8389 8849
4100 170  8568
4101 366  9142
4102 7943 9845
4103 923  8155
4104 596  7907
4105 259  4244
4106 6155 6711
4107 7851 8410
4108 7893 9285
4109 7821 8596
4110 837  3511
4111 7528 9915
4112 4426 2562
4113 8409 6047
4114 7585 8453
4115 7672 5185
4116 7606 9259
4117 4821 2412
4118 7855 9168
4119 4591 2682
4120 4137 2951
4121 6794 8325
4122 376  3208
4123 56   7730
4124 7900 5352
4125 8099 5205
4126 7221 7404
4127 4894 1842
4128 4271 2757
4129 7859 6773
4130 7654 7507
4131 252  4146
4132 8062 5164
4133 687  8813
4134 7777 4889
4135 7940 7409
4136 7480 7749
4137 3920 2813
4138 8384 5772
4139 6925 5724
4140 7555 8154
4141 4243 2677
4142 382  2799
4143 7094 8343
4144 7839 9075
4145 4652 2298
4146 7647 7877
4147 6804 8161
4148 4551 2643
4149 8115 5698
4150 8175 9479
4151 8219 5227
4152 7674 8170
4153 8131 8923
4154 4720 3231
4155 4469 1627
4156 7796 8611
4157 6204 7945
4158 7763 7746
4159 7946 5230
4160 407  3040
4161 7739 8197
4162 8042 4416
4163 207  3347
4164 1002 8022
4165 4657 2318
4166 4470 2627
4167 7894 9271
4168 6070 6267
4169 530  7844
4170 4846 2445
4171 437  3742
4172 4033 2332
4173 9360 9364
4174 7899 8087
4175 474  3233
4176 235  3400
4177 146  4111
4178 7824 8739
4179 5061 4647
4180 7296 9554
4181 7753 5642
4182 5442 7043
4183 9641 9758
4184 4397 3006
4185 8504 4245
4186 7938 9370
4187 7519 5404
4188 7666 9253
4189 198  2686
4190 7978 9332
4191 7730 9387
4192 7318 9151
4193 7395 7768
4194 7656 8536
4195 249  3166
4196 8106 7275
4197 7685 8112
4198 7102 8506
4199 7456 8013
4200 7859 5220
4201 7312 8943
4202 6429 7748
4203 4988 2713
4204 1036 3048
4205 8258 9436
4206 7823 9474
4207 523  3971
4208 7068 7701
4209 7995 9447
4210 917  3807
4211 7317 4487
4212 7726 5661
4213 415  8481
4214 7662 8863
4215 827  3278
4216 4132 1531
4217 4509 2711
4218 8296 5586
4219 8656 5487
4220 447  4185
4221 8031 8407
4222 8242 5096
4223 4870 2672
4224 7970 9649
4225 547  3960
4226 7947 5386
4227 6571 8689
4228 8307 5587
4229 8622 9776
4230 9528 5402
4231 762  8770
4232 8249 5370
4233 8162 4653
4234 358  8215
4235 8244 9513
4236 8035 5629
4237 6873 7631
4238 7526 6097
4239 8245 9004
4240 8890 9395
4241 3518 1042
4242 171  8816
4243 8096 8672
4244 1143 9367
4245 8176 5633
4246 8348 8162
4247 6917 7604
4248 996  8812
4249 7555 6547
4250 131  8176
4251 5806 3497
4252 7405 5186
4253 4246 2810
4254 7130 7427
4255 4188 2422
4256 4493 2887
4257 7850 9467
4258 4472 2529
4259 8194 5541
4260 7414 7466
4261 3353 2940
4262 7724 6740
4263 369  8554
4264 8340 6014
4265 7985 9279
4266 8368 6036
4267 4092 2438
4268 7341 7830
4269 272  7007
4270 7458 8594
4271 1077 2919
4272 7777 9887
4273 590  2762
4274 7708 9393
4275 1119 8816
4276 1195 8224
4277 327  8292
4278 7512 8163
4279 501  8593
4280 6684 4881
4281 7917 7693
4282 815  8148
4283 4804 2290
4284 816  8424
4285 7583 9073
4286 247  3587
4287 7737 8301
4288 7919 9053
4289 435  8364
4290 4269 1246
4291 937  8402
4292 7725 6560
4293 4374 2243
4294 8550 8361
4295 7444 7833
4296 7278 8784
4297 4662 3002
4298 239  3584
4299 4558 2968
4300 236  3155
4301 126  2794
4302 7546 8446
4303 8553 9586
4304 7864 9281
4305 477  2884
4306 8596 9008
4307 998  8179
4308 4597 2579
4309 3995 2446
4310 7194 7226
4311 4447 2729
4312 205  3494
4313 8869 5556
4314 1476 8408
4315 7736 8448
4316 8643 9518
4317 4862 2395
4318 4522 2790
4319 611  2985
4320 5001 2463
4321 4408 2005
4322 893  3451
4323 8671 5163
4324 8141 6156
4325 7166 7308
4326 407  2261
4327 392  3858
4328 3912 1980
4329 8015 9459
4330 5179 2242
4331 7547 5215
4332 8624 4914
4333 492  4003
4334 7730 8407
4335 8088 5278
4336 5636 2596
4337 495  8284
4338 4786 2128
4339 1000 3045
4340 8207 7727
4341 1271 3353
4342 4561 2728
4343 7519 6884
4344 529  8587
4345 7513 9043
4346 104  3221
4347 524  3480
4348 4650 2738
4349 432  3027
4350 7817 7507
4351 4405 2680
4352 7816 9549
4353 7537 9926
4354 7098 8672
4355 3733 2078
4356 211  2553
4357 8099 9404
4358 8244 7494
4359 7381 7276
4360 315  9078
4361 7027 7765
4362 399  3162
4363 7607 7903
4364 7859 5393
4365 520  8735
4366 682  3513
4367 781  8722
4368 699  7678
4369 7818 5025
4370 7455 9790
4371 6427 8994
4372 414  8953
4373 267  3422
4374 278  3694
4375 153  9760
4376 7853 9618
4377 706  3473
4378 7734 9557
4379 5257 2604
4380 4944 2568
4381 4595 2628
4382 4631 3316
4383 7817 5309
4384 8149 4959
4385 737  8841
4386 7991 5132
4387 8577 9085
4388 803  3835
4389 4982 2531
4390 567  8575
4391 1498 8549
4392 9430 5863
4393 3988 3046
4394 4995 2662
4395 8638 5412
4396 8441 4822
4397 7481 8982
4398 7434 7906
4399 7771 5452
4400 205  3291
4401 419  3432
4402 1420 9131
4403 4632 2634
4404 1213 8848
4405 8597 9152
4406 8049 9697
4407 7570 9926
4408 1094 8346
4409 1025 8609
4410 582  8526
4411 237  8887
4412 308  8473
4413 8075 5630
4414 7700 5089
4415 7786 9145
4416 524  3422
4417 7550 7717
4418 1031 8476
4419 4627 2592
4420 498  9310
4421 8007 5000
4422 8154 5580
4423 396  3272
4424 8123 5568
4425 7482 5432
4426 8606 9647
4427 8254 5655
4428 7716 5850
4429 362  3381
4430 546  8409
4431 8209 9658
4432 8359 9568
4433 703  7911
4434 8115 9350
4435 7979 5150
4436 4751 1432
4437 445  3690
4438 155  3980
4439 1447 8135
4440 5099 3162
4441 7450 9259
4442 6417 9785
4443 679  3057
4444 8330 8605
4445 374  3231
4446 310  8514
4447 8721 7913
4448 5421 2746
4449 8735 8655
4450 340  8925
4451 5294 1548
4452 6571 7854
4453 8699 5448
4454 8255 8362
4455 7915 8999
4456 8112 6150
4457 435  7699
4458 7511 9386
4459 8421 5259
4460 4724 2243
4461 8378 8931
4462 676  4123
4463 8431 5419
4464 340  9139
4465 541  3203
4466 8137 5805
4467 8247 5573
4468 8366 9503
4469 8201 9537
4470 7598 9093
4471 433  8810
4472 4045 2308
4473 3757 1252
4474 226  2986
4475 446  8740
4476 3665 2417
4477 610  9255
4478 77   3393
4479 713  4468
4480 3421 1876
4481 7076 7460
4482 7996 5033
4483 8605 9205
4484 7051 8129
4485 4439 2624
4486 6757 7648
4487 5070 2978
4488 7883 8234
4489 7222 8386
4490 4474 2625
4491 6572 5863
4492 46   3450
4493 8011 9716
4494 7907 8497
4495 200  2842
4496 652  8035
4497 926  8826
4498 9475 9558
4499 7631 8198
4500 7479 5313
4501 747  8536
4502 7218 7862
4503 8224 5269
4504 4711 2800
4505 8522 5984
4506 7540 7951
4507 631  3941
4508 1087 8872
4509 7793 7164
4510 8121 4933
4511 4400 2467
4512 2158 3725
4513 7297 9607
4514 8257 8383
4515 3606 2530
4516 727  2911
4517 8051 7590
4518 787  8807
4519 774  8213
4520 7819 8253
4521 4704 3039
4522 6982 6262
4523 4480 2281
4524 8609 8573
4525 4186 2521
4526 7682 6064
4527 4447 2514
4528 8299 9180
4529 150  3216
4530 398  3503
4531 8744 4945
4532 7815 5474
4533 7534 7965
4534 8511 5340
4535 8743 9838
4536 7963 8948
4537 75   3211
4538 7983 9751
4539 4707 2487
4540 964  2671
4541 880  8022
4542 7693 5106
4543 4363 3131
4544 542  7961
4545 6329 8086
4546 7476 9594
4547 9056 9530
4548 4457 2817
4549 4843 3560
4550 293  8209
4551 954  8279
4552 7945 9353
4553 7857 8321
4554 8077 6864
4555 924  8597
4556 7519 8086
4557 8306 4755
4558 8143 4840
4559 3793 2327
4560 355  3389
4561 7862 7585
4562 295  3549
4563 4556 3106
4564 8105 5281
4565 3401 2039
4566 8222 5617
4567 7503 7943
4568 5260 1847
4569 270  8168
4570 149  3289
4571 7652 9764
4572 7416 5338
4573 5674 2904
4574 4314 2674
4575 7873 5464
4576 3894 2551
4577 715  3657
4578 7560 7722
4579 8089 5196
4580 7859 8334
4581 7891 7640
4582 390  8832
4583 7784 9243
4584 4400 2706
4585 7523 7845
4586 561  3516
4587 960  3822
4588 4681 2472
4589 475  4070
4590 4840 3508
4591 7991 4521
4592 4656 2202
4593 7644 9400
4594 198  3325
4595 4629 2785
4596 234  8627
4597 4752 2588
4598 8421 4889
4599 1298 8061
4600 5227 1850
4601 4796 2277
4602 7344 4870
4603 8136 9913
4604 8359 8815
4605 7563 7112
4606 1013 8374
4607 8106 5453
4608 7948 7770
4609 7663 4768
4610 7576 9382
4611 4729 1799
4612 1192 8723
4613 5026 2361
4614 7366 7510
4615 7713 5244
4616 8550 5329
4617 671  8587
4618 8243 9587
4619 8106 9735
4620 575  8431
4621 430  3073
4622 529  9049
4623 7657 8913
4624 7940 5638
4625 475  8550
4626 4360 2665
4627 5670 3235
4628 5556 3527
4629 4733 2114
4630 7671 8257
4631 7527 5268
4632 4546 2599
4633 971  8272
4634 7984 9584
4635 7343 7405
4636 7854 9386
4637 571  8967
4638 1230 8794
4639 7637 7973
4640 8155 5928
4641 681  2904
4642 1229 3839
4643 8005 5130
4644 7496 7970
4645 7670 4823
4646 7705 9599
4647 7600 5172
4648 4489 1919
4649 422  4044
4650 5984 3486
4651 4434 3006
4652 6758 7280
4653 8273 5564
4654 7280 8254
4655 7865 7333
4656 148  3488
4657 3802 2533
4658 4611 2621
4659 7745 5568
4660 7349 8173
4661 8409 5360
4662 270  3262
4663 7483 7576
4664 7333 5905
4665 7565 9060
4666 7403 8265
4667 7991 9686
4668 7971 5158
4669 1361 7972
4670 4688 2502
4671 3743 2610
4672 7558 9862
4673 7818 7865
4674 5270 3209
4675 346  3526
4676 8155 5155
4677 7444 7511
4678 175  8278
4679 7813 8010
4680 7719 9632
4681 8418 8897
4682 8277 9380
4683 8742 5113
4684 8122 5342
4685 4279 2956
4686 9586 7829
4687 5026 2171
4688 4512 2557
4689 7759 9146
4690 145  2415
4691 4158 2843
4692 4855 2794
4693 620  8653
4694 7460 7940
4695 4882 2650
4696 466  8061
4697 6666 7790
4698 7729 8310
4699 346  3211
4700 396  2935
4701 126  9351
4702 785  8369
4703 7955 9086
4704 1265 7816
4705 8305 8531
4706 126  3433
4707 265  8227
4708 4087 852 
4709 249  2861
4710 7972 9773
4711 4313 3041
4712 9251 9169
4713 7818 5131
4714 5097 2017
4715 8581 5104
4716 7511 7985
4717 896  8703
4718 4148 2884
4719 8170 5014
4720 7731 9010
4721 7860 8492
4722 6405 8778
4723 7552 8046
4724 716  8377
4725 7775 9583
4726 7968 5383
4727 1662 7824
4728 8382 9573
4729 286  3550
4730 7749 9536
4731 784  8627
4732 246  3551
4733 536  8798
4734 4218 2587
4735 733  4392
4736 4500 2755
4737 7782 7932
4738 4096 2861
4739 7604 8448
4740 519  3333
4741 144  2861
4742 7586 7475
4743 8193 8342
4744 4584 1995
4745 99   8810
4746 7911 8934
4747 7784 6271
4748 8528 5211
4749 958  3877
4750 477  3032
4751 4714 3197
4752 497  8283
4753 4397 4031
4754 7834 7931
4755 388  3218
4756 7790 7641
4757 887  8419
4758 8373 5258
4759 7683 9095
4760 8068 9761
4761 1547 8339
4762 6158 8982
4763 678  2995
4764 447  3502
4765 7625 7459
4766 7633 9507
4767 3706 3178
4768 4422 2127
4769 634  3602
4770 4696 2140
4771 363  3305
4772 8569 9094
4773 655  8508
4774 7689 6288
4775 81   2924
4776 7967 9500
4777 4190 3376
4778 1960 9138
4779 7182 7650
4780 7793 5169
4781 8794 4236
4782 7695 6683
4783 7103 8297
4784 764  3517
4785 556  3065
4786 4544 2693
4787 7338 7226
4788 7435 9112
4789 4653 2750
4790 7429 5309
4791 218  3284
4792 802  2312
4793 3815 2726
4794 4032 909 
4795 121  2439
4796 7754 7566
4797 7282 8198
4798 7496 5522
4799 7467 9486
4800 7979 5452
4801 3832 3114
4802 7586 8083
4803 7388 9808
4804 8534 5499
4805 7611 8239
4806 8005 9229
4807 7644 6024
4808 708  8528
4809 692  8423
4810 1070 8290
4811 8350 6093
4812 425  7386
4813 8142 9433
4814 8432 8616
4815 8000 8876
4816 7765 7754
4817 6733 6089
4818 7677 8196
4819 7682 9326
4820 8680 4793
4821 8215 6332
4822 8090 5795
4823 4281 2412
4824 7262 8363
4825 244  2986
4826 7274 5615
4827 7118 5217
4828 7121 7644
4829 6950 9628
4830 7871 9646
4831 1469 7883
4832 8734 4735
4833 7021 9107
4834 7043 8817
4835 7045 8989
4836 7995 7828
4837 489  8430
4838 951  8668
4839 7695 9660
4840 180  2919
4841 599  8480
4842 7310 9024
4843 6878 4517
4844 8627 8151
4845 8365 5802
4846 7484 4957
4847 4460 2426
4848 319  3076
4849 4279 2774
4850 1022 9556
4851 8817 9695
4852 736  2854
4853 4559 2118
4854 899  2236
4855 849  8026
4856 8309 5479
4857 7664 7981
4858 536  3197
4859 7874 9715
4860 4692 3103
4861 8966 6241
4862 8399 5514
4863 5595 2282
4864 1010 9702
4865 3822 2490
4866 826  3466
4867 175  3151
4868 6343 7234
4869 7481 4983
4870 7911 6377
4871 8697 8733
4872 7226 8225
4873 8331 5374
4874 682  4312
4875 487  2942
4876 8040 5245
4877 4478 2527
4878 483  3366
4879 748  9227
4880 8080 5529
4881 255  8323
4882 509  8611
4883 318  3557
4884 1130 8575
4885 221  2278
4886 8123 5946
4887 7922 4909
4888 7949 9474
4889 7278 9342
4890 956  8533
4891 7949 8017
4892 7874 7491
4893 729  8789
4894 65   3851
4895 7443 7905
4896 7807 5418
4897 5083 3414
4898 8113 9610
4899 7487 9299
4900 340  3394
4901 7930 5942
4902 3991 2839
4903 1099 1475
4904 7552 8103
4905 150  9736
4906 8101 5408
4907 308  3400
4908 7486 8243
4909 4553 1944
4910 523  8914
4911 7817 7974
4912 533  8367
4913 7180 4891
4914 568  8632
4915 7923 9687
4916 4074 3165
4917 4562 3093
4918 7756 4425
4919 7816 5497
4920 7563 8586
4921 243  3376
4922 7126 9100
4923 3948 2413
4924 842  2969
4925 967  3667
4926 8247 5838
4927 195  3305
4928 7043 7036
4929 87   3023
4930 7456 8511
4931 8896 5828
4932 7780 7157
4933 4365 3476
4934 7940 8193
4935 206  3799
4936 4580 3392
4937 444  8529
4938 7839 9289
4939 4340 2200
4940 7892 5282
4941 4550 2844
4942 8245 8712
4943 6585 7662
4944 8129 9033
4945 32   2633
4946 8250 5040
4947 4427 2840
4948 282  2758
4949 689  9056
4950 7770 9212
4951 4425 2391
4952 7648 5361
4953 7954 9501
4954 4113 3190
4955 8403 9332
4956 214  3075
4957 138  8927
4958 300  3233
4959 4436 3064
4960 312  3419
4961 4379 2387
4962 7522 8000
4963 7546 8830
4964 106  9338
4965 8255 4259
4966 4305 3151
4967 1550 7248
4968 8082 9305
4969 8114 6020
4970 853  8169
4971 4362 2613
4972 5336 3159
4973 4629 2641
4974 587  8435
4975 18   8874
4976 4306 2966
4977 312  3991
4978 248  8544
4979 8050 5387
4980 857  4073
4981 8259 5452
4982 8070 9473
4983 7666 5267
4984 4091 2761
4985 8467 4137
4986 7448 4861
4987 188  3671
4988 4038 3647
4989 939  8544
4990 8135 5619
4991 4156 2484
4992 8010 8352
4993 7647 5342
4994 760  3157
4995 8294 8068
4996 8216 9309
4997 4508 2792
4998 7475 6373
4999 8191 5453
5000 5156 2552
5001 8068 5461
5002 7693 9620
5003 8634 5263
5004 7779 9711
5005 3    3628
5006 127  3364
5007 8099 5792
5008 7812 5262
5009 4494 2438
5010 8443 8400
5011 8015 8065
5012 426  3284
5013 348  3994
5014 7507 7969
5015 7312 5549
5016 6884 8416
5017 7110 9574
5018 340  7618
5019 7681 5553
5020 1035 4628
5021 1922 8620
5022 8475 5247
5023 4737 2718
5024 7745 7724
5025 4605 3156
5026 8137 6633
5027 680  8394
5028 7792 5014
5029 450  4128
5030 8974 5402
5031 7991 8722
5032 7514 7887
5033 8094 5537
5034 263  9112
5035 485  8984
5036 8505 5319
5037 5850 7752
5038 574  3871
5039 4434 2450
5040 8099 5594
5041 869  7964
5042 7463 5416
5043 373  2990
5044 190  2732
5045 8381 5361
5046 302  4670
5047 7814 8459
5048 8148 6005
5049 7493 8474
5050 34   8015
5051 535  8486
5052 437  3378
5053 7748 9470
5054 7746 7846
5055 5092 2281
5056 7664 8317
5057 594  8519
5058 4587 2671
5059 487  8278
5060 7532 8380
5061 4298 2582
5062 7922 4834
5063 7541 5756
5064 802  8459
5065 8371 8219
5066 8140 8888
5067 6733 6324
5068 8075 9657
5069 908  8201
5070 8099 8923
5071 7849 9422
5072 4440 2333
5073 7280 4669
5074 7768 9146
5075 178  3482
5076 374  2919
5077 763  2948
5078 516  3106
5079 817  8274
5080 7827 8348
5081 7315 8304
5082 7888 9448
5083 3965 2518
5084 7593 9770
5085 5069 2908
5086 513  9340
5087 7583 9603
5088 7439 7822
5089 698  2095
5090 4944 2570
5091 4208 1898
5092 7063 9553
5093 7522 4959
5094 4442 2976
5095 8092 5463
5096 4299 2921
5097 450  8511
5098 8071 8421
5099 7668 8072
5100 693  3633
5101 283  3676
5102 7783 4553
5103 78   3499
5104 1270 3309
5105 87   3243
5106 7861 9532
5107 416  8529
5108 566  8371
5109 329  3187
5110 8218 7923
5111 276  3221
5112 7525 7730
5113 4428 3199
5114 7589 7834
5115 7681 9244
5116 212  2739
5117 275  8436
5118 135  3227
5119 808  8800
5120 243  3876
5121 4920 2874
5122 667  3014
5123 7104 8012
5124 4310 2586
5125 6916 9402
5126 1057 8307
5127 4031 2370
5128 488  3441
5129 3971 2458
5130 754  8567
5131 188  2642
5132 307  3504
5133 4889 2418
5134 7852 5229
5135 7390 7912
5136 353  3378
5137 7961 9147
5138 7125 5296
5139 7286 7612
5140 7479 4710
5141 7391 8265
5142 4067 2324
5143 323  8370
5144 5030 2808
5145 187  3592
5146 517  9142
5147 8220 7692
5148 5174 3519
5149 7383 5874
5150 8539 9336
5151 8336 7112
5152 773  8557
5153 8070 9534
5154 4659 2575
5155 4100 2839
5156 4356 2489
5157 802  8495
5158 155  3647
5159 6981 8188
5160 7482 9862
5161 6937 5705
5162 277  8569
5163 7802 8245
5164 8276 9302
5165 173  8248
5166 230  8619
5167 4688 2664
5168 7897 5388
5169 4490 2738
5170 699  8592
5171 7473 7704
5172 987  8605
5173 4703 3036
5174 353  3800
5175 5551 2399
5176 8055 5481
5177 8332 7072
5178 972  8583
5179 8013 9540
5180 4095 1872
5181 7773 5568
5182 6662 8414
5183 3883 1888
5184 7698 9264
5185 8450 6346
5186 8164 4534
5187 416  8607
5188 6234 6954
5189 95   2270
5190 4034 3155
5191 6013 1875
5192 7867 6165
5193 87   8395
5194 7494 8636
5195 67   3693
5196 7645 7987
5197 7701 8380
5198 7582 9671
5199 8124 5482
5200 8445 9568
5201 4498 2343
5202 7708 5429
5203 455  8389
5204 745  8723
5205 161  3371
5206 38   3723
5207 1636 3355
5208 1058 9271
5209 7305 5680
5210 5809 3139
5211 8099 9948
5212 232  3432
5213 8151 5548
5214 8771 6074
5215 196  7679
5216 1059 8559
5217 86   3106
5218 4061 2034
5219 281  3231
5220 8347 4879
5221 8512 5266
5222 8508 8853
5223 67   3271
5224 8246 7498
5225 397  8255
5226 7210 8141
5227 5517 1969
5228 7244 7944
5229 7615 4774
5230 6291 3122
5231 8782 9023
5232 166  3335
5233 494  8389
5234 8337 5249
5235 210  3047
5236 4422 2676
5237 7699 8527
5238 8361 5131
5239 3770 3300
5240 8149 6091
5241 6957 8137
5242 15   2491
5243 5215 2675
5244 6934 9903
5245 819  3577
5246 8166 9474
5247 8527 9832
5248 148  7603
5249 7785 4703
5250 7501 5438
5251 105  9618
5252 7852 9783
5253 446  8586
5254 7414 5469
5255 8083 6379
5256 7636 8144
5257 8505 9098
5258 7794 5024
5259 8375 5232
5260 4259 2999
5261 163  8427
5262 4208 1748
5263 4862 2918
5264 609  8472
5265 1583 8534
5266 8571 5589
5267 247  3753
5268 6886 8024
5269 77   8371
5270 90   3859
5271 8008 8324
5272 4969 2953
5273 7836 9558
5274 6547 8238
5275 4813 2824
5276 7622 6234
5277 4448 2459
5278 254  8148
5279 7090 7662
5280 4610 2209
5281 3601 2325
5282 4741 2933
5283 323  3293
5284 87   8653
5285 8061 5328
5286 161  3383
5287 7413 8022
5288 4211 2845
5289 8213 5480
5290 7905 9042
5291 4327 2707
5292 7996 8207
5293 1525 8996
5294 4578 2220
5295 619  7963
5296 7185 8772
5297 7637 8883
5298 8231 5236
5299 8053 5326
5300 354  3251
5301 8034 9907
5302 256  3316
5303 4695 3100
5304 8074 8784
5305 8158 5515
5306 764  8565
5307 7459 8220
5308 7789 5448
5309 8299 7886
5310 8003 9359
5311 3898 1781
5312 6762 9899
5313 8486 5149
5314 7517 8895
5315 936  8885
5316 8153 7769
5317 4983 3010
5318 7542 8420
5319 7747 8050
5320 8317 5499
5321 687  7501
5322 195  3936
5323 4317 3689
5324 539  3059
5325 7632 9307
5326 818  8213
5327 8471 9798
5328 8550 9669
5329 5078 2051
5330 7464 8280
5331 7450 5833
5332 7906 9398
5333 7158 7741
5334 511  8601
5335 8228 9688
5336 7254 7484
5337 8442 8138
5338 4476 2496
5339 11   9235
5340 7477 7744
5341 7998 8553
5342 7993 4953
5343 346  3817
5344 8362 9096
5345 320  8512
5346 7927 5558
5347 606  8546
5348 4625 2539
5349 146  8388
5350 7157 7977
5351 5360 1952
5352 7371 8012
5353 457  8506
5354 6963 9416
5355 7379 5288
5356 473  7097
5357 436  7723
5358 8486 4864
5359 7794 8487
5360 7738 7208
5361 314  8708
5362 436  2963
5363 7672 8161
5364 4367 2348
5365 4866 3229
5366 432  8534
5367 7554 9250
5368 7203 5157
5369 1429 7323
5370 1219 3575
5371 36   3258
5372 214  3261
5373 7549 9966
5374 2696 7440
5375 8495 5293
5376 7942 5501
5377 779  8606
5378 8033 5165
5379 48   9086
5380 621  8303
5381 7944 5674
5382 805  8910
5383 7391 8374
5384 4548 2359
5385 8640 7568
5386 7240 5404
5387 949  4395
5388 7690 7549
5389 7513 9142
5390 3827 2676
5391 9152 9145
5392 4387 2280
5393 408  3757
5394 7664 8431
5395 5789 2600
5396 7329 7760
5397 8573 4246
5398 8199 8676
5399 4743 2373
5400 4471 2756
5401 7726 9489
5402 7665 7946
5403 247  3260
5404 7608 7803
5405 147  3938
5406 8178 5576
5407 4432 2035
5408 4051 1921
5409 548  9035
5410 684  3842
5411 7949 5548
5412 8577 8630
5413 1072 4727
5414 7803 5222
5415 4943 2949
5416 6928 8607
5417 6782 9422
5418 112  3294
5419 4822 2490
5420 63   9178
5421 8355 5608
5422 4460 2591
5423 707  2857
5424 7733 3588
5425 550  8246
5426 7825 4845
5427 4603 2761
5428 8585 9754
5429 4474 2902
5430 4438 2789
5431 4803 2472
5432 634  8446
5433 7924 6351
5434 4750 2536
5435 591  3217
5436 901  4035
5437 8813 7638
5438 45   8920
5439 8392 5185
5440 8259 8567
5441 746  8807
5442 7845 9560
5443 7817 6044
5444 3585 2543
5445 7945 8798
5446 7908 6530
5447 7958 5567
5448 618  3228
5449 212  2637
5450 4552 3566
5451 4752 2059
5452 7261 8476
5453 7194 8535
5454 8163 9056
5455 686  9080
5456 7198 8605
5457 7799 5760
5458 6457 5263
5459 3556 1941
5460 942  7703
5461 977  9201
5462 8314 9583
5463 7910 5202
5464 291  8599
5465 240  2076
5466 689  8248
5467 7763 5536
5468 7562 5718
5469 993  9090
5470 8261 5636
5471 5051 2388
5472 6771 8179
5473 6975 9351
5474 7203 8266
5475 6673 7806
5476 9162 9295
5477 1216 8614
5478 4486 2617
5479 7981 9565
5480 465  8378
5481 502  3722
5482 372  3483
5483 8248 8063
5484 806  3718
5485 171  8680
5486 7582 8253
5487 66   3105
5488 7221 8713
5489 324  8858
5490 980  9165
5491 7331 9826
5492 8276 5688
5493 437  8662
5494 7405 4794
5495 4465 2111
5496 7783 4938
5497 440  9067
5498 7475 5320
5499 7433 9825
5500 8482 6185
5501 840  8652
5502 6906 9751
5503 6887 6829
5504 7531 5117
5505 4820 2666
5506 7340 9124
5507 523  3628
5508 7570 9121
5509 596  8726
5510 4613 2648
5511 593  8748
5512 7733 6763
5513 3553 2091
5514 4654 2647
5515 305  8626
5516 6923 9226
5517 7970 5702
5518 276  3446
5519 8021 5408
5520 846  8307
5521 7248 8489
5522 8885 5591
5523 4535 2312
5524 7804 8406
5525 4494 2508
5526 782  9089
5527 342  3486
5528 264  8622
5529 373  3163
5530 8661 7649
5531 244  2996
5532 115  3108
5533 781  7600
5534 9206 8036
5535 4721 1932
5536 5443 2045
5537 8277 5133
5538 726  7956
5539 7731 8105
5540 7639 9526
5541 8621 3908
5542 1015 2966
5543 7777 8719
5544 4060 2050
5545 4092 3284
5546 8635 7717
5547 267  3609
5548 7403 8211
5549 913  8818
5550 7137 4149
5551 701  8605
5552 4561 2857
5553 568  3163
5554 404  7873
5555 747  8541
5556 5600 3142
5557 490  8398
5558 3552 1840
5559 7865 5078
5560 317  8197
5561 4533 1560
5562 7965 7632
5563 7571 4776
5564 7879 8660
5565 1419 2847
5566 5019 4013
5567 7525 9198
5568 240  8301
5569 642  9371
5570 4434 2282
5571 6898 8800
5572 4463 2285
5573 142  3583
5574 853  8597
5575 8230 5383
5576 3851 1957
5577 8255 9618
5578 8112 4990
5579 339  2970
5580 4365 4537
5581 7587 9470
5582 216  8015
5583 8533 4873
5584 433  3674
5585 7944 6063
5586 369  3976
5587 294  8466
5588 4869 2214
5589 4355 2592
5590 8565 9756
5591 694  3034
5592 7503 6997
5593 4746 2227
5594 7591 5209
5595 6957 8136
5596 8183 9882
5597 7890 9247
5598 7933 9551
5599 636  3845
5600 7906 8176
5601 6050 1522
5602 8358 9418
5603 7947 7971
5604 7975 5252
5605 7159 8213
5606 542  3365
5607 4609 3303
5608 510  8356
5609 719  3411
5610 7918 4759
5611 7436 9039
5612 452  8293
5613 258  3531
5614 5024 2598
5615 7652 7863
5616 451  3526
5617 7874 5391
5618 8047 8718
5619 584  8395
5620 913  8321
5621 935  8542
5622 8272 9493
5623 919  8367
5624 377  8278
5625 485  8413
5626 7904 9212
5627 8159 9702
5628 8008 5272
5629 5278 3159
5630 400  8314
5631 7286 8223
5632 7914 9224
5633 601  8528
5634 4317 2621
5635 7391 6823
5636 6352 6089
5637 4025 2584
5638 2458 2934
5639 7882 5455
5640 7598 9356
5641 137  8272
5642 4393 2718
5643 4866 2700
5644 584  8839
5645 114  3275
5646 7376 8332
5647 7382 7934
5648 201  3264
5649 1367 8447
5650 726  4430
5651 7972 4855
5652 6289 9059
5653 3551 2562
5654 50   2866
5655 506  3792
5656 4483 2874
5657 8770 5595
5658 7553 9279
5659 42   3486
5660 5223 2189
5661 8324 5434
5662 8993 6344
5663 4516 2138
5664 201  8638
5665 8046 5582
5666 4017 3707
5667 14   3447
5668 4690 2484
5669 1151 9057
5670 8179 7432
5671 7451 9821
5672 986  8795
5673 6747 8590
5674 362  3577
5675 5866 2098
5676 4192 2636
5677 7565 8594
5678 8526 8235
5679 4428 2287
5680 4794 2945
5681 428  3712
5682 7956 8031
5683 8025 5235
5684 7931 5068
5685 536  8218
5686 7897 4812
5687 7484 9999
5688 455  2949
5689 8484 5177
5690 7202 8248
5691 5458 2347
5692 4882 2839
5693 311  3774
5694 7674 7630
5695 8128 9498
5696 7598 8196
5697 7628 7450
5698 7083 7950
5699 7781 9595
5700 8630 5345
5701 4282 2822
5702 7814 5562
5703 4405 2483
5704 1467 7744
5705 8264 5430
5706 8803 9290
5707 1405 8619
5708 583  3556
5709 563  3311
5710 7928 9621
5711 6990 9660
5712 267  3463
5713 7717 9355
5714 7313 7936
5715 8661 6946
5716 7193 9703
5717 500  7754
5718 234  3477
5719 7958 5831
5720 7402 9175
5721 3901 2713
5722 8068 9716
5723 538  4025
5724 7545 5271
5725 7986 7853
5726 7319 6864
5727 542  8352
5728 7749 9355
5729 4799 1779
5730 873  2934
5731 7312 7127
5732 7974 6105
5733 8300 5828
5734 7266 9059
5735 7668 8883
5736 7887 5417
5737 906  8407
5738 7795 5953
5739 7362 9486
5740 7640 9364
5741 5089 1919
5742 7747 8557
5743 1495 9718
5744 1061 8280
5745 8110 5243
5746 2023 2565
5747 109  8679
5748 935  3708
5749 7586 5336
5750 8361 9459
5751 7396 8062
5752 5403 1979
5753 5466 2889
5754 8267 5437
5755 4016 2144
5756 8190 9797
5757 7705 7988
5758 90   8080
5759 7188 8559
5760 23   2968
5761 665  3702
5762 7417 7901
5763 7324 9617
5764 8091 6008
5765 4353 2669
5766 701  8502
5767 8388 5911
5768 7862 7833
5769 418  3145
5770 7879 8493
5771 365  7749
5772 7785 5193
5773 1257 2443
5774 493  8583
5775 7528 9563
5776 8165 5310
5777 4905 2555
5778 7258 5571
5779 8395 4765
5780 7872 8070
5781 1150 2801
5782 8728 7736
5783 8121 9371
5784 254  8485
5785 7408 8308
5786 4713 2739
5787 351  8479
5788 7954 5985
5789 7612 8294
5790 7408 4966
5791 8612 9423
5792 510  8194
5793 5285 3090
5794 204  3686
5795 697  3098
5796 415  3096
5797 490  3163
5798 8250 8138
5799 4958 3198
5800 598  3206
5801 7262 6148
5802 7471 5903
5803 7437 8107
5804 7477 6350
5805 240  3078
5806 7880 8534
5807 8280 8400
5808 436  8541
5809 8657 5528
5810 7076 8857
5811 8264 5458
5812 7545 7732
5813 5102 2856
5814 210  2401
5815 192  4480
5816 7445 8341
5817 1415 8570
5818 6754 9394
5819 4660 2562
5820 6736 8675
5821 7496 8178
5822 701  3598
5823 7507 7905
5824 4001 2974
5825 4538 2681
5826 320  2875
5827 4494 2545
5828 7197 8726
5829 7019 5217
5830 8115 9145
5831 7803 9472
5832 4608 1558
5833 7468 8655
5834 4815 2317
5835 7894 8983
5836 8320 5359
5837 8058 9150
5838 4435 2681
5839 651  7739
5840 1016 2837
5841 8344 9629
5842 4699 1397
5843 495  9001
5844 612  8245
5845 7541 8364
5846 4592 2930
5847 3691 2274
5848 7884 5383
5849 7935 9655
5850 8292 5748
5851 401  9435
5852 479  8476
5853 562  8704
5854 7914 9064
5855 6717 8102
5856 229  3312
5857 7071 8965
5858 1521 4280
5859 7931 8273
5860 4592 3503
5861 4029 3512
5862 4667 2527
5863 7616 5111
5864 6947 8856
5865 7572 8333
5866 7701 9282
5867 4462 2744
5868 388  3063
5869 130  8662
5870 1567 8344
5871 4858 2513
5872 7557 8092
5873 654  3074
5874 7600 9037
5875 7991 9881
5876 8874 7618
5877 599  3449
5878 8201 5019
5879 4126 2746
5880 627  8595
5881 7646 8366
5882 7899 5458
5883 7837 7925
5884 371  3363
5885 4753 2617
5886 7811 5297
5887 7729 9073
5888 217  2845
5889 857  8459
5890 249  2751
5891 1232 9571
5892 6087 1197
5893 7803 5125
5894 8063 9443
5895 417  8701
5896 806  8399
5897 7345 9318
5898 8162 7880
5899 4466 1902
5900 8025 5735
5901 7472 8085
5902 4283 2661
5903 7217 8250
5904 4556 2711
5905 76   8820
5906 4725 2369
5907 8812 9458
5908 5323 2100
5909 7843 7824
5910 7385 9246
5911 8307 5340
5912 8911 6104
5913 8012 9613
5914 7727 9406
5915 8320 7711
5916 381  2768
5917 106  3013
5918 7449 7440
5919 8246 5368
5920 4702 2485
5921 7839 9447
5922 4374 2904
5923 4276 2910
5924 1087 3718
5925 8000 7896
5926 4404 2622
5927 5615 2973
5928 7754 5696
5929 375  8498
5930 790  8781
5931 4420 2355
5932 8370 5326
5933 645  8535
5934 1546 9005
5935 7781 5377
5936 760  3456
5937 7335 5274
5938 428  3884
5939 8343 5597
5940 598  2736
5941 4810 3407
5942 4621 2696
5943 4818 2782
5944 7595 5510
5945 7897 5373
5946 8601 5150
5947 471  1919
5948 7557 9296
5949 5039 3106
5950 427  8706
5951 7804 8503
5952 7601 9278
5953 8345 5274
5954 8208 8864
5955 7625 7883
5956 720  9039
5957 69   3209
5958 7827 8553
5959 4816 2474
5960 7743 8197
5961 8253 9887
5962 7435 9216
5963 159  3436
5964 16   4086
5965 3350 2259
5966 7977 5808
5967 688  3737
5968 665  8220
5969 7716 4768
5970 7746 9520
5971 2592 9494
5972 343  3184
5973 229  8677
5974 164  3353
5975 177  3578
5976 7016 8624
5977 238  9238
5978 4513 2933
5979 7851 9034
5980 8281 5259
5981 5172 2508
5982 4431 3106
5983 270  3460
5984 8012 5452
5985 4716 2303
5986 8791 5429
5987 8030 9744
5988 408  9708
5989 7914 7735
5990 4695 2342
5991 6886 2959
5992 90   3123
5993 7266 7921
5994 4447 2753
5995 7959 8100
5996 8032 5021
5997 8045 9399
5998 4716 2830
5999 7916 4896
6000 6893 9134
6001 7999 8044
6002 6850 8397
6003 7958 9665
6004 59   8444
6005 7561 9197
6006 4707 2722
6007 8231 5345
6008 279  3580
6009 139  7805
6010 3831 3029
6011 138  8922
6012 765  8761
6013 7718 8954
6014 571  2839
6015 288  3375
6016 1038 8766
6017 7482 8182
6018 8333 8453
6019 7455 9455
6020 7854 8309
6021 9281 6013
6022 4229 2871
6023 7328 8253
6024 8138 8872
6025 9003 5511
6026 8509 5917
6027 3983 1854
6028 150  8913
6029 464  8360
6030 7420 8706
6031 656  8758
6032 7310 8428
6033 300  3409
6034 5304 3212
6035 7435 7865
6036 4691 2770
6037 7227 8052
6038 380  8299
6039 5100 3642
6040 623  9091
6041 4652 2847
6042 7138 5061
6043 130  3706
6044 8128 9499
6045 7737 5355
6046 6955 7505
6047 467  8902
6048 281  3878
6049 368  8449
6050 7540 8838
6051 200  3762
6052 446  8612
6053 7700 9380
6054 7651 8320
6055 7869 5449
6056 7117 9658
6057 7800 5742
6058 688  3638
6059 5378 3382
6060 660  8777
6061 7787 6075
6062 7993 6388
6063 418  9174
6064 8058 9703
6065 8074 8662
6066 7213 7946
6067 9056 5245
6068 876  9269
6069 7427 7823
6070 16   9189
6071 7587 7820
6072 7852 9531
6073 4661 2523
6074 7736 8102
6075 311  3453
6076 7644 6158
6077 7436 4919
6078 717  8842
6079 7747 9806
6080 4301 2817
6081 7987 9471
6082 8135 9467
6083 8760 9083
6084 7903 9583
6085 7937 5359
6086 1434 8671
6087 6498 8074
6088 7143 5118
6089 660  2109
6090 4300 3371
6091 8002 8755
6092 478  7502
6093 7097 5804
6094 7979 8961
6095 4466 2613
6096 8329 9734
6097 8267 5011
6098 7998 5633
6099 907  3018
6100 8179 5380
6101 7543 8439
6102 4466 2436
6103 465  8481
6104 7755 9143
6105 3989 3049
6106 4028 2113
6107 7502 5423
6108 7739 6431
6109 8148 7534
6110 8449 4952
6111 7127 7690
6112 63   3666
6113 3984 2102
6114 624  3931
6115 7796 5446
6116 8003 5243
6117 4932 2599
6118 108  3163
6119 1191 8455
6120 143  3048
6121 4633 2423
6122 843  8554
6123 7658 8158
6124 8923 6708
6125 7824 7940
6126 7401 7759
6127 8040 8769
6128 7672 9519
6129 7054 8108
6130 546  2880
6131 7314 9200
6132 7659 7316
6133 7407 8231
6134 8393 9567
6135 3667 4480
6136 5069 2325
6137 8199 8311
6138 8078 9768
6139 512  8416
6140 7751 5153
6141 95   3406
6142 8202 9170
6143 7837 7809
6144 7736 9580
6145 525  4127
6146 7694 5335
6147 8447 9568
6148 7290 8079
6149 721  8105
6150 7821 5872
6151 4605 2799
6152 207  2747
6153 7047 7616
6154 7860 7961
6155 8006 9089
6156 7348 8060
6157 950  9458
6158 536  8866
6159 648  8252
6160 4354 2277
6161 8219 8674
6162 7825 9169
6163 585  3084
6164 7736 8276
6165 7413 5235
6166 1191 9635
6167 4601 2526
6168 650  3460
6169 4196 2290
6170 4710 2627
6171 8119 9024
6172 8307 5315
6173 246  3325
6174 683  8947
6175 8875 9286
6176 4057 2071
6177 7342 8061
6178 4427 2759
6179 14   2794
6180 7445 7925
6181 4415 3418
6182 7880 9501
6183 1705 8351
6184 8137 8882
6185 1138 9118
6186 8656 5420
6187 8604 7544
6188 7541 6998
6189 4340 2114
6190 7875 5738
6191 8414 4898
6192 968  8469
6193 6427 7629
6194 861  8310
6195 645  2798
6196 3396 2448
6197 503  8085
6198 608  3935
6199 426  8929
6200 8067 5604
6201 331  8254
6202 4395 2920
6203 8037 8465
6204 7632 8574
6205 8082 8870
6206 7260 7969
6207 7881 9931
6208 4457 2244
6209 7304 9222
6210 8049 5584
6211 7633 9648
6212 232  3117
6213 8881 4041
6214 588  9197
6215 4808 2145
6216 5246 2775
6217 7719 5159
6218 590  3288
6219 8317 8761
6220 7823 5189
6221 1647 8044
6222 769  3509
6223 91   3127
6224 5563 2840
6225 184  3118
6226 165  3513
6227 4839 2117
6228 8146 9276
6229 7196 8411
6230 7393 8128
6231 635  3619
6232 7697 5423
6233 7815 9466
6234 490  3117
6235 8326 9057
6236 84   8961
6237 174  3640
6238 4386 2228
6239 7584 8748
6240 1161 6730
6241 614  3490
6242 7491 5011
6243 5676 2078
6244 7346 8082
6245 7485 9742
6246 6933 8497
6247 513  3467
6248 7515 5398
6249 5126 3463
6250 4755 3763
6251 7896 5500
6252 7641 5715
6253 7574 9616
6254 7575 8137
6255 8590 5633
6256 7456 9791
6257 81   3866
6258 8442 5967
6259 497  9618
6260 7590 4978
6261 512  3840
6262 1297 8617
6263 602  8545
6264 7144 8726
6265 7223 8438
6266 8509 4895
6267 7962 9448
6268 7786 7950
6269 589  7871
6270 310  8323
6271 7437 6125
6272 722  8175
6273 7469 9337
6274 4532 2049
6275 692  8961
6276 8419 4735
6277 543  4182
6278 7490 8025
6279 8478 4483
6280 4415 2757
6281 5169 2590
6282 7894 9008
6283 452  2651
6284 8214 4932
6285 9032 9533
6286 795  3723
6287 4547 2534
6288 650  8963
6289 450  3440
6290 8017 8179
6291 7665 7100
6292 4552 3084
6293 8142 8857
6294 7877 5330
6295 4234 3084
6296 382  3307
6297 319  3362
6298 4314 2570
6299 559  3347
6300 4220 2636
6301 7591 8340
6302 441  8957
6303 1047 3134
6304 7236 5840
6305 4492 2578
6306 534  3826
6307 8257 9483
6308 8009 9516
6309 454  8356
6310 406  3412
6311 8169 5582
6312 1047 3868
6313 615  8493
6314 9911 8392
6315 627  8024
6316 7662 9935
6317 4221 2232
6318 613  9462
6319 7462 5551
6320 7546 9324
6321 5437 2258
6322 4300 2488
6323 7771 8938
6324 8160 5552
6325 580  2713
6326 4777 2815
6327 4353 2279
6328 8441 9424
6329 9258 7942
6330 679  8985
6331 8322 5209
6332 4605 3012
6333 4606 2407
6334 8316 7922
6335 7889 5533
6336 8266 5126
6337 7345 9264
6338 343  8478
6339 4182 2424
6340 478  3840
6341 7859 5629
6342 4540 2999
6343 7635 7793
6344 56   3493
6345 3860 3237
6346 8021 5457
6347 1058 8880
6348 608  7988
6349 8034 9512
6350 4608 3437
6351 7151 9706
6352 8589 5744
6353 7983 9441
6354 8692 7978
6355 7545 7629
6356 3851 2683
6357 8401 9561
6358 7678 8114
6359 7769 5110
6360 4682 2473
6361 7982 9643
6362 202  3400
6363 7695 8436
6364 3956 3284
6365 3860 2666
6366 4751 1703
6367 7492 9632
6368 8541 5734
6369 8022 4322
6370 252  3356
6371 4649 2346
6372 7741 8280
6373 8148 5640
6374 911  3162
6375 7813 7871
6376 4334 2789
6377 8194 9394
6378 5887 3098
6379 4817 2690
6380 7110 7757
6381 7    3473
6382 3676 2215
6383 7948 6070
6384 3799 2898
6385 139  7629
6386 493  3424
6387 5743 2491
6388 2999 3434
6389 8123 5109
6390 8174 9508
6391 546  3304
6392 795  3283
6393 7349 5988
6394 7544 7981
6395 6701 8510
6396 7894 9355
6397 4743 2492
6398 8339 9106
6399 4349 2311
6400 7623 4859
6401 7201 8763
6402 7680 8728
6403 4728 2416
6404 7762 7168
6405 8068 8648
6406 8044 4711
6407 567  3970
6408 8211 5861
6409 7846 9753
6410 489  7941
6411 627  8522
6412 4111 2117
6413 7289 8106
6414 7761 5413
6415 155  8951
6416 7786 9662
6417 8304 5510
6418 782  8592
6419 7662 8231
6420 302  3348
6421 7371 7826
6422 4027 2569
6423 7809 8191
6424 7323 9882
6425 8264 5432
6426 4216 2472
6427 903  8367
6428 7953 5075
6429 767  9018
6430 8258 5386
6431 8025 5677
6432 8753 5208
6433 7725 9715
6434 4988 1933
6435 9416 9510
6436 4076 1597
6437 8068 5570
6438 445  3153
6439 831  3549
6440 8259 5260
6441 419  8675
6442 7273 4545
6443 6694 7774
6444 5024 2338
6445 2046 8198
6446 4835 2392
6447 700  4223
6448 601  8592
6449 7954 9401
6450 560  3582
6451 4503 2504
6452 7971 4990
6453 889  8589
6454 7508 9290
6455 18   8597
6456 1486 9538
6457 7652 4673
6458 8458 5020
6459 7631 9014
6460 402  3053
6461 7882 5406
6462 49   3168
6463 4697 2273
6464 8316 5371
6465 7746 9433
6466 8818 6024
6467 8118 9951
6468 3884 2202
6469 262  3491
6470 8115 8584
6471 8652 5442
6472 1189 7889
6473 7811 4158
6474 4410 2239
6475 653  8881
6476 4890 2757
6477 8009 9444
6478 7350 8011
6479 8843 5071
6480 4385 2955
6481 4658 2433
6482 8233 9196
6483 794  8943
6484 706  8477
6485 1573 8020
6486 142  3509
6487 7539 7840
6488 7847 8087
6489 97   8323
6490 4621 2541
6491 7375 8099
6492 7772 8201
6493 8483 8936
6494 225  3122
6495 353  8298
6496 1030 3867
6497 4614 2481
6498 8259 9329
6499 7307 8914
6500 3916 1782
6501 6050 7933
6502 8263 8405
6503 8208 9163
6504 4935 2415
6505 0    4615
6506 414  3051
6507 4367 2731
6508 8799 7355
6509 7846 9876
6510 6738 5759
6511 203  8431
6512 6991 7791
6513 392  9124
6514 7784 5325
6515 7570 7769
6516 1005 8238
6517 7885 8409
6518 898  8350
6519 1516 8166
6520 4749 3088
6521 7671 7778
6522 199  3204
6523 228  8109
6524 513  3400
6525 7840 8720
6526 7824 5368
6527 7630 9023
6528 7553 8123
6529 70   9087
6530 7863 7298
6531 8126 9349
6532 1148 7290
6533 7437 8458
6534 373  4051
6535 4760 2505
6536 7595 7746
6537 7651 8170
6538 7898 9603
6539 7454 8445
6540 7762 9660
6541 189  8719
6542 670  9432
6543 8344 5587
6544 310  8817
6545 7993 5843
6546 1055 8911
6547 8073 8700
6548 7468 5918
6549 9238 9565
6550 257  4172
6551 4833 2573
6552 8265 9879
6553 4227 2653
6554 7546 8912
6555 7765 9647
6556 4622 2526
6557 7600 8451
6558 323  3508
6559 4551 2660
6560 479  3341
6561 1379 9084
6562 8098 5199
6563 689  8590
6564 8578 7844
6565 7890 5088
6566 8051 7858
6567 8139 9287
6568 7128 8285
6569 7865 7921
6570 4658 1913
6571 1206 7852
6572 7863 5846
6573 8399 9045
6574 523  8195
6575 4285 2742
6576 8271 8369
6577 155  9268
6578 7336 7863
6579 8063 9897
6580 7533 8089
6581 623  3036
6582 320  9316
6583 7384 8236
6584 8549 5277
6585 4860 2756
6586 4544 2714
6587 86   2925
6588 8069 5163
6589 7649 8154
6590 7120 7498
6591 1158 8159
6592 7585 9412
6593 4476 2452
6594 8953 5079
6595 4584 3629
6596 8134 7207
6597 671  7428
6598 4057 2565
6599 7815 9627
6600 7867 7985
6601 8014 9845
6602 7628 8298
6603 1345 8715
6604 7999 8309
6605 824  3903
6606 7874 5414
6607 7137 5232
6608 7065 5331
6609 5135 3008
6610 4485 2514
6611 7816 5619
6612 567  8635
6613 7836 5306
6614 8102 9519
6615 4821 2579
6616 8127 9756
6617 686  7793
6618 67   4032
6619 1716 2496
6620 7274 8053
6621 7943 10000
6622 4320 2399
6623 4793 2467
6624 4938 3228
6625 6447 8859
6626 7442 9645
6627 7735 7269
6628 7016 6995
6629 8457 5771
6630 901  3765
6631 314  3441
6632 7646 7910
6633 8295 6810
6634 8    8490
6635 7107 9545
6636 7327 7701
6637 7708 8531
6638 4473 2474
6639 35   3919
6640 4031 1993
6641 7928 5393
6642 553  8835
6643 1214 8392
6644 7593 8797
6645 589  3708
6646 770  3510
6647 6900 8617
6648 7473 9433
6649 7393 7719
6650 4319 3156
6651 121  3848
6652 82   3582
6653 7217 4356
6654 7771 5373
6655 7932 7889
6656 8213 9877
6657 8867 5900
6658 251  3282
6659 7976 8863
6660 4905 2327
6661 7466 7971
6662 110  3378
6663 321  3269
6664 5198 3258
6665 225  3081
6666 7844 5076
6667 8040 8858
6668 8320 7029
6669 4007 2752
6670 8576 4938
6671 303  8594
6672 7517 8046
6673 6686 9625
6674 453  8343
6675 8216 9640
6676 7290 9623
6677 839  8525
6678 7917 9498
6679 8065 8036
6680 7787 8344
6681 35   3015
6682 7883 9779
6683 732  8376
6684 502  3443
6685 7620 8099
6686 8228 5309
6687 7005 7174
6688 7627 8138
6689 4532 2167
6690 7217 8129
6691 8406 5381
6692 8188 9762
6693 7509 9577
6694 286  3242
6695 1141 8753
6696 7953 5426
6697 8237 8279
6698 1356 8762
6699 961  3888
6700 7466 8943
6701 8182 5505
6702 833  3551
6703 664  8691
6704 6552 7122
6705 7827 6131
6706 7836 9328
6707 322  2920
6708 4797 2761
6709 8184 5049
6710 7830 8868
6711 7306 5390
6712 8611 6116
6713 157  8837
6714 4708 3147
6715 385  3671
6716 5247 3662
6717 4799 2609
6718 7555 7999
6719 8014 4780
6720 98   8388
6721 4669 2769
6722 319  3111
6723 5010 2444
6724 7736 9127
6725 8313 5317
6726 308  8927
6727 8123 9359
6728 8047 4988
6729 4525 2193
6730 8157 4044
6731 7363 5723
6732 8026 5049
6733 6046 7462
6734 421  8617
6735 0    3456
6736 7601 6406
6737 4121 2629
6738 3983 2241
6739 4276 2535
6740 4435 2381
6741 7876 9646
6742 5068 3442
6743 7576 8886
6744 7557 9249
6745 7525 7549
6746 8165 5578
6747 392  3223
6748 182  2256
6749 107  4118
6750 5346 1846
6751 332  8164
6752 7440 8308
6753 1377 7623
6754 256  8930
6755 8093 8231
6756 1134 9200
6757 8052 5059
6758 4350 2580
6759 8446 6676
6760 65   3227
6761 401  8308
6762 420  3319
6763 7678 7885
6764 8395 9360
6765 463  4379
6766 7735 7966
6767 6410 7464
6768 95   8423
6769 7614 7918
6770 7983 6869
6771 855  8503
6772 4477 2656
6773 324  3745
6774 8147 5416
6775 4995 2786
6776 8107 5681
6777 7639 5259
6778 7655 5624
6779 7941 7866
6780 7638 8129
6781 7783 9896
6782 8101 4867
6783 7164 4991
6784 394  3326
6785 907  8900
6786 834  3049
6787 7588 8101
6788 1590 5584
6789 7083 4950
6790 538  8322
6791 8373 9928
6792 1108 8352
6793 4200 2504
6794 8393 5118
6795 513  1949
6796 6575 6515
6797 406  3648
6798 8665 4850
6799 7999 7699
6800 7866 9782
6801 211  3684
6802 7542 4563
6803 7921 5526
6804 1217 8809
6805 638  8397
6806 2778 3096
6807 535  8799
6808 7650 9714
6809 5096 2848
6810 4531 2543
6811 7960 9847
6812 7908 9281
6813 975  8879
6814 5077 2488
6815 8217 8860
6816 8523 5035
6817 8112 5290
6818 347  8274
6819 4305 3391
6820 622  3610
6821 3898 1796
6822 7316 7634
6823 7698 5259
6824 207  3280
6825 7709 9830
6826 7593 9408
6827 8163 9442
6828 7665 5193
6829 7783 8752
6830 624  3353
6831 514  3311
6832 4450 2469
6833 7239 5455
6834 16   3203
6835 417  3696
6836 7534 8044
6837 7277 8732
6838 237  3135
6839 8934 9072
6840 7784 5326
6841 65   3318
6842 378  9812
6843 7873 8752
6844 7733 7650
6845 7290 8188
6846 7929 9452
6847 8100 5051
6848 8014 7680
6849 9295 6471
6850 8371 9133
6851 7769 4834
6852 7718 7985
6853 4900 2676
6854 6935 5400
6855 7519 8703
6856 4081 2300
6857 8129 5303
6858 7650 7737
6859 4266 2583
6860 7370 9896
6861 5251 1772
6862 7320 9831
6863 7800 9927
6864 7545 7556
6865 7812 5231
6866 6752 8147
6867 7628 8012
6868 7479 8130
6869 985  9466
6870 8170 5304
6871 4638 2430
6872 4262 2746
6873 517  8131
6874 4260 2784
6875 666  2779
6876 7793 6460
6877 7895 5802
6878 4640 2446
6879 879  3902
6880 6665 8104
6881 230  3266
6882 1156 8889
6883 8416 5834
6884 8264 7719
6885 7531 8152
6886 8194 8805
6887 504  8128
6888 326  3941
6889 4927 2726
6890 7661 7822
6891 8109 5070
6892 647  3686
6893 1251 8916
6894 719  3615
6895 7471 4992
6896 288  3211
6897 4047 2781
6898 8180 5193
6899 3129 3445
6900 8056 5419
6901 9610 5046
6902 8678 9658
6903 4343 3332
6904 8309 9396
6905 40   2936
6906 4154 2979
6907 6589 9237
6908 7977 8828
6909 7885 9265
6910 7236 7993
6911 7710 8944
6912 7675 8355
6913 530  8086
6914 7693 5901
6915 8362 8051
6916 7945 8105
6917 1361 8492
6918 599  7756
6919 7472 9042
6920 7419 8471
6921 875  8426
6922 500  3651
6923 7911 9656
6924 7329 5444
6925 7858 8090
6926 4708 2554
6927 5070 3777
6928 7867 5905
6929 4638 2669
6930 7520 8876
6931 427  8731
6932 3972 1912
6933 7394 7951
6934 7662 7401
6935 908  3703
6936 7719 8983
6937 7260 7557
6938 4493 2380
6939 7944 8685
6940 7571 5831
6941 8098 9354
6942 1049 8763
6943 3326 1854
6944 7915 6639
6945 4340 2766
6946 9180 8747
6947 419  8493
6948 8437 6102
6949 7780 5005
6950 676  8835
6951 145  8247
6952 7915 5301
6953 8201 5541
6954 3998 1753
6955 8114 5246
6956 4556 3125
6957 886  8052
6958 890  8213
6959 4539 2881
6960 605  8830
6961 7587 8151
6962 8114 4837
6963 170  2732
6964 904  9011
6965 7217 5586
6966 8172 4546
6967 4301 2648
6968 7684 5125
6969 105  8675
6970 7317 6312
6971 129  8723
6972 7207 9189
6973 448  7621
6974 7598 9332
6975 7322 7693
6976 7537 7919
6977 6900 4026
6978 4399 3576
6979 6927 9090
6980 4840 2721
6981 8279 5980
6982 7688 7998
6983 624  8597
6984 4931 3175
6985 439  8422
6986 7308 7772
6987 7791 5139
6988 4773 1564
6989 8158 4845
6990 7966 9190
6991 7376 7665
6992 49   8978
6993 7331 5841
6994 7985 5376
6995 7858 5646
6996 7716 7876
6997 8014 9545
6998 532  8804
6999 7361 8099
7000 7414 7767
7001 7613 5854
7002 7586 9224
7003 8002 5759
7004 340  7978
7005 7709 9484
7006 8880 7898
7007 4335 1970
7008 1017 9007
7009 421  3172
7010 4328 2700
7011 7430 8390
7012 8027 5336
7013 7837 8990
7014 8337 5355
7015 7835 4166
7016 4606 2187
7017 1158 9337
7018 439  2624
7019 7674 9747
7020 4726 2751
7021 7021 8161
7022 5544 3244
7023 8034 4973
7024 8144 9326
7025 8021 5260
7026 855  8013
7027 4882 2238
7028 4730 2969
7029 7470 8022
7030 7794 4682
7031 18   4173
7032 1088 8210
7033 4275 2459
7034 7700 6090
7035 271  3293
7036 7707 5515
7037 4055 2474
7038 8250 5527
7039 264  3220
7040 7951 9953
7041 1063 7923
7042 7384 4728
7043 966  9097
7044 2895 504 
7045 7663 9240
7046 7396 7825
7047 7567 8776
7048 8400 4698
7049 7388 8014
7050 632  8522
7051 7623 5422
7052 8581 5127
7053 314  3235
7054 156  8163
7055 7714 8074
7056 256  2513
7057 8792 8738
7058 979  3287
7059 7862 9468
7060 689  3981
7061 1055 8838
7062 8093 9128
7063 485  3307
7064 4798 3427
7065 727  3542
7066 122  2819
7067 550  8766
7068 4730 1861
7069 7429 9504
7070 4996 2882
7071 4654 2466
7072 7317 7890
7073 7394 5607
7074 7640 7720
7075 7913 9748
7076 8377 4774
7077 945  8257
7078 564  8299
7079 262  3412
7080 7109 7188
7081 7236 8162
7082 1217 8765
7083 616  8474
7084 728  8564
7085 7962 7919
7086 7052 9153
7087 8529 4999
7088 498  3823
7089 718  3032
7090 759  8329
7091 657  4088
7092 580  3317
7093 5427 1729
7094 5120 3095
7095 791  9074
7096 7698 7873
7097 8359 6229
7098 8346 9300
7099 7582 8686
7100 7501 5273
7101 7869 8512
7102 8175 9729
7103 7312 7799
7104 8116 5063
7105 7578 7979
7106 874  8791
7107 529  8240
7108 2232 8746
7109 356  3566
7110 7587 7541
7111 8527 5320
7112 579  8401
7113 8099 9497
7114 7197 4754
7115 7759 9943
7116 3480 3066
7117 1392 9211
7118 369  8366
7119 4165 2604
7120 77   2639
7121 7215 7947
7122 7650 8099
7123 6288 8057
7124 3590 2513
7125 8012 9059
7126 168  3524
7127 115  3925
7128 7952 7974
7129 7436 7567
7130 522  8542
7131 8147 5562
7132 572  8610
7133 8771 5407
7134 8156 5217
7135 7540 9641
7136 218  3786
7137 596  8488
7138 7546 8198
7139 7952 5392
7140 7287 9745
7141 8059 9036
7142 8268 5401
7143 7571 8079
7144 7862 9513
7145 490  8526
7146 5234 3251
7147 8011 5004
7148 7562 8447
7149 565  9199
7150 5402 3547
7151 6299 7890
7152 7270 5217
7153 7764 8542
7154 612  8590
7155 8632 5155
7156 7868 5505
7157 7646 5587
7158 7711 5248
7159 7680 7932
7160 145  3656
7161 5202 1763
7162 7975 9529
7163 7899 4881
7164 8097 6889
7165 7465 8088
7166 7738 7896
7167 7966 5345
7168 8011 5860
7169 7817 9524
7170 7400 7788
7171 7344 8068
7172 7654 9377
7173 4557 2106
7174 8083 9477
7175 447  3217
7176 7569 9343
7177 8672 4593
7178 8041 5297
7179 7753 4881
7180 347  3333
7181 4375 2337
7182 382  3006
7183 7782 9617
7184 304  7481
7185 1744 4377
7186 7824 8615
7187 7817 4909
7188 548  7891
7189 7416 8175
7190 7716 8428
7191 5006 2787
7192 8013 9780
7193 101  7907
7194 7307 9031
7195 7939 4591
7196 7976 8566
7197 7897 5144
7198 7804 5206
7199 4747 2397
7200 4659 2617
7201 7712 8336
7202 4600 2328
7203 1171 8608
7204 637  2575
7205 542  3143
7206 5013 2546
7207 52   8123
7208 7857 7836
7209 6065 2794
7210 1134 3128
7211 7768 6594
7212 7915 6517
7213 8214 6844
7214 7816 5371
7215 8232 5392
7216 7800 8010
7217 7759 7889
7218 7605 8495
7219 554  9470
7220 3893 2586
7221 308  9238
7222 4286 2446
7223 3877 1681
7224 7592 7710
7225 8171 5333
7226 1042 4776
7227 522  2752
7228 117  8845
7229 194  8720
7230 5024 1849
7231 8040 9738
7232 9933 9566
7233 7793 8282
7234 7060 4466
7235 8349 7345
7236 4144 2576
7237 252  3037
7238 7649 7258
7239 8190 8361
7240 1119 8208
7241 4591 1184
7242 7314 7857
7243 7572 9600
7244 1444 7789
7245 7754 8120
7246 8018 9340
7247 133  9141
7248 7594 9844
7249 6849 5666
7250 703  1735
7251 7708 8363
7252 4924 2455
7253 7785 7976
7254 7910 5493
7255 4088 1817
7256 397  8785
7257 4209 2392
7258 266  9186
7259 3329 2613
7260 8283 7457
7261 8089 9535
7262 521  8438
7263 8265 7935
7264 8625 7470
7265 474  3823
7266 8152 9800
7267 5153 2838
7268 916  8181
7269 7525 5555
7270 7728 9589
7271 3650 2636
7272 8436 5778
7273 7757 9780
7274 7774 7501
7275 750  7478
7276 4928 3193
7277 7750 8449
7278 7815 7558
7279 635  9273
7280 8088 9358
7281 7459 8191
7282 4809 2590
7283 555  3285
7284 7559 8043
7285 272  3822
7286 7401 8281
7287 7886 5373
7288 157  8368
7289 5963 8421
7290 354  7988
7291 7443 8172
7292 7239 7793
7293 402  3243
7294 7579 7715
7295 6862 7883
7296 8041 9632
7297 4791 2064
7298 7443 7773
7299 3837 2166
7300 4689 2403
7301 7533 5106
7302 733  8218
7303 1356 7286
7304 4331 2790
7305 467  8136
7306 8071 8707
7307 7729 9490
7308 851  8403
7309 7237 9227
7310 451  3648
7311 8730 5411
7312 8679 6547
7313 402  8445
7314 8155 4171
7315 7670 8125
7316 8565 9287
7317 782  8296
7318 8195 5317
7319 4619 2302
7320 7915 9481
7321 725  3167
7322 7164 8513
7323 4517 1999
7324 204  2974
7325 8278 8166
7326 5085 4547
7327 9113 4944
7328 661  7348
7329 96   8589
7330 4542 2557
7331 7878 9507
7332 542  8444
7333 8291 5683
7334 303  8978
7335 7659 8693
7336 9112 5420
7337 8102 9231
7338 7965 9563
7339 263  8148
7340 1493 8527
7341 7518 9879
7342 7242 8051
7343 755  8536
7344 1687 4001
7345 7863 5488
7346 440  3613
7347 8166 8636
7348 692  2815
7349 7487 8307
7350 4267 2665
7351 376  3951
7352 8038 5301
7353 6980 9069
7354 7772 5210
7355 722  8853
7356 7979 5657
7357 8130 7675
7358 7381 9703
7359 6641 9647
7360 8027 9313
7361 896  7311
7362 256  3310
7363 8300 5324
7364 4338 2833
7365 7408 7983
7366 7068 9243
7367 7550 7934
7368 4953 3112
7369 4828 2476
7370 132  3252
7371 8141 6446
7372 281  3346
7373 7724 8787
7374 7753 9585
7375 853  8592
7376 8333 5580
7377 8329 9140
7378 7457 9083
7379 194  3147
7380 8130 5451
7381 405  3331
7382 7377 9398
7383 8774 5069
7384 284  3192
7385 230  2532
7386 499  3401
7387 885  2848
7388 7726 8830
7389 9457 4458
7390 659  8364
7391 4753 2585
7392 132  2403
7393 7807 5442
7394 7645 8238
7395 7856 9523
7396 1033 3320
7397 325  3422
7398 143  7993
7399 932  8645
7400 7571 8250
7401 8057 8199
7402 3779 3218
7403 7911 5802
7404 8002 5314
7405 7035 7618
7406 560  3864
7407 7893 9486
7408 7307 6247
7409 7023 8066
7410 8072 5312
7411 4270 1510
7412 7957 9929
7413 8236 9540
7414 8216 9463
7415 8247 5409
7416 7547 5920
7417 7889 8808
7418 8457 4910
7419 539  8398
7420 8278 5846
7421 4393 2390
7422 8683 5731
7423 7869 7488
7424 8702 9546
7425 628  4848
7426 4296 2787
7427 7963 5300
7428 4608 2938
7429 7495 7866
7430 7461 8235
7431 8009 7989
7432 6573 7742
7433 8640 4733
7434 6701 7477
7435 992  3191
7436 4673 2649
7437 8038 5318
7438 7721 9442
7439 3182 4345
7440 83   3194
7441 7524 6445
7442 7772 5519
7443 4987 2897
7444 7999 9485
7445 7852 8106
7446 4608 2615
7447 7615 5483
7448 7952 7589
7449 4715 2987
7450 722  9081
7451 8342 9037
7452 8376 5072
7453 8396 5555
7454 8146 5402
7455 8519 8883
7456 167  3248
7457 7429 9409
7458 8530 8478
7459 8633 7804
7460 43   3659
7461 6544 9667
7462 8352 5485
7463 484  9294
7464 655  8573
7465 8370 9628
7466 4475 2405
7467 4429 2476
7468 871  8757
7469 122  3675
7470 7856 5097
7471 779  3240
7472 8274 5093
7473 4403 2673
7474 7325 4666
7475 187  3638
7476 844  8808
7477 7235 8598
7478 7580 9803
7479 7441 9853
7480 4685 2660
7481 137  3529
7482 4238 4280
7483 4882 2832
7484 8150 7570
7485 4730 2635
7486 7453 8098
7487 7941 5142
7488 7858 9096
7489 4423 2824
7490 7663 7514
7491 7661 9773
7492 2896 2303
7493 7227 8795
7494 919  8714
7495 3036 2487
7496 4635 2553
7497 7548 8341
7498 1211 8458
7499 7848 7506
7500 7973 5281
7501 6495 7838
7502 496  9011
7503 8159 5247
7504 8014 4374
7505 4688 2757
7506 7828 9142
7507 7571 8647
7508 7597 7845
7509 52   3004
7510 7337 8049
7511 444  2875
7512 7553 8028
7513 4384 2493
7514 647  8244
7515 8316 5426
7516 813  8396
7517 7460 4681
7518 4595 2675
7519 3753 1652
7520 757  3042
7521 4254 3094
7522 8405 4612
7523 4980 2630
7524 1517 3048
7525 1682 8540
7526 134  2193
7527 4586 2469
7528 7252 5911
7529 8021 9468
7530 5018 3030
7531 60   7740
7532 7947 5699
7533 211  3483
7534 7958 7950
7535 7716 9424
7536 7933 5345
7537 4516 2640
7538 8148 5449
7539 720  8442
7540 811  8405
7541 4125 2532
7542 7612 9578
7543 8125 9247
7544 7415 8713
7545 566  8648
7546 6709 8422
7547 8744 9947
7548 7252 5732
7549 4106 4101
7550 8012 6049
7551 547  8483
7552 7476 8376
7553 210  3183
7554 396  8172
7555 7054 8274
7556 4825 2835
7557 8013 8687
7558 730  8560
7559 427  3826
7560 8522 6294
7561 476  8888
7562 7885 9227
7563 7059 8767
7564 482  8201
7565 7552 5465
7566 8168 9217
7567 4239 1044
7568 687  2965
7569 8435 9859
7570 353  8476
7571 205  8637
7572 6105 8317
7573 4717 2668
7574 6853 7615
7575 455  8911
7576 7502 5083
7577 4769 3339
7578 4973 4344
7579 7990 9709
7580 8043 4841
7581 7819 8317
7582 794  9023
7583 5041 2175
7584 658  3645
7585 47   8829
7586 7743 9585
7587 7856 5519
7588 656  9012
7589 785  8506
7590 7709 4761
7591 969  8184
7592 768  8350
7593 7542 5311
7594 717  8341
7595 8157 9701
7596 7464 8250
7597 8231 8756
7598 8007 5603
7599 672  9344
7600 7967 8776
7601 8062 8916
7602 349  8164
7603 8312 9547
7604 782  3753
7605 187  3489
7606 7951 5465
7607 7947 8191
7608 7978 5264
7609 1415 8120
7610 3941 2861
7611 8707 9161
7612 4640 3012
7613 1476 8159
7614 7631 7663
7615 7398 8227
7616 8023 9780
7617 7660 7837
7618 4848 2157
7619 1159 8210
7620 7892 9568
7621 1267 3929
7622 395  3416
7623 7495 9739
7624 8101 7837
7625 8263 9161
7626 4143 2871
7627 270  3315
7628 7475 8849
7629 7537 7873
7630 7027 5243
7631 8412 9858
7632 7859 8353
7633 7252 9393
7634 8156 8863
7635 644  8550
7636 7978 6041
7637 793  8259
7638 7944 9690
7639 983  3333
7640 7865 8292
7641 7352 7900
7642 8248 7719
7643 8169 5590
7644 7599 8095
7645 763  7878
7646 8497 5727
7647 4859 2480
7648 7716 5613
7649 8117 5982
7650 142  3450
7651 7971 8180
7652 8249 5659
7653 7309 9545
7654 408  3936
7655 8177 8219
7656 9069 7072
7657 181  3348
7658 8532 5175
7659 8329 8974
7660 4304 2244
7661 7905 8142
7662 4503 2784
7663 7467 7928
7664 4192 2569
7665 7755 8595
7666 7682 7910
7667 8334 5107
7668 4270 2372
7669 120  8081
7670 126  3362
7671 2120 8949
7672 7652 9649
7673 7932 5536
7674 7601 8058
7675 430  3542
7676 620  8399
7677 5181 2471
7678 7276 8340
7679 789  8630
7680 518  8618
7681 154  8009
7682 7409 5119
7683 8597 5546
7684 1063 8394
7685 8126 5918
7686 1709 9044
7687 710  3080
7688 7716 8901
7689 228  3364
7690 7374 5714
7691 7677 8506
7692 7734 4226
7693 8075 7973
7694 1028 8976
7695 7952 5307
7696 8247 8975
7697 60   8384
7698 6734 8130
7699 7868 5638
7700 64   3254
7701 8070 5874
7702 7664 9637
7703 5008 2378
7704 385  8685
7705 52   3454
7706 550  8045
7707 749  8094
7708 6886 8081
7709 839  2901
7710 8284 5297
7711 372  2915
7712 7208 7692
7713 7621 8902
7714 8192 8462
7715 7547 7974
7716 7965 9675
7717 8250 5028
7718 3384 1314
7719 7424 8008
7720 7775 8416
7721 8268 9494
7722 4258 2810
7723 4384 2977
7724 4220 3237
7725 7970 9490
7726 7759 4963
7727 4719 2677
7728 8515 8193
7729 8292 5943
7730 7399 7711
7731 491  3989
7732 7663 5331
7733 9244 4358
7734 7947 5574
7735 7684 8647
7736 7687 8736
7737 7906 8531
7738 7296 5401
7739 288  3352
7740 944  8605
7741 210  3270
7742 2042 2852
7743 4236 2571
7744 4458 2807
7745 386  8856
7746 555  3346
7747 628  8055
7748 7884 9377
7749 8392 7522
7750 7801 5476
7751 5141 2241
7752 6821 8295
7753 8313 9645
7754 8266 5710
7755 8199 9776
7756 8007 4852
7757 216  2888
7758 8104 5644
7759 4534 2234
7760 4323 2921
7761 9054 5605
7762 830  4184
7763 686  3773
7764 8389 7849
7765 7543 5541
7766 8271 9880
7767 7994 5302
7768 7865 9433
7769 185  8910
7770 7663 8498
7771 683  8277
7772 7902 5203
7773 7670 7932
7774 8363 9240
7775 7501 8139
7776 8616 5049
7777 8007 9365
7778 8227 8761
7779 55   8209
7780 7589 8870
7781 4493 2414
7782 4233 2760
7783 5962 7470
7784 563  3225
7785 501  3504
7786 4913 2479
7787 872  7812
7788 6840 4808
7789 8035 4941
7790 7701 9110
7791 4346 2173
7792 1235 2852
7793 564  8979
7794 4613 2871
7795 571  7356
7796 4625 2449
7797 48   4123
7798 294  8717
7799 7803 9566
7800 919  8218
7801 4301 3049
7802 1257 8383
7803 542  8409
7804 7695 8432
7805 4443 2679
7806 7898 5749
7807 4766 2441
7808 8025 9191
7809 5315 2824
7810 8094 9590
7811 823  8769
7812 4783 2894
7813 7821 7221
7814 4616 2585
7815 8093 9126
7816 789  7765
7817 500  3107
7818 192  3348
7819 7910 9845
7820 8370 5690
7821 8312 8632
7822 8021 9642
7823 4393 2833
7824 8158 5456
7825 8167 5117
7826 8080 4551
7827 7977 9292
7828 892  4152
7829 769  8369
7830 7970 5386
7831 261  2702
7832 8347 5511
7833 521  3453
7834 166  7761
7835 7759 9452
7836 4972 2913
7837 4717 3106
7838 6808 9319
7839 4350 2429
7840 6800 7478
7841 347  3496
7842 8325 9473
7843 7627 5516
7844 1442 9220
7845 8463 4720
7846 905  2688
7847 7972 8133
7848 7976 5632
7849 8443 5049
7850 412  3407
7851 7622 8406
7852 8455 8352
7853 7463 7340
7854 8813 9636
7855 8132 6094
7856 7691 9472
7857 641  3721
7858 7850 6422
7859 436  8400
7860 8308 9753
7861 7997 5406
7862 7636 9666
7863 325  3377
7864 4594 2606
7865 8218 5097
7866 7600 5077
7867 8418 9740
7868 8370 4905
7869 8558 5641
7870 7927 5406
7871 8555 7716
7872 971  8267
7873 8169 9815
7874 7700 9607
7875 7461 7802
7876 8225 7132
7877 7992 8129
7878 8204 5731
7879 4460 2625
7880 4547 2807
7881 418  8373
7882 7524 7930
7883 4089 2548
7884 8266 8803
7885 7439 8016
7886 8123 8406
7887 4185 2615
7888 7922 9409
7889 109  3682
7890 1546 8697
7891 7621 8174
7892 6372 7639
7893 651  7701
7894 1277 8249
7895 8400 7950
7896 748  8643
7897 192  3265
7898 1639 8559
7899 3673 2175
7900 328  3329
7901 8390 5478
7902 7524 8111
7903 8560 8092
7904 4275 2752
7905 7249 7986
7906 262  3495
7907 7810 8873
7908 623  8569
7909 8131 5399
7910 8337 9245
7911 1604 3505
7912 8044 5912
7913 7588 5433
7914 7663 8167
7915 8840 5660
7916 8570 9991
7917 8167 4982
7918 7933 5412
7919 8171 4211
7920 8512 5282
7921 7141 5508
7922 7918 9054
7923 7984 5129
7924 4867 2058
7925 3805 2646
7926 1206 7876
7927 7674 7720
7928 752  3316
7929 7887 5769
7930 7962 7792
7931 7837 5476
7932 7844 9278
7933 4484 2916
7934 5297 2315
7935 5759 1839
7936 4553 2890
7937 532  9084
7938 536  8653
7939 75   3342
7940 287  3349
7941 7867 5366
7942 8606 9307
7943 7626 9131
7944 4807 2575
7945 8234 9136
7946 7756 9663
7947 1209 8008
7948 8200 9167
7949 8253 8283
7950 7268 7719
7951 262  3740
7952 376  4485
7953 339  8461
7954 289  8606
7955 8507 4956
7956 7825 5572
7957 4843 3213
7958 7766 5374
7959 757  3150
7960 425  8398
7961 4869 2859
7962 4538 3197
7963 429  8452
7964 8157 6036
7965 7828 7552
7966 6984 8254
7967 52   7754
7968 7028 8495
7969 4589 2230
7970 27   3232
7971 5216 3323
7972 4538 2563
7973 4500 3104
7974 6464 7972
7975 4541 2852
7976 7671 7949
7977 822  4512
7978 500  8667
7979 8391 5065
7980 394  3007
7981 7524 6193
7982 221  3296
7983 1442 8195
7984 542  2462
7985 5157 2076
7986 8319 7888
7987 7863 7746
7988 8544 8715
7989 846  9178
7990 6917 8315
7991 7220 8516
7992 1214 7538
7993 6338 8666
7994 7742 8623
7995 132  8339
7996 7194 8385
7997 7452 8471
7998 8209 8344
7999 286  7429
8000 8787 9517
8001 7600 8057
8002 7714 5433
8003 388  8628
8004 7933 8923
8005 7    3541
8006 7535 9559
8007 8419 5600
8008 186  4064
8009 7791 5342
8010 745  8118
8011 8460 5798
8012 73   3369
8013 560  8124
8014 7986 9437
8015 531  8461
8016 7033 7528
8017 8320 9597
8018 8520 9733
8019 7327 8160
8020 194  3314
8021 4641 1966
8022 536  8634
8023 8350 7848
8024 8092 8308
8025 8115 9315
8026 8078 5174
8027 8037 9444
8028 28   8177
8029 140  3514
8030 3437 3216
8031 8030 9009
8032 6216 9192
8033 7591 9489
8034 321  8510
8035 1139 8690
8036 311  3836
8037 6201 9075
8038 7632 8055
8039 4614 1912
8040 8408 8001
8041 8195 8250
8042 476  3628
8043 8145 9233
8044 4189 2022
8045 601  8976
8046 4956 2417
8047 5143 3039
8048 7759 7863
8049 7788 5274
8050 7812 8879
8051 4565 2391
8052 7583 7600
8053 352  8364
8054 1516 8606
8055 884  7667
8056 296  4220
8057 7735 8993
8058 8124 4507
8059 8181 7483
8060 160  8910
8061 4569 2405
8062 1182 8944
8063 397  3891
8064 350  8121
8065 8174 9975
8066 519  9007
8067 8028 9108
8068 1376 7909
8069 7445 9770
8070 8421 5749
8071 8248 9228
8072 7928 9248
8073 7504 7948
8074 8038 5961
8075 8243 7322
8076 7927 9117
8077 4610 2261
8078 7887 5276
8079 7713 8805
8080 600  8323
8081 5792 2545
8082 7720 9405
8083 7779 7955
8084 469  9226
8085 562  3199
8086 690  5128
8087 7888 8563
8088 7463 9117
8089 6976 9627
8090 7685 9752
8091 5038 2764
8092 8220 6849
8093 4522 2615
8094 1408 8968
8095 8397 5280
8096 7563 4999
8097 8376 5457
8098 7868 9230
8099 4758 2873
8100 7825 5670
8101 1034 9540
8102 4313 1336
8103 1204 9054
8104 397  3259
8105 404  8093
8106 8668 7983
8107 370  8212
8108 482  8976
8109 7491 9145
8110 4501 2682
8111 8607 5260
8112 6809 8064
8113 2499 8937
8114 7672 9580
8115 4777 2675
8116 8275 5128
8117 7448 8339
8118 4861 2646
8119 437  8868
8120 8131 5705
8121 1165 8286
8122 688  8622
8123 4080 2282
8124 8548 9444
8125 604  9301
8126 4589 2396
8127 7647 5357
8128 382  8863
8129 7866 7940
8130 291  8924
8131 8335 9796
8132 8081 5198
8133 3701 1971
8134 5364 2553
8135 152  3292
8136 7605 7462
8137 7073 8480
8138 8424 5093
8139 7765 8473
8140 4853 2842
8141 7679 5938
8142 1615 8286
8143 354  3732
8144 7539 9388
8145 7897 9364
8146 6618 7856
8147 8013 8982
8148 8355 9314
8149 5179 2011
8150 7231 9415
8151 7577 8850
8152 7325 9642
8153 7705 6151
8154 7588 8077
8155 370  8850
8156 7656 8124
8157 4489 2547
8158 8258 9828
8159 8024 8234
8160 229  2602
8161 1067 8523
8162 749  9154
8163 1163 2923
8164 8405 5538
8165 9230 9051
8166 4374 2793
8167 8143 5287
8168 768  7945
8169 5740 7722
8170 681  8755
8171 8078 8023
8172 522  8927
8173 7221 8342
8174 778  4358
8175 8532 5258
8176 4552 2726
8177 7974 9457
8178 7025 5755
8179 7346 5716
8180 4644 2493
8181 9031 9895
8182 7977 9726
8183 7400 7441
8184 4855 2584
8185 185  4521
8186 6940 9144
8187 390  3273
8188 957  3559
8189 473  8766
8190 4435 1833
8191 9523 5158
8192 4024 1766
8193 7857 9533
8194 5632 2700
8195 7986 9671
8196 139  2548
8197 646  2989
8198 8587 5971
8199 146  3828
8200 464  8652
8201 7702 7661
8202 337  3943
8203 1005 8483
8204 1574 2493
8205 480  3161
8206 4005 2919
8207 7793 5441
8208 999  8287
8209 488  8529
8210 8009 4845
8211 395  4069
8212 4570 2557
8213 7817 5443
8214 22   3140
8215 21   8388
8216 19   3577
8217 4017 2614
8218 7920 5083
8219 1030 5836
8220 468  9041
8221 7966 7732
8222 8060 8361
8223 4265 2540
8224 706  3379
8225 4351 3079
8226 885  3803
8227 1714 3247
8228 8125 9162
8229 7917 5712
8230 8063 5242
8231 8032 4945
8232 4555 2583
8233 467  8441
8234 121  3246
8235 7920 4711
8236 761  8413
8237 4500 2583
8238 4445 2172
8239 7988 4576
8240 4373 2416
8241 7373 8009
8242 8176 9496
8243 7810 9092
8244 833  3519
8245 459  3536
8246 8061 8039
8247 721  8422
8248 8341 5470
8249 7108 8951
8250 104  4125
8251 7671 9222
8252 7505 8091
8253 7970 9563
8254 30   3384
8255 7413 7986
8256 8388 9468
8257 466  5123
8258 4379 2457
8259 8032 5388
8260 9124 8355
8261 678  9206
8262 4920 2710
8263 6965 8748
8264 8221 6725
8265 7235 7854
8266 7120 7975
8267 4732 2712
8268 7673 9789
8269 9155 9999
8270 7909 9347
8271 8269 9216
8272 8185 5119
8273 4629 3190
8274 7350 8012
8275 7500 8678
8276 7617 8178
8277 335  8712
8278 8566 8829
8279 4938 2202
8280 1101 1950
8281 1490 2155
8282 290  3462
8283 541  8776
8284 8143 5887
8285 5086 2493
8286 6936 5763
8287 1357 2845
8288 3803 1925
8289 7752 9329
8290 283  8937
8291 8118 6583
8292 4713 2740
8293 313  8388
8294 7388 7599
8295 7645 9187
8296 565  8171
8297 4096 2555
8298 7279 8119
8299 8757 9536
8300 8259 5536
8301 7692 9043
8302 8098 5834
8303 7474 8540
8304 7329 9383
8305 7910 8809
8306 9272 8572
8307 7708 5879
8308 7471 8452
8309 8257 9770
8310 7520 8035
8311 610  3132
8312 722  8409
8313 724  8469
8314 948  8669
8315 7553 8358
8316 7552 9759
8317 7743 8505
8318 8183 9484
8319 7727 7920
8320 8078 9352
8321 6408 9763
8322 5790 2031
8323 4911 2526
8324 4333 1702
8325 7745 7909
8326 7394 7565
8327 369  8021
8328 7882 6295
8329 8057 9622
8330 556  9078
8331 9003 9862
8332 8339 5343
8333 7292 9247
8334 7627 9570
8335 7514 8086
8336 7308 7973
8337 7858 8390
8338 7684 5443
8339 638  8499
8340 4778 2435
8341 4954 3096
8342 7948 8667
8343 4012 2112
8344 4707 2784
8345 8386 5037
8346 7510 7177
8347 388  8629
8348 288  3326
8349 8946 5352
8350 7078 7660
8351 4088 2709
8352 8250 9550
8353 7765 9499
8354 8195 9335
8355 4859 2482
8356 8426 9231
8357 7390 7889
8358 7796 7804
8359 120  3341
8360 517  8859
8361 149  8455
8362 7449 8406
8363 7196 8243
8364 8239 9211
8365 213  3193
8366 7971 8313
8367 8738 5823
8368 34   8040
8369 1178 3657
8370 8021 8265
8371 6088 8368
8372 4624 3916
8373 6108 3634
8374 381  3548
8375 4370 3384
8376 8074 5485
8377 7532 8345
8378 900  8812
8379 8020 9244
8380 3808 1360
8381 449  3265
8382 5258 2189
8383 4242 2961
8384 505  8871
8385 7448 5539
8386 648  3048
8387 8168 5863
8388 9226 8577
8389 8772 8993
8390 5224 2170
8391 646  8142
8392 4801 3039
8393 7650 5200
8394 8126 5359
8395 641  8470
8396 8388 4943
8397 7765 8062
8398 7914 9816
8399 859  2545
8400 7183 8295
8401 7906 9816
8402 7659 7858
8403 4513 3072
8404 7693 9282
8405 7410 8740
8406 7274 8175
8407 8188 9755
8408 8102 5206
8409 8277 8390
8410 173  3690
8411 7757 7467
8412 7780 9213
8413 1034 8584
8414 8639 5052
8415 8482 5256
8416 7735 8311
8417 7945 5482
8418 7843 5170
8419 591  3453
8420 1069 8434
8421 7842 5059
8422 8353 5884
8423 8224 4836
8424 759  8908
8425 1697 8487
8426 3934 1837
8427 7521 5493
8428 7501 8238
8429 7322 9687
8430 647  8877
8431 8024 8271
8432 1209 3687
8433 8063 5045
8434 7541 8216
8435 6896 6060
8436 7527 8213
8437 4572 2608
8438 4563 2351
8439 157  3342
8440 6601 4549
8441 5390 1789
8442 7776 5563
8443 722  8995
8444 8440 8519
8445 8157 5203
8446 7195 7128
8447 1617 9504
8448 545  3057
8449 8160 8428
8450 4366 2668
8451 8064 4880
8452 7424 4958
8453 120  2645
8454 7887 8175
8455 580  3229
8456 8046 7761
8457 4328 2913
8458 506  3081
8459 7969 5382
8460 7932 5344
8461 7692 9687
8462 7854 8514
8463 7611 6230
8464 7914 8297
8465 7723 9887
8466 8256 5518
8467 8394 5519
8468 323  8486
8469 4630 2502
8470 5347 2640
8471 190  3294
8472 8481 7264
8473 7554 9211
8474 878  8178
8475 1012 8327
8476 7037 5048
8477 8016 5263
8478 7832 5558
8479 4921 2760
8480 8164 5195
8481 492  8373
8482 626  8599
8483 4973 2060
8484 8285 8465
8485 6966 8473
8486 7840 5174
8487 7824 9225
8488 3537 2848
8489 7487 9285
8490 7331 8693
8491 7668 5117
8492 8155 7812
8493 800  8247
8494 5603 2690
8495 6944 7797
8496 825  8676
8497 8473 5631
8498 7889 9692
8499 7809 7863
8500 7945 6940
8501 8449 5615
8502 1434 7816
8503 7459 9500
8504 8800 5920
8505 1029 8684
8506 4365 3045
8507 7935 7983
8508 457  3255
8509 398  3681
8510 7671 8634
8511 7693 9544
8512 4244 3378
8513 7628 8783
8514 7569 4233
8515 4104 3468
8516 8105 5192
8517 8011 9532
8518 8614 5632
8519 7494 8224
8520 515  8200
8521 4637 2402
8522 7900 5312
8523 3887 3214
8524 6989 7572
8525 260  3463
8526 954  8705
8527 4110 2853
8528 7701 5558
8529 329  9236
8530 4852 2292
8531 390  8575
8532 7366 8054
8533 8179 9184
8534 7585 5117
8535 7547 7714
8536 7782 9871
8537 158  9082
8538 7562 5511
8539 4716 2746
8540 3835 2579
8541 4445 2636
8542 4908 2148
8543 7828 9896
8544 8120 5204
8545 4658 2455
8546 650  8549
8547 7514 9789
8548 7124 9025
8549 2921 2749
8550 1306 8552
8551 7837 8163
8552 7852 7657
8553 9071 8812
8554 42   2591
8555 7601 8102
8556 4817 2112
8557 8334 9574
8558 1174 8594
8559 405  8839
8560 8619 8972
8561 4354 3185
8562 853  8851
8563 3567 2136
8564 7756 7776
8565 8070 9727
8566 8239 6720
8567 4036 2225
8568 4033 2149
8569 8142 5036
8570 241  8099
8571 7848 9309
8572 1404 3995
8573 7432 3921
8574 4820 2619
8575 7846 5413
8576 7951 5329
8577 682  3529
8578 4742 2482
8579 136  3201
8580 7728 5475
8581 478  3927
8582 8475 4147
8583 7949 5392
8584 226  2708
8585 8087 5391
8586 873  8516
8587 510  7492
8588 3861 2700
8589 8091 4636
8590 1149 3898
8591 8715 5005
8592 1145 3031
8593 7888 9478
8594 368  8678
8595 7891 8361
8596 4525 3287
8597 590  3056
8598 4295 2541
8599 7365 8370
8600 7943 5112
8601 288  8487
8602 298  3823
8603 6    3252
8604 771  8498
8605 5190 3766
8606 8103 4854
8607 1080 8202
8608 172  2888
8609 7537 9084
8610 4500 2721
8611 7810 9059
8612 801  7901
8613 960  8247
8614 8763 4957
8615 467  2822
8616 488  9420
8617 550  8572
8618 8741 5869
8619 665  8844
8620 8286 5809
8621 7547 9521
8622 7526 5775
8623 7553 8596
8624 8065 5365
8625 8072 8974
8626 410  8506
8627 4530 3281
8628 678  2946
8629 521  8414
8630 171  8021
8631 4945 2458
8632 482  8482
8633 8417 6528
8634 562  9246
8635 8377 5461
8636 786  8362
8637 434  8727
8638 1338 7992
8639 7026 4695
8640 8337 9235
8641 628  8633
8642 7475 7753
8643 8536 5991
8644 7544 9903
8645 764  8483
8646 147  7832
8647 805  8949
8648 4936 2098
8649 7419 7816
8650 7082 8969
8651 8084 4667
8652 8350 8634
8653 7369 8353
8654 572  8887
8655 5372 2665
8656 7559 8196
8657 937  9011
8658 7839 5535
8659 4768 2614
8660 672  8474
8661 563  8243
8662 8103 5839
8663 7441 8288
8664 881  8926
8665 666  8488
8666 685  7976
8667 956  7674
8668 7918 8745
8669 4777 2617
8670 5203 2507
8671 7446 8450
8672 4636 2711
8673 7445 4599
8674 7339 4892
8675 7955 9508
8676 8086 7877
8677 1340 8072
8678 226  8943
8679 7591 9724
8680 8457 9368
8681 8047 9467
8682 7934 5647
8683 8150 5720
8684 8075 5992
8685 442  8349
8686 257  2158
8687 8052 5053
8688 7591 7699
8689 7776 5672
8690 6733 8650
8691 7652 7904
8692 7935 8231
8693 7746 5567
8694 595  3258
8695 7610 8412
8696 1134 7494
8697 7890 9616
8698 8219 4995
8699 8863 4714
8700 4421 2851
8701 6919 7939
8702 739  8290
8703 8486 5066
8704 108  9017
8705 8481 8782
8706 8043 5920
8707 7401 4619
8708 8061 9337
8709 7895 9837
8710 8526 4950
8711 7262 7643
8712 4868 2397
8713 7399 8065
8714 60   8221
8715 4727 2601
8716 7427 7199
8717 566  8329
8718 453  7919
8719 857  8845
8720 7651 9498
8721 4083 1653
8722 187  8128
8723 6958 8298
8724 4532 2553
8725 7679 7943
8726 8561 4806
8727 639  8264
8728 174  3487
8729 7740 8560
8730 7873 5484
8731 643  9249
8732 4068 2586
8733 7771 9386
8734 7910 4652
8735 7529 5094
8736 7986 5537
8737 7971 5583
8738 4572 1892
8739 7629 8184
8740 8047 9748
8741 8257 8038
8742 4617 2916
8743 4920 2739
8744 8025 9413
8745 7756 8389
8746 7905 8018
8747 7204 7895
8748 7589 8442
8749 5039 2862
8750 7108 5387
8751 7766 9982
8752 4302 2902
8753 6895 8049
8754 300  3457
8755 3822 2469
8756 4603 2517
8757 884  8532
8758 4485 3090
8759 7967 9082
8760 7137 8580
8761 59   2783
8762 7663 8261
8763 7701 9659
8764 289  8429
8765 496  3554
8766 9098 6351
8767 146  3389
8768 297  8752
8769 444  7759
8770 8658 6854
8771 268  8989
8772 7876 5802
8773 7440 4682
8774 4823 2495
8775 7004 6576
8776 88   8912
8777 7881 8758
8778 4493 2375
8779 58   3915
8780 7739 5707
8781 383  3288
8782 8817 5614
8783 7795 8521
8784 7744 8303
8785 7630 9438
8786 851  8516
8787 88   2917
8788 5496 3439
8789 502  8206
8790 377  3072
8791 7284 9585
8792 389  8734
8793 544  8225
8794 6147 2169
8795 7690 4510
8796 840  8226
8797 7639 9169
8798 8249 5421
8799 7213 8156
8800 4853 2820
8801 7908 8150
8802 4589 2089
8803 805  7900
8804 7660 8247
8805 1012 2788
8806 344  8374
8807 669  3684
8808 780  8539
8809 7736 8678
8810 4169 3139
8811 7963 5292
8812 7223 8023
8813 8122 8297
8814 4253 1163
8815 7910 4895
8816 7843 9821
8817 7694 8227
8818 5295 2099
8819 7958 5601
8820 710  3674
8821 1441 2177
8822 7991 8985
8823 399  8310
8824 4714 3140
8825 4305 2716
8826 8346 8726
8827 9203 8187
8828 7703 5527
8829 4239 2721
8830 7623 7571
8831 7647 9172
8832 7669 9004
8833 8004 7807
8834 8380 7545
8835 9360 8487
8836 8822 7934
8837 7745 8162
8838 7909 8972
8839 8418 9675
8840 4622 2061
8841 7247 6849
8842 269  2791
8843 5202 3539
8844 8295 8959
8845 7900 9851
8846 7860 5477
8847 7328 8378
8848 4061 1992
8849 7389 5320
8850 7947 5192
8851 521  3043
8852 8704 4550
8853 7870 5712
8854 4357 2326
8855 345  8918
8856 742  3119
8857 465  3089
8858 8460 5595
8859 8662 9807
8860 7945 5820
8861 7759 7164
8862 626  9168
8863 7867 9649
8864 8154 5159
8865 4840 3313
8866 7601 7946
8867 4398 3524
8868 7747 8724
8869 7751 9394
8870 8137 9822
8871 560  3759
8872 741  3936
8873 7782 8922
8874 4543 2314
8875 8131 8174
8876 7099 8157
8877 7167 7019
8878 8205 6148
8879 7359 5648
8880 4515 2490
8881 7943 5533
8882 4360 2681
8883 4395 2192
8884 4292 1660
8885 4360 3245
8886 895  8816
8887 4816 2466
8888 7346 7315
8889 7640 5516
8890 4867 2023
8891 8422 9612
8892 4852 3119
8893 808  4390
8894 4520 2470
8895 9855 5258
8896 4589 2283
8897 8086 4874
8898 146  8406
8899 3663 3073
8900 8338 9522
8901 1560 7980
8902 388  8724
8903 6945 7609
8904 549  9125
8905 7519 5319
8906 257  3918
8907 6304 7114
8908 7739 8997
8909 712  9329
8910 7923 9130
8911 3861 4615
8912 223  3712
8913 77   3306
8914 1768 5272
8915 8724 4761
8916 7653 5266
8917 7596 5011
8918 5038 2572
8919 309  3935
8920 7524 8118
8921 4943 2089
8922 752  8722
8923 7604 7373
8924 7234 4999
8925 7740 9732
8926 5447 2529
8927 7483 7673
8928 7913 5500
8929 241  3639
8930 7490 9454
8931 1835 7844
8932 4583 2668
8933 4985 2533
8934 5216 1555
8935 578  8276
8936 2760 2984
8937 7451 4776
8938 8023 5900
8939 578  8391
8940 288  3478
8941 6769 6920
8942 528  8752
8943 4846 2392
8944 4772 2651
8945 114  3716
8946 7703 9410
8947 7956 5034
8948 538  8863
8949 474  2904
8950 545  8570
8951 7911 7851
8952 7289 8872
8953 7578 8909
8954 8040 5188
8955 7395 4687
8956 259  2978
8957 713  8110
8958 330  2534
8959 7982 6982
8960 4462 2906
8961 372  3945
8962 1109 3089
8963 8127 7900
8964 7784 5336
8965 508  8587
8966 7952 7805
8967 832  8881
8968 4482 2720
8969 8758 4979
8970 4155 3172
8971 7904 9412
8972 107  8847
8973 8137 9509
8974 4127 3082
8975 221  3398
8976 8394 5732
8977 6679 7082
8978 7711 9897
8979 8038 5835
8980 8319 6025
8981 1083 9295
8982 1160 8404
8983 7876 6167
8984 6492 8929
8985 7310 5525
8986 5720 3446
8987 8134 8847
8988 7734 9717
8989 7130 8469
8990 4023 2309
8991 8865 8025
8992 8236 9403
8993 7938 5545
8994 8039 9368
8995 1046 8457
8996 7965 9582
8997 7586 5135
8998 145  3472
8999 8021 9464
9000 358  3374
9001 3787 3039
9002 4181 2105
9003 7577 7819
9004 5092 2761
9005 4719 2617
9006 7662 8115
9007 8245 8930
9008 4416 2278
9009 7192 8150
9010 8251 5699
9011 722  9261
9012 7846 5705
9013 7176 8536
9014 826  8028
9015 7921 5401
9016 4269 2504
9017 7434 7991
9018 7435 8253
9019 8106 4911
9020 712  8275
9021 8083 9593
9022 4568 2657
9023 567  8906
9024 4469 2467
9025 275  3269
9026 379  8424
9027 8172 9578
9028 82   3701
9029 1909 8594
9030 7902 7384
9031 8014 9431
9032 7946 9035
9033 7358 7893
9034 7783 6252
9035 7516 6730
9036 227  2817
9037 7585 9521
9038 4754 2343
9039 7748 8120
9040 44   3375
9041 503  8553
9042 8445 5380
9043 7811 5242
9044 8891 5603
9045 4726 2357
9046 7485 5244
9047 7790 9503
9048 8246 8667
9049 937  2953
9050 997  8184
9051 7679 5782
9052 7831 4853
9053 969  2960
9054 9254 8461
9055 7422 8057
9056 4257 2881
9057 502  7957
9058 7381 8115
9059 7234 8048
9060 7661 5912
9061 4302 2035
9062 1004 8199
9063 8914 4878
9064 5068 2983
9065 7998 5353
9066 7646 8977
9067 5765 1876
9068 596  8521
9069 7906 9991
9070 5027 2735
9071 11   8770
9072 46   8409
9073 7015 8697
9074 7708 5301
9075 4020 3036
9076 469  8191
9077 8027 5736
9078 7342 8180
9079 540  8583
9080 7871 9662
9081 7380 8209
9082 2466 2331
9083 4297 2663
9084 8268 7797
9085 7442 7661
9086 5340 3376
9087 1088 9017
9088 4045 3324
9089 7103 8030
9090 4415 3104
9091 1770 8540
9092 8092 9139
9093 542  8513
9094 5550 2218
9095 7931 9697
9096 4811 2507
9097 4460 2299
9098 7932 6485
9099 568  3128
9100 600  8823
9101 7013 8126
9102 7656 8801
9103 8168 9313
9104 4392 3361
9105 7175 5325
9106 7279 9771
9107 683  3290
9108 496  8661
9109 541  8633
9110 1664 8510
9111 8386 9509
9112 6275 9457
9113 7701 9432
9114 7756 8277
9115 7944 5934
9116 8508 4095
9117 3401 2894
9118 4803 2806
9119 4506 2304
9120 7979 5372
9121 6803 5243
9122 7176 7935
9123 7747 5224
9124 539  3368
9125 8041 9498
9126 7913 6637
9127 191  8316
9128 4898 2376
9129 7532 5286
9130 8117 5406
9131 868  7994
9132 7946 5409
9133 4275 2324
9134 4307 2738
9135 7609 8165
9136 509  8437
9137 8431 5577
9138 8013 5556
9139 8367 9423
9140 458  8542
9141 6994 7555
9142 352  8367
9143 798  8642
9144 8008 5512
9145 1091 9393
9146 7729 7055
9147 3682 2695
9148 473  9426
9149 8081 7773
9150 130  3198
9151 937  2934
9152 416  3495
9153 7715 9269
9154 4905 2577
9155 466  2802
9156 8114 4767
9157 4507 2909
9158 7882 5247
9159 252  3090
9160 7673 9137
9161 634  3095
9162 7920 9694
9163 8235 9533
9164 7380 8646
9165 4450 1624
9166 7330 8261
9167 740  3262
9168 94   1944
9169 7904 5013
9170 5405 3091
9171 7720 9376
9172 63   4123
9173 552  9395
9174 7895 5685
9175 132  8419
9176 7992 5900
9177 6823 8337
9178 7837 7641
9179 8314 9510
9180 301  8298
9181 7948 9814
9182 5    3583
9183 4898 3014
9184 7977 9300
9185 7908 9042
9186 5077 2231
9187 298  8326
9188 3964 2812
9189 4149 1064
9190 4763 2576
9191 7937 9800
9192 4553 2507
9193 8358 4857
9194 529  8109
9195 8099 5390
9196 4981 2644
9197 120  3260
9198 4804 1775
9199 7714 5323
9200 672  7719
9201 8022 8046
9202 6773 7849
9203 1346 7958
9204 7973 7607
9205 8233 8749
9206 4767 2726
9207 654  3013
9208 8370 9540
9209 1322 8562
9210 4202 3599
9211 4441 2509
9212 7837 9676
9213 8867 5651
9214 1747 3126
9215 4300 2480
9216 8971 9938
9217 7746 7909
9218 8338 5310
9219 763  8578
9220 8023 8909
9221 8108 5160
9222 608  3374
9223 7270 7868
9224 7285 8162
9225 6841 7865
9226 4298 2645
9227 7351 8655
9228 6862 7720
9229 7912 7823
9230 767  8232
9231 6    3613
9232 6908 7787
9233 7741 9140
9234 146  3505
9235 8098 9273
9236 8065 8061
9237 59   3401
9238 8516 9797
9239 7729 9602
9240 4563 3010
9241 7965 8194
9242 8513 9417
9243 8008 8657
9244 4170 3548
9245 7867 8131
9246 7482 9330
9247 6976 5697
9248 71   3087
9249 5    8848
9250 7    2855
9251 9230 5920
9252 7610 8196
9253 8371 5047
9254 7952 9843
9255 7656 9392
9256 411  2647
9257 7745 9072
9258 8275 9211
9259 985  3847
9260 8039 9412
9261 432  3201
9262 5145 2971
9263 161  3554
9264 1458 8439
9265 428  8756
9266 7775 8371
9267 7431 5069
9268 7693 5434
9269 7812 9297
9270 521  8535
9271 7450 8328
9272 803  3996
9273 7785 5663
9274 7971 9562
9275 955  9018
9276 7645 5523
9277 736  3056
9278 404  9001
9279 6947 7579
9280 7440 9586
9281 4167 2359
9282 4631 2404
9283 5760 8507
9284 8017 8838
9285 874  9004
9286 4576 2695
9287 4884 2880
9288 7457 9363
9289 136  4189
9290 133  3520
9291 1    3137
9292 8312 5734
9293 332  3404
9294 4578 2676
9295 6762 4185
9296 7045 7571
9297 685  8113
9298 7556 8076
9299 6235 5928
9300 273  8539
9301 3559 3144
9302 684  8405
9303 7649 9813
9304 7866 5016
9305 1049 3133
9306 7099 8820
9307 4370 3567
9308 8040 5174
9309 256  8492
9310 8026 4770
9311 388  9367
9312 602  8429
9313 4566 2530
9314 4456 1729
9315 197  3281
9316 338  8357
9317 4653 2810
9318 5049 2476
9319 7893 5480
9320 9218 9335
9321 4552 2292
9322 7723 9627
9323 7694 5312
9324 7596 7895
9325 7366 5393
9326 7268 7838
9327 8506 7993
9328 7921 9522
9329 4426 3208
9330 815  3533
9331 7678 7706
9332 7384 4924
9333 243  2800
9334 8221 7721
9335 8908 4504
9336 508  8699
9337 4606 2661
9338 753  3087
9339 4635 2330
9340 8397 7426
9341 213  8320
9342 336  3368
9343 7364 5476
9344 7462 8224
9345 7917 5820
9346 4524 2623
9347 384  2987
9348 4902 2476
9349 8470 5665
9350 469  8679
9351 9611 3987
9352 4236 2262
9353 7772 7448
9354 406  8696
9355 4990 1680
9356 8181 8784
9357 8176 5108
9358 7378 8543
9359 326  3158
9360 835  9179
9361 7902 9318
9362 7479 8036
9363 8337 7813
9364 7364 7493
9365 8774 6058
9366 7156 8542
9367 2907 646 
9368 494  7718
9369 7475 9292
9370 8500 8883
9371 4513 2570
9372 409  8279
9373 8313 8848
9374 4370 2329
9375 8128 5236
9376 8343 4561
9377 159  7524
9378 8205 6043
9379 7212 7058
9380 8160 5957
9381 216  8524
9382 412  9421
9383 7583 8665
9384 8011 8760
9385 7997 9871
9386 4297 3480
9387 5071 2329
9388 8749 5924
9389 7094 5178
9390 595  8355
9391 4676 3107
9392 7757 9738
9393 7734 8639
9394 8218 5747
9395 4796 2488
9396 9111 3998
9397 6721 5014
9398 7721 5633
9399 353  8471
9400 7820 8154
9401 7871 7984
9402 4724 2698
9403 25   2900
9404 307  3454
9405 7376 7276
9406 7877 9278
9407 265  3181
9408 7790 9073
9409 9663 5319
9410 7681 6188
9411 7791 7993
9412 6702 7897
9413 7593 9417
9414 7523 7304
9415 815  3858
9416 4414 2968
9417 8805 8611
9418 426  8296
9419 9060 6182
9420 7224 9094
9421 7837 9430
9422 7991 5109
9423 7879 9791
9424 9222 4920
9425 468  8850
9426 8295 7715
9427 386  8499
9428 7854 8901
9429 8412 5264
9430 7558 7942
9431 652  8250
9432 7609 7993
9433 8034 9059
9434 7514 6987
9435 459  9166
9436 7860 8051
9437 7920 5294
9438 529  8786
9439 8010 8392
9440 249  3104
9441 7348 8444
9442 211  3011
9443 382  8741
9444 4382 2821
9445 3803 3208
9446 333  3176
9447 7725 9824
9448 7651 8069
9449 8348 9317
9450 5218 1533
9451 7753 8251
9452 5909 8047
9453 7131 7988
9454 821  8480
9455 7069 9118
9456 699  8136
9457 4138 1792
9458 7863 9165
9459 8089 5444
9460 689  3710
9461 8320 7693
9462 8134 8089
9463 8429 5684
9464 7918 9750
9465 4778 2559
9466 7850 9714
9467 4720 2442
9468 4611 2709
9469 4460 2149
9470 4170 2383
9471 281  3181
9472 842  8046
9473 8320 9380
9474 6904 7915
9475 8065 5440
9476 8201 8473
9477 4445 2704
9478 231  2978
9479 506  3759
9480 7963 5390
9481 7460 8328
9482 6506 9959
9483 238  3378
9484 8418 9620
9485 8108 9528
9486 7214 8315
9487 2838 1277
9488 8471 5069
9489 5177 3190
9490 7971 8187
9491 7676 4947
9492 8112 9676
9493 8181 9241
9494 8268 4942
9495 7883 9445
9496 1408 8782
9497 7498 7430
9498 4052 2378
9499 4578 2637
9500 8418 8950
9501 7467 7534
9502 616  8679
9503 216  3350
9504 9121 9217
9505 634  4089
9506 8137 8141
9507 8084 9879
9508 3865 1778
9509 7625 5686
9510 340  8606
9511 1060 8561
9512 7736 9284
9513 748  9349
9514 511  8343
9515 533  9285
9516 7943 8209
9517 8607 5268
9518 6458 9030
9519 4467 2613
9520 7883 9552
9521 8762 8174
9522 7461 8970
9523 7546 6036
9524 167  7812
9525 7364 9197
9526 4479 3010
9527 733  8675
9528 4272 2092
9529 8319 5277
9530 4849 3082
9531 7588 5782
9532 4651 2553
9533 246  3434
9534 4777 2886
9535 6885 8041
9536 8475 7937
9537 651  8350
9538 4449 2554
9539 7495 8658
9540 8707 8232
9541 171  3360
9542 1083 3327
9543 8649 5752
9544 385  7870
9545 969  8762
9546 583  8079
9547 4657 2570
9548 4035 2784
9549 4427 2492
9550 4517 2354
9551 7597 8485
9552 8022 9230
9553 384  3582
9554 7996 5203
9555 544  3316
9556 4457 2754
9557 636  7990
9558 8764 4532
9559 7918 9795
9560 1284 9044
9561 1088 3164
9562 7818 9541
9563 7589 7889
9564 8899 4651
9565 8813 5629
9566 7615 8994
9567 11   3180
9568 6999 9139
9569 576  8885
9570 9292 4993
9571 4909 2117
9572 7686 6243
9573 255  8140
9574 383  8706
9575 4218 3594
9576 7558 9531
9577 495  8388
9578 7214 7465
9579 777  8691
9580 134  2857
9581 7558 5161
9582 7259 7925
9583 518  3435
9584 8410 5256
9585 7447 6095
9586 4584 2086
9587 8375 5651
9588 1206 8440
9589 8163 5101
9590 422  2634
9591 8210 9476
9592 8238 9952
9593 5030 1912
9594 7949 9811
9595 4033 2428
9596 7309 9802
9597 4528 2604
9598 421  3582
9599 7742 9510
9600 7618 8166
9601 5115 3252
9602 7721 5499
9603 7917 9712
9604 7642 7967
9605 1007 8477
9606 8096 5317
9607 6833 7939
9608 7854 8739
9609 4909 3199
9610 868  9586
9611 8185 9701
9612 588  4198
9613 8323 7848
9614 4531 3097
9615 8382 4830
9616 3952 2521
9617 5427 1239
9618 7503 7633
9619 7119 8502
9620 7730 5731
9621 482  3561
9622 8396 9496
9623 7378 8029
9624 7172 5292
9625 8538 6218
9626 722  2858
9627 8478 5231
9628 7873 7386
9629 539  8388
9630 547  3258
9631 5642 2307
9632 4425 2822
9633 7379 5129
9634 759  8764
9635 4359 2875
9636 7186 4046
9637 821  8585
9638 7589 9498
9639 4474 2564
9640 441  3252
9641 3787 2613
9642 7897 9481
9643 1103 4943
9644 7560 7930
9645 8140 5602
9646 7717 9188
9647 82   2966
9648 633  4241
9649 7985 5098
9650 8280 8134
9651 7958 9836
9652 4492 2761
9653 7252 7962
9654 910  3600
9655 7826 9135
9656 7963 5465
9657 8422 5695
9658 7929 5235
9659 7729 9912
9660 7616 9417
9661 7965 5668
9662 4628 2884
9663 5044 3504
9664 4306 2774
9665 7274 9296
9666 7509 8343
9667 8398 7154
9668 4244 2784
9669 6782 7350
9670 8003 5001
9671 4732 2791
9672 7969 9707
9673 8092 5848
9674 7742 7105
9675 719  2903
9676 6940 5596
9677 5272 3309
9678 7740 8142
9679 492  8912
9680 534  3936
9681 7307 9040
9682 827  8155
9683 1600 8724
9684 1547 9279
9685 7592 9440
9686 103  7911
9687 203  3261
9688 7358 8785
9689 5666 2403
9690 993  8028
9691 6851 8957
9692 4063 3444
9693 678  7418
9694 8684 8259
9695 476  8325
9696 8395 4039
9697 880  3019
9698 175  3412
9699 7864 8613
9700 804  7696
9701 662  9459
9702 7803 7426
9703 7968 9533
9704 7910 9501
9705 7980 9626
9706 9282 7818
9707 7624 9246
9708 716  8331
9709 8210 9919
9710 1109 8620
9711 7495 4776
9712 7770 8271
9713 106  3304
9714 7863 9278
9715 7554 9970
9716 4588 2443
9717 306  8968
9718 932  8788
9719 386  3505
9720 7213 8332
9721 7110 5799
9722 1016 8861
9723 7963 5369
9724 491  7868
9725 4383 2321
9726 7676 7445
9727 538  8680
9728 311  3093
9729 4656 2713
9730 7282 9386
9731 7421 7623
9732 8094 7957
9733 7339 8073
9734 7864 9390
9735 8106 9557
9736 588  8511
9737 4599 3168
9738 8165 9462
9739 405  8593
9740 618  8802
9741 7695 9201
9742 323  3237
9743 3935 2246
9744 8181 5199
9745 6254 5738
9746 8462 8778
9747 7880 5335
9748 220  3447
9749 7483 9779
9750 4193 2386
9751 1107 8673
9752 594  8436
9753 290  2865
9754 426  8834
9755 8133 9444
9756 7487 8966
9757 8149 9743
9758 4205 2659
9759 7617 8005
9760 4617 2782
9761 8492 9803
9762 7334 8081
9763 1751 2919
9764 7566 7997
9765 4238 2678
9766 8086 8323
9767 3800 2824
9768 652  8800
9769 392  3711
9770 4492 2865
9771 692  3313
9772 100  3389
9773 9236 6521
9774 7456 7418
9775 405  2976
9776 581  8166
9777 884  8674
9778 831  8357
9779 357  8494
9780 7015 9331
9781 530  7903
9782 330  8448
9783 7198 7730
9784 269  3734
9785 7626 6148
9786 1320 8375
9787 7906 9471
9788 7847 8763
9789 7755 5376
9790 713  3165
9791 7329 5778
9792 6940 9517
9793 7420 9357
9794 7761 8241
9795 661  8760
9796 272  8631
9797 7404 8184
9798 228  8760
9799 7298 5944
9800 7501 7967
9801 7383 8935
9802 183  9630
9803 5144 2034
9804 4987 2549
9805 4714 2375
9806 7801 7814
9807 7265 7844
9808 7639 9442
9809 382  7569
9810 7792 9499
9811 7529 7730
9812 7807 7459
9813 7232 7522
9814 359  2775
9815 7384 9375
9816 406  2316
9817 8197 9479
9818 7541 9085
9819 1131 7734
9820 65   8453
9821 7628 8004
9822 394  8539
9823 7820 5406
9824 1464 8781
9825 8028 9569
9826 8083 8544
9827 7334 9612
9828 829  2116
9829 8364 6089
9830 845  3765
9831 8130 8029
9832 8618 7083
9833 7917 8579
9834 163  8138
9835 8212 9281
9836 1034 8434
9837 3283 2021
9838 4305 2741
9839 8181 9636
9840 7772 5423
9841 8206 5179
9842 7462 7738
9843 7986 4833
9844 4365 2572
9845 960  9824
9846 756  8793
9847 4634 2167
9848 8230 5963
9849 4278 2895
9850 7705 8044
9851 273  7796
9852 7441 8021
9853 9358 5882
9854 8813 4989
9855 7395 8775
9856 616  8379
9857 4363 1999
9858 7679 5386
9859 7374 5596
9860 7573 5497
9861 7094 8347
9862 6913 8410
9863 1220 8142
9864 599  8579
9865 8244 9319
9866 565  8479
9867 7938 8268
9868 406  3398
9869 7486 8984
9870 7361 8159
9871 7957 9655
9872 4655 2442
9873 8174 5446
9874 868  7799
9875 7844 9311
9876 7328 7990
9877 8984 8606
9878 7864 5992
9879 4709 2086
9880 5031 3032
9881 416  8807
9882 7189 9507
9883 8493 5275
9884 256  8550
9885 4164 2797
9886 1877 746 
9887 178  4339
9888 3976 2257
9889 124  2490
9890 81   3813
9891 6907 8065
9892 4568 2973
9893 41   3150
9894 4108 2964
9895 4730 2586
9896 9375 8142
9897 855  9262
9898 5141 2411
9899 461  2558
9900 549  4130
9901 414  3352
9902 3423 2282
9903 7857 4937
9904 8190 9621
9905 7554 8245
9906 851  8408
9907 708  8503
9908 7799 5473
9909 93   7913
9910 7736 8185
9911 368  8225
9912 7545 7502
9913 264  8572
9914 8326 9371
9915 8382 9523
9916 8001 5024
9917 4562 3107
9918 7614 7854
9919 8576 5134
9920 8144 5032
9921 7133 5269
9922 7914 5787
9923 8312 6679
9924 8277 7691
9925 7418 7626
9926 5301 2193
9927 7629 4225
9928 7812 9448
9929 7427 8672
9930 4578 2504
9931 898  3304
9932 8339 5262
9933 8149 8323
9934 8192 5393
9935 7005 7500
9936 4063 2487
9937 533  8529
9938 720  8376
9939 4288 2781
9940 8044 5672
9941 8164 7996
9942 7673 8154
9943 8119 5091
9944 4751 1643
9945 204  9682
9946 34   3628
9947 8329 9796
9948 873  8831
9949 7460 8286
9950 367  8845
9951 6275 1143
9952 4374 2737
9953 4811 2537
9954 4496 2184
9955 6551 8381
9956 3912 1940
9957 6290 9139
9958 661  2918
9959 671  8256
9960 7425 8323
9961 7449 8197
9962 9012 5428
9963 531  3387
9964 322  3265
9965 524  3441
9966 7636 5862
9967 7282 9737
9968 7641 5192
9969 1587 8833
9970 7898 9817
9971 8051 5362
9972 8179 9264
9973 8207 7796
9974 8376 9489
9975 147  3163
9976 6936 7524
9977 8144 5275
9978 446  8394
9979 4432 2298
9980 7438 8917
9981 7496 7579
9982 7786 5737
9983 4635 2804
9984 503  3665
9985 926  8387
9986 4465 1950
9987 6851 9268
9988 7240 9301
9989 8422 5310
9990 110  2753
9991 7603 9780
9992 411  3196
9993 8853 9454
9994 867  8832
9995 8468 5056
9996 7456 7807
9997 6108 2215
9998 7431 7997
9999 816  8557
10000 7742 5176
10001 140  3080
DEMAND_SECTION
1    0   
2    5   
3    6   
4    8   
5    4   
6    10  
7    3   
8    1   
9    5   
10   10  
11   7   
12   9   
13   7   
14   3   
15   5   
16   8   
17   10  
18   9   
19   10  
20   9   
21   5   
22   7   
23   3   
24   5   
25   7   
26   10  
27   8   
28   8   
29   2   
30   8   
31   9   
32   2   
33   6   
34   5   
35   6   
36   8   
37   5   
38   5   
39   5   
40   8   
41   8   
42   7   
43   7   
44   6   
45   3   
46   6   
47   7   
48   10  
49   1   
50   2   
51   3   
52   3   
53   2   
54   10  
55   1   
56   2   
57   2   
58   1   
59   10  
60   8   
61   3   
62   8   
63   8   
64   4   
65   1   
66   6   
67   9   
68   5   
69   10  
70   9   
71   10  
72   5   
73   4   
74   10  
75   8   
76   8   
77   6   
78   1   
79   1   
80   3   
81   6   
82   3   
83   3   
84   5   
85   9   
86   5   
87   10  
88   5   
89   5   
90   1   
91   4   
92   5   
93   10  
94   4   
95   6   
96   1   
97   1   
98   4   
99   3   
100  4   
101  1   
102  9   
103  5   
104  3   
105  6   
106  4   
107  10  
108  5   
109  1   
110  3   
111  7   
112  4   
113  4   
114  1   
115  8   
116  10  
117  5   
118  8   
119  9   
120  9   
121  8   
122  10  
123  5   
124  1   
125  3   
126  9   
127  9   
128  8   
129  8   
130  10  
131  9   
132  3   
133  2   
134  1   
135  5   
136  2   
137  10  
138  2   
139  2   
140  4   
141  8   
142  9   
143  1   
144  8   
145  10  
146  9   
147  1   
148  5   
149  7   
150  10  
151  9   
152  3   
153  5   
154  6   
155  9   
156  1   
157  9   
158  7   
159  4   
160  9   
161  10  
162  7   
163  4   
164  3   
165  4   
166  5   
167  10  
168  6   
169  2   
170  7   
171  5   
172  1   
173  5   
174  2   
175  1   
176  6   
177  6   
178  9   
179  9   
180  9   
181  2   
182  8   
183  4   
184  8   
185  7   
186  7   
187  10  
188  3   
189  6   
190  7   
191  8   
192  9   
193  1   
194  7   
195  5   
196  8   
197  5   
198  1   
199  7   
200  6   
201  8   
202  1   
203  8   
204  6   
205  1   
206  2   
207  2   
208  1   
209  4   
210  3   
211  9   
212  10  
213  8   
214  1   
215  4   
216  3   
217  2   
218  6   
219  7   
220  3   
221  8   
222  8   
223  4   
224  3   
225  9   
226  8   
227  7   
228  7   
229  9   
230  6   
231  6   
232  1   
233  10  
234  6   
235  4   
236  9   
237  1   
238  3   
239  3   
240  9   
241  10  
242  2   
243  4   
244  9   
245  3   
246  6   
247  2   
248  3   
249  3   
250  2   
251  2   
252  2   
253  8   
254  6   
255  10  
256  10  
257  7   
258  3   
259  4   
260  2   
261  4   
262  6   
263  1   
264  5   
265  4   
266  3   
267  1   
268  3   
269  2   
270  10  
271  10  
272  4   
273  10  
274  3   
275  1   
276  2   
277  4   
278  4   
279  5   
280  9   
281  4   
282  7   
283  5   
284  9   
285  6   
286  10  
287  4   
288  2   
289  1   
290  5   
291  7   
292  4   
293  3   
294  7   
295  7   
296  1   
297  6   
298  7   
299  2   
300  5   
301  6   
302  4   
303  2   
304  8   
305  3   
306  8   
307  8   
308  6   
309  2   
310  8   
311  4   
312  3   
313  6   
314  2   
315  5   
316  2   
317  3   
318  5   
319  3   
320  5   
321  8   
322  6   
323  5   
324  5   
325  10  
326  2   
327  6   
328  9   
329  1   
330  1   
331  3   
332  8   
333  10  
334  5   
335  2   
336  7   
337  9   
338  7   
339  2   
340  7   
341  5   
342  4   
343  8   
344  10  
345  3   
346  1   
347  9   
348  5   
349  1   
350  1   
351  2   
352  3   
353  8   
354  3   
355  7   
356  9   
357  5   
358  8   
359  1   
360  7   
361  2   
362  2   
363  9   
364  6   
365  4   
366  7   
367  7   
368  8   
369  1   
370  6   
371  9   
372  2   
373  5   
374  3   
375  6   
376  6   
377  4   
378  1   
379  7   
380  1   
381  6   
382  2   
383  4   
384  8   
385  4   
386  7   
387  10  
388  10  
389  4   
390  5   
391  9   
392  8   
393  3   
394  5   
395  10  
396  5   
397  3   
398  2   
399  9   
400  9   
401  5   
402  1   
403  6   
404  1   
405  1   
406  2   
407  4   
408  2   
409  8   
410  5   
411  1   
412  4   
413  10  
414  2   
415  8   
416  10  
417  4   
418  9   
419  2   
420  4   
421  9   
422  10  
423  3   
424  6   
425  9   
426  3   
427  6   
428  3   
429  6   
430  5   
431  9   
432  2   
433  8   
434  8   
435  10  
436  1   
437  10  
438  10  
439  7   
440  2   
441  7   
442  1   
443  10  
444  5   
445  8   
446  7   
447  9   
448  4   
449  10  
450  9   
451  5   
452  6   
453  8   
454  4   
455  5   
456  2   
457  4   
458  5   
459  4   
460  6   
461  9   
462  7   
463  9   
464  9   
465  7   
466  2   
467  4   
468  6   
469  9   
470  5   
471  5   
472  1   
473  10  
474  5   
475  8   
476  3   
477  5   
478  7   
479  10  
480  1   
481  9   
482  5   
483  7   
484  8   
485  2   
486  5   
487  3   
488  10  
489  4   
490  10  
491  6   
492  7   
493  9   
494  4   
495  2   
496  4   
497  3   
498  7   
499  5   
500  2   
501  4   
502  10  
503  6   
504  3   
505  9   
506  10  
507  5   
508  3   
509  5   
510  4   
511  8   
512  5   
513  6   
514  6   
515  10  
516  7   
517  3   
518  10  
519  10  
520  7   
521  10  
522  4   
523  9   
524  4   
525  2   
526  7   
527  6   
528  2   
529  8   
530  2   
531  6   
532  2   
533  9   
534  5   
535  7   
536  8   
537  5   
538  2   
539  4   
540  1   
541  1   
542  10  
543  1   
544  5   
545  6   
546  8   
547  8   
548  3   
549  2   
550  3   
551  6   
552  1   
553  7   
554  4   
555  9   
556  1   
557  10  
558  3   
559  3   
560  8   
561  3   
562  6   
563  5   
564  6   
565  9   
566  8   
567  10  
568  4   
569  10  
570  9   
571  3   
572  1   
573  1   
574  9   
575  8   
576  7   
577  6   
578  1   
579  2   
580  2   
581  3   
582  4   
583  10  
584  9   
585  5   
586  3   
587  2   
588  4   
589  10  
590  8   
591  6   
592  10  
593  5   
594  9   
595  9   
596  10  
597  2   
598  3   
599  10  
600  4   
601  9   
602  1   
603  2   
604  2   
605  7   
606  1   
607  3   
608  3   
609  2   
610  4   
611  7   
612  7   
613  7   
614  7   
615  2   
616  10  
617  9   
618  10  
619  5   
620  2   
621  6   
622  2   
623  2   
624  6   
625  10  
626  5   
627  1   
628  10  
629  9   
630  9   
631  1   
632  10  
633  10  
634  2   
635  8   
636  4   
637  9   
638  4   
639  2   
640  10  
641  4   
642  2   
643  6   
644  5   
645  5   
646  8   
647  4   
648  3   
649  7   
650  3   
651  9   
652  5   
653  9   
654  9   
655  9   
656  5   
657  6   
658  10  
659  5   
660  2   
661  7   
662  6   
663  7   
664  2   
665  9   
666  9   
667  2   
668  10  
669  4   
670  3   
671  2   
672  1   
673  10  
674  7   
675  5   
676  2   
677  8   
678  8   
679  5   
680  5   
681  7   
682  1   
683  9   
684  4   
685  7   
686  1   
687  9   
688  3   
689  6   
690  10  
691  7   
692  8   
693  7   
694  10  
695  10  
696  4   
697  3   
698  1   
699  4   
700  3   
701  9   
702  3   
703  3   
704  7   
705  9   
706  1   
707  9   
708  4   
709  4   
710  4   
711  1   
712  10  
713  2   
714  8   
715  7   
716  10  
717  1   
718  4   
719  4   
720  7   
721  2   
722  6   
723  5   
724  8   
725  2   
726  1   
727  3   
728  10  
729  5   
730  10  
731  8   
732  2   
733  7   
734  3   
735  10  
736  6   
737  5   
738  4   
739  1   
740  3   
741  8   
742  5   
743  1   
744  4   
745  5   
746  1   
747  2   
748  1   
749  6   
750  6   
751  4   
752  2   
753  7   
754  4   
755  7   
756  2   
757  3   
758  10  
759  8   
760  3   
761  1   
762  10  
763  6   
764  2   
765  9   
766  1   
767  5   
768  8   
769  7   
770  1   
771  8   
772  7   
773  10  
774  6   
775  3   
776  5   
777  3   
778  2   
779  1   
780  7   
781  7   
782  8   
783  8   
784  2   
785  2   
786  3   
787  6   
788  4   
789  10  
790  2   
791  8   
792  7   
793  9   
794  10  
795  10  
796  1   
797  2   
798  3   
799  5   
800  9   
801  6   
802  6   
803  8   
804  3   
805  9   
806  7   
807  5   
808  1   
809  7   
810  10  
811  8   
812  3   
813  2   
814  1   
815  4   
816  10  
817  6   
818  9   
819  3   
820  5   
821  5   
822  1   
823  8   
824  7   
825  7   
826  4   
827  10  
828  10  
829  6   
830  7   
831  1   
832  5   
833  6   
834  3   
835  8   
836  7   
837  1   
838  4   
839  5   
840  7   
841  3   
842  6   
843  3   
844  10  
845  4   
846  2   
847  9   
848  7   
849  9   
850  8   
851  3   
852  3   
853  3   
854  9   
855  3   
856  10  
857  9   
858  5   
859  3   
860  2   
861  3   
862  1   
863  9   
864  2   
865  1   
866  9   
867  2   
868  6   
869  1   
870  1   
871  2   
872  1   
873  9   
874  4   
875  1   
876  5   
877  3   
878  6   
879  8   
880  4   
881  7   
882  1   
883  1   
884  4   
885  6   
886  3   
887  1   
888  1   
889  6   
890  3   
891  4   
892  4   
893  10  
894  10  
895  5   
896  1   
897  10  
898  8   
899  1   
900  4   
901  8   
902  9   
903  1   
904  9   
905  2   
906  2   
907  7   
908  1   
909  1   
910  8   
911  2   
912  6   
913  7   
914  5   
915  9   
916  4   
917  5   
918  7   
919  9   
920  9   
921  7   
922  2   
923  10  
924  10  
925  2   
926  10  
927  6   
928  8   
929  4   
930  4   
931  5   
932  2   
933  7   
934  3   
935  9   
936  8   
937  8   
938  6   
939  4   
940  9   
941  3   
942  9   
943  7   
944  7   
945  5   
946  2   
947  4   
948  9   
949  6   
950  7   
951  7   
952  9   
953  7   
954  9   
955  8   
956  3   
957  9   
958  8   
959  9   
960  6   
961  7   
962  7   
963  4   
964  7   
965  1   
966  4   
967  9   
968  10  
969  8   
970  3   
971  9   
972  4   
973  7   
974  5   
975  7   
976  2   
977  1   
978  8   
979  2   
980  1   
981  8   
982  2   
983  2   
984  6   
985  10  
986  7   
987  9   
988  8   
989  5   
990  2   
991  5   
992  7   
993  9   
994  2   
995  4   
996  4   
997  3   
998  6   
999  6   
1000 1   
1001 8   
1002 5   
1003 4   
1004 3   
1005 4   
1006 1   
1007 3   
1008 10  
1009 7   
1010 8   
1011 3   
1012 7   
1013 10  
1014 9   
1015 9   
1016 8   
1017 4   
1018 10  
1019 2   
1020 3   
1021 3   
1022 9   
1023 10  
1024 10  
1025 7   
1026 4   
1027 2   
1028 2   
1029 9   
1030 8   
1031 4   
1032 5   
1033 10  
1034 9   
1035 4   
1036 2   
1037 10  
1038 7   
1039 8   
1040 8   
1041 3   
1042 8   
1043 9   
1044 1   
1045 4   
1046 2   
1047 9   
1048 10  
1049 3   
1050 3   
1051 4   
1052 5   
1053 7   
1054 5   
1055 3   
1056 10  
1057 10  
1058 9   
1059 4   
1060 9   
1061 7   
1062 5   
1063 5   
1064 10  
1065 8   
1066 2   
1067 9   
1068 3   
1069 4   
1070 7   
1071 3   
1072 2   
1073 4   
1074 3   
1075 7   
1076 9   
1077 2   
1078 3   
1079 4   
1080 5   
1081 3   
1082 2   
1083 5   
1084 2   
1085 3   
1086 1   
1087 5   
1088 2   
1089 9   
1090 3   
1091 10  
1092 1   
1093 6   
1094 3   
1095 9   
1096 4   
1097 4   
1098 1   
1099 4   
1100 6   
1101 1   
1102 1   
1103 5   
1104 6   
1105 2   
1106 1   
1107 7   
1108 10  
1109 4   
1110 1   
1111 8   
1112 10  
1113 4   
1114 5   
1115 5   
1116 7   
1117 4   
1118 7   
1119 3   
1120 8   
1121 9   
1122 8   
1123 10  
1124 9   
1125 10  
1126 3   
1127 7   
1128 4   
1129 2   
1130 9   
1131 7   
1132 9   
1133 5   
1134 5   
1135 8   
1136 9   
1137 6   
1138 2   
1139 10  
1140 5   
1141 4   
1142 2   
1143 1   
1144 6   
1145 8   
1146 9   
1147 3   
1148 10  
1149 3   
1150 8   
1151 7   
1152 7   
1153 6   
1154 1   
1155 8   
1156 2   
1157 9   
1158 8   
1159 6   
1160 6   
1161 4   
1162 6   
1163 6   
1164 10  
1165 3   
1166 3   
1167 4   
1168 9   
1169 3   
1170 5   
1171 6   
1172 5   
1173 1   
1174 5   
1175 9   
1176 5   
1177 9   
1178 9   
1179 10  
1180 1   
1181 10  
1182 4   
1183 9   
1184 3   
1185 2   
1186 8   
1187 2   
1188 4   
1189 2   
1190 4   
1191 6   
1192 2   
1193 2   
1194 9   
1195 7   
1196 4   
1197 7   
1198 8   
1199 3   
1200 7   
1201 1   
1202 2   
1203 6   
1204 6   
1205 5   
1206 8   
1207 8   
1208 5   
1209 5   
1210 10  
1211 1   
1212 10  
1213 4   
1214 4   
1215 2   
1216 6   
1217 9   
1218 2   
1219 5   
1220 7   
1221 7   
1222 7   
1223 8   
1224 10  
1225 5   
1226 1   
1227 2   
1228 4   
1229 5   
1230 5   
1231 3   
1232 8   
1233 7   
1234 2   
1235 10  
1236 8   
1237 4   
1238 10  
1239 6   
1240 5   
1241 7   
1242 3   
1243 9   
1244 4   
1245 10  
1246 1   
1247 8   
1248 9   
1249 7   
1250 2   
1251 2   
1252 6   
1253 1   
1254 9   
1255 2   
1256 9   
1257 10  
1258 10  
1259 9   
1260 4   
1261 8   
1262 1   
1263 4   
1264 1   
1265 2   
1266 4   
1267 4   
1268 4   
1269 1   
1270 9   
1271 4   
1272 4   
1273 10  
1274 10  
1275 3   
1276 3   
1277 5   
1278 8   
1279 6   
1280 2   
1281 8   
1282 9   
1283 5   
1284 9   
1285 6   
1286 9   
1287 5   
1288 6   
1289 10  
1290 8   
1291 8   
1292 3   
1293 10  
1294 8   
1295 9   
1296 6   
1297 3   
1298 2   
1299 9   
1300 3   
1301 10  
1302 7   
1303 4   
1304 8   
1305 9   
1306 2   
1307 3   
1308 7   
1309 3   
1310 1   
1311 1   
1312 10  
1313 1   
1314 6   
1315 4   
1316 6   
1317 5   
1318 7   
1319 8   
1320 3   
1321 2   
1322 5   
1323 4   
1324 1   
1325 9   
1326 1   
1327 9   
1328 8   
1329 1   
1330 2   
1331 4   
1332 5   
1333 5   
1334 5   
1335 7   
1336 9   
1337 6   
1338 5   
1339 9   
1340 3   
1341 6   
1342 5   
1343 4   
1344 9   
1345 4   
1346 3   
1347 7   
1348 3   
1349 10  
1350 9   
1351 7   
1352 4   
1353 7   
1354 7   
1355 6   
1356 5   
1357 7   
1358 9   
1359 7   
1360 8   
1361 5   
1362 6   
1363 2   
1364 8   
1365 2   
1366 3   
1367 8   
1368 9   
1369 10  
1370 9   
1371 7   
1372 8   
1373 2   
1374 3   
1375 2   
1376 8   
1377 10  
1378 9   
1379 9   
1380 3   
1381 9   
1382 5   
1383 9   
1384 2   
1385 1   
1386 1   
1387 7   
1388 2   
1389 4   
1390 7   
1391 4   
1392 9   
1393 5   
1394 2   
1395 10  
1396 3   
1397 3   
1398 4   
1399 2   
1400 9   
1401 6   
1402 10  
1403 1   
1404 6   
1405 1   
1406 2   
1407 8   
1408 7   
1409 9   
1410 5   
1411 1   
1412 7   
1413 3   
1414 10  
1415 7   
1416 3   
1417 3   
1418 8   
1419 8   
1420 9   
1421 10  
1422 7   
1423 1   
1424 10  
1425 8   
1426 8   
1427 6   
1428 4   
1429 2   
1430 9   
1431 2   
1432 8   
1433 9   
1434 3   
1435 7   
1436 7   
1437 2   
1438 10  
1439 3   
1440 8   
1441 3   
1442 9   
1443 3   
1444 8   
1445 2   
1446 5   
1447 3   
1448 1   
1449 5   
1450 10  
1451 6   
1452 6   
1453 3   
1454 3   
1455 4   
1456 6   
1457 8   
1458 7   
1459 5   
1460 8   
1461 10  
1462 9   
1463 8   
1464 6   
1465 2   
1466 6   
1467 3   
1468 3   
1469 1   
1470 9   
1471 4   
1472 1   
1473 7   
1474 9   
1475 8   
1476 9   
1477 4   
1478 1   
1479 9   
1480 3   
1481 1   
1482 5   
1483 2   
1484 2   
1485 2   
1486 2   
1487 6   
1488 10  
1489 4   
1490 2   
1491 8   
1492 2   
1493 5   
1494 1   
1495 9   
1496 7   
1497 8   
1498 5   
1499 8   
1500 1   
1501 2   
1502 6   
1503 4   
1504 10  
1505 9   
1506 1   
1507 7   
1508 4   
1509 4   
1510 5   
1511 4   
1512 1   
1513 6   
1514 1   
1515 2   
1516 10  
1517 1   
1518 9   
1519 5   
1520 10  
1521 7   
1522 6   
1523 6   
1524 7   
1525 3   
1526 10  
1527 6   
1528 5   
1529 9   
1530 3   
1531 2   
1532 8   
1533 3   
1534 3   
1535 1   
1536 2   
1537 4   
1538 8   
1539 3   
1540 7   
1541 7   
1542 2   
1543 1   
1544 6   
1545 7   
1546 1   
1547 4   
1548 4   
1549 2   
1550 4   
1551 2   
1552 8   
1553 2   
1554 9   
1555 8   
1556 8   
1557 4   
1558 1   
1559 7   
1560 8   
1561 8   
1562 5   
1563 8   
1564 7   
1565 7   
1566 10  
1567 6   
1568 9   
1569 7   
1570 6   
1571 7   
1572 5   
1573 7   
1574 5   
1575 6   
1576 3   
1577 1   
1578 3   
1579 10  
1580 3   
1581 7   
1582 2   
1583 2   
1584 1   
1585 10  
1586 6   
1587 5   
1588 9   
1589 7   
1590 10  
1591 10  
1592 3   
1593 2   
1594 9   
1595 7   
1596 2   
1597 7   
1598 3   
1599 7   
1600 8   
1601 5   
1602 3   
1603 4   
1604 4   
1605 5   
1606 8   
1607 9   
1608 8   
1609 8   
1610 1   
1611 2   
1612 6   
1613 4   
1614 2   
1615 2   
1616 4   
1617 3   
1618 7   
1619 4   
1620 9   
1621 2   
1622 9   
1623 3   
1624 2   
1625 8   
1626 4   
1627 6   
1628 1   
1629 8   
1630 8   
1631 8   
1632 7   
1633 6   
1634 6   
1635 5   
1636 2   
1637 4   
1638 4   
1639 8   
1640 2   
1641 5   
1642 8   
1643 3   
1644 10  
1645 1   
1646 5   
1647 10  
1648 10  
1649 2   
1650 9   
1651 2   
1652 9   
1653 8   
1654 8   
1655 7   
1656 7   
1657 5   
1658 8   
1659 6   
1660 5   
1661 8   
1662 6   
1663 8   
1664 3   
1665 5   
1666 6   
1667 3   
1668 2   
1669 5   
1670 3   
1671 4   
1672 5   
1673 9   
1674 8   
1675 6   
1676 8   
1677 8   
1678 2   
1679 6   
1680 7   
1681 6   
1682 3   
1683 2   
1684 6   
1685 4   
1686 8   
1687 2   
1688 8   
1689 1   
1690 3   
1691 8   
1692 6   
1693 5   
1694 6   
1695 10  
1696 9   
1697 3   
1698 4   
1699 4   
1700 3   
1701 9   
1702 1   
1703 10  
1704 5   
1705 7   
1706 4   
1707 1   
1708 3   
1709 7   
1710 4   
1711 1   
1712 6   
1713 9   
1714 4   
1715 7   
1716 5   
1717 5   
1718 4   
1719 3   
1720 4   
1721 3   
1722 9   
1723 3   
1724 4   
1725 9   
1726 5   
1727 4   
1728 5   
1729 6   
1730 7   
1731 1   
1732 10  
1733 8   
1734 2   
1735 3   
1736 10  
1737 1   
1738 9   
1739 3   
1740 6   
1741 5   
1742 9   
1743 10  
1744 7   
1745 3   
1746 7   
1747 10  
1748 4   
1749 7   
1750 5   
1751 4   
1752 8   
1753 8   
1754 1   
1755 7   
1756 10  
1757 5   
1758 9   
1759 7   
1760 6   
1761 4   
1762 3   
1763 5   
1764 2   
1765 4   
1766 10  
1767 9   
1768 10  
1769 1   
1770 1   
1771 3   
1772 5   
1773 3   
1774 7   
1775 1   
1776 10  
1777 7   
1778 8   
1779 9   
1780 2   
1781 1   
1782 1   
1783 10  
1784 10  
1785 6   
1786 1   
1787 10  
1788 7   
1789 9   
1790 8   
1791 5   
1792 9   
1793 3   
1794 8   
1795 2   
1796 6   
1797 10  
1798 10  
1799 9   
1800 8   
1801 6   
1802 8   
1803 10  
1804 4   
1805 7   
1806 5   
1807 5   
1808 4   
1809 7   
1810 3   
1811 3   
1812 3   
1813 10  
1814 1   
1815 8   
1816 3   
1817 6   
1818 4   
1819 2   
1820 7   
1821 3   
1822 1   
1823 1   
1824 5   
1825 2   
1826 9   
1827 6   
1828 3   
1829 9   
1830 10  
1831 6   
1832 9   
1833 5   
1834 5   
1835 8   
1836 10  
1837 1   
1838 7   
1839 2   
1840 6   
1841 3   
1842 6   
1843 3   
1844 1   
1845 4   
1846 8   
1847 8   
1848 2   
1849 9   
1850 3   
1851 3   
1852 1   
1853 1   
1854 5   
1855 5   
1856 5   
1857 4   
1858 3   
1859 9   
1860 10  
1861 8   
1862 9   
1863 9   
1864 3   
1865 3   
1866 9   
1867 10  
1868 10  
1869 4   
1870 7   
1871 1   
1872 9   
1873 8   
1874 10  
1875 6   
1876 7   
1877 3   
1878 8   
1879 4   
1880 1   
1881 1   
1882 6   
1883 1   
1884 7   
1885 5   
1886 9   
1887 7   
1888 6   
1889 10  
1890 5   
1891 10  
1892 10  
1893 2   
1894 6   
1895 5   
1896 3   
1897 10  
1898 7   
1899 1   
1900 1   
1901 7   
1902 8   
1903 10  
1904 2   
1905 10  
1906 1   
1907 2   
1908 5   
1909 4   
1910 4   
1911 8   
1912 1   
1913 5   
1914 6   
1915 4   
1916 1   
1917 5   
1918 3   
1919 3   
1920 10  
1921 7   
1922 9   
1923 10  
1924 1   
1925 7   
1926 5   
1927 4   
1928 8   
1929 10  
1930 1   
1931 3   
1932 8   
1933 10  
1934 6   
1935 4   
1936 3   
1937 2   
1938 9   
1939 2   
1940 8   
1941 2   
1942 10  
1943 9   
1944 7   
1945 2   
1946 6   
1947 9   
1948 3   
1949 1   
1950 1   
1951 7   
1952 5   
1953 4   
1954 8   
1955 10  
1956 10  
1957 10  
1958 1   
1959 5   
1960 8   
1961 10  
1962 10  
1963 2   
1964 4   
1965 2   
1966 10  
1967 1   
1968 8   
1969 6   
1970 8   
1971 5   
1972 1   
1973 1   
1974 10  
1975 2   
1976 1   
1977 6   
1978 3   
1979 5   
1980 6   
1981 3   
1982 3   
1983 3   
1984 10  
1985 4   
1986 9   
1987 3   
1988 7   
1989 10  
1990 2   
1991 10  
1992 5   
1993 6   
1994 1   
1995 6   
1996 1   
1997 10  
1998 9   
1999 2   
2000 9   
2001 8   
2002 7   
2003 4   
2004 1   
2005 2   
2006 10  
2007 10  
2008 9   
2009 4   
2010 1   
2011 6   
2012 7   
2013 1   
2014 7   
2015 3   
2016 8   
2017 2   
2018 8   
2019 6   
2020 7   
2021 1   
2022 7   
2023 2   
2024 1   
2025 8   
2026 7   
2027 5   
2028 5   
2029 7   
2030 9   
2031 10  
2032 9   
2033 8   
2034 6   
2035 7   
2036 9   
2037 4   
2038 1   
2039 1   
2040 2   
2041 4   
2042 10  
2043 8   
2044 4   
2045 1   
2046 6   
2047 8   
2048 4   
2049 7   
2050 3   
2051 3   
2052 4   
2053 4   
2054 7   
2055 5   
2056 8   
2057 9   
2058 8   
2059 8   
2060 7   
2061 10  
2062 5   
2063 8   
2064 1   
2065 1   
2066 9   
2067 2   
2068 9   
2069 8   
2070 3   
2071 5   
2072 2   
2073 8   
2074 2   
2075 1   
2076 7   
2077 6   
2078 6   
2079 2   
2080 1   
2081 9   
2082 8   
2083 10  
2084 3   
2085 10  
2086 4   
2087 9   
2088 7   
2089 5   
2090 6   
2091 6   
2092 2   
2093 2   
2094 9   
2095 8   
2096 8   
2097 8   
2098 7   
2099 10  
2100 10  
2101 4   
2102 2   
2103 5   
2104 7   
2105 7   
2106 3   
2107 4   
2108 4   
2109 2   
2110 3   
2111 5   
2112 9   
2113 2   
2114 6   
2115 9   
2116 6   
2117 9   
2118 2   
2119 6   
2120 6   
2121 7   
2122 7   
2123 9   
2124 7   
2125 5   
2126 8   
2127 3   
2128 4   
2129 7   
2130 9   
2131 1   
2132 4   
2133 8   
2134 2   
2135 2   
2136 6   
2137 5   
2138 4   
2139 3   
2140 9   
2141 7   
2142 2   
2143 3   
2144 6   
2145 3   
2146 7   
2147 3   
2148 5   
2149 6   
2150 9   
2151 4   
2152 3   
2153 5   
2154 8   
2155 9   
2156 2   
2157 9   
2158 9   
2159 6   
2160 4   
2161 1   
2162 3   
2163 2   
2164 8   
2165 9   
2166 10  
2167 10  
2168 1   
2169 7   
2170 1   
2171 3   
2172 1   
2173 2   
2174 9   
2175 6   
2176 7   
2177 5   
2178 10  
2179 2   
2180 8   
2181 7   
2182 10  
2183 8   
2184 3   
2185 3   
2186 9   
2187 1   
2188 3   
2189 2   
2190 4   
2191 10  
2192 3   
2193 2   
2194 7   
2195 1   
2196 9   
2197 6   
2198 4   
2199 7   
2200 5   
2201 2   
2202 5   
2203 1   
2204 10  
2205 6   
2206 5   
2207 3   
2208 3   
2209 3   
2210 9   
2211 7   
2212 6   
2213 10  
2214 2   
2215 3   
2216 8   
2217 5   
2218 10  
2219 8   
2220 1   
2221 10  
2222 2   
2223 10  
2224 4   
2225 1   
2226 3   
2227 7   
2228 6   
2229 10  
2230 6   
2231 5   
2232 10  
2233 10  
2234 7   
2235 7   
2236 2   
2237 8   
2238 1   
2239 5   
2240 8   
2241 2   
2242 1   
2243 1   
2244 9   
2245 9   
2246 7   
2247 9   
2248 7   
2249 1   
2250 8   
2251 1   
2252 1   
2253 5   
2254 8   
2255 1   
2256 10  
2257 6   
2258 6   
2259 9   
2260 1   
2261 6   
2262 9   
2263 5   
2264 8   
2265 7   
2266 1   
2267 8   
2268 1   
2269 1   
2270 5   
2271 5   
2272 1   
2273 8   
2274 7   
2275 7   
2276 2   
2277 5   
2278 6   
2279 6   
2280 2   
2281 6   
2282 4   
2283 3   
2284 9   
2285 5   
2286 10  
2287 2   
2288 5   
2289 8   
2290 6   
2291 3   
2292 4   
2293 3   
2294 10  
2295 2   
2296 2   
2297 10  
2298 6   
2299 7   
2300 4   
2301 6   
2302 5   
2303 6   
2304 6   
2305 4   
2306 4   
2307 7   
2308 1   
2309 10  
2310 5   
2311 2   
2312 9   
2313 6   
2314 6   
2315 8   
2316 6   
2317 9   
2318 5   
2319 2   
2320 7   
2321 3   
2322 1   
2323 6   
2324 4   
2325 6   
2326 2   
2327 1   
2328 4   
2329 9   
2330 9   
2331 6   
2332 9   
2333 4   
2334 1   
2335 6   
2336 5   
2337 5   
2338 1   
2339 7   
2340 1   
2341 7   
2342 1   
2343 2   
2344 4   
2345 1   
2346 6   
2347 4   
2348 7   
2349 3   
2350 3   
2351 3   
2352 8   
2353 5   
2354 10  
2355 7   
2356 1   
2357 4   
2358 10  
2359 10  
2360 1   
2361 7   
2362 6   
2363 7   
2364 9   
2365 2   
2366 8   
2367 1   
2368 5   
2369 7   
2370 1   
2371 9   
2372 7   
2373 3   
2374 10  
2375 3   
2376 9   
2377 4   
2378 6   
2379 5   
2380 3   
2381 2   
2382 5   
2383 10  
2384 2   
2385 10  
2386 5   
2387 4   
2388 5   
2389 4   
2390 5   
2391 6   
2392 6   
2393 9   
2394 8   
2395 3   
2396 6   
2397 5   
2398 7   
2399 6   
2400 2   
2401 2   
2402 9   
2403 1   
2404 8   
2405 8   
2406 2   
2407 3   
2408 7   
2409 10  
2410 4   
2411 3   
2412 7   
2413 9   
2414 7   
2415 2   
2416 2   
2417 3   
2418 8   
2419 8   
2420 9   
2421 3   
2422 10  
2423 8   
2424 6   
2425 5   
2426 6   
2427 3   
2428 3   
2429 9   
2430 3   
2431 3   
2432 10  
2433 6   
2434 3   
2435 2   
2436 3   
2437 10  
2438 3   
2439 3   
2440 3   
2441 9   
2442 9   
2443 2   
2444 1   
2445 3   
2446 10  
2447 7   
2448 3   
2449 2   
2450 7   
2451 5   
2452 9   
2453 5   
2454 3   
2455 8   
2456 10  
2457 2   
2458 2   
2459 10  
2460 1   
2461 9   
2462 8   
2463 9   
2464 5   
2465 9   
2466 8   
2467 7   
2468 9   
2469 6   
2470 1   
2471 10  
2472 1   
2473 7   
2474 9   
2475 4   
2476 9   
2477 6   
2478 5   
2479 9   
2480 1   
2481 1   
2482 2   
2483 3   
2484 3   
2485 2   
2486 4   
2487 6   
2488 3   
2489 9   
2490 5   
2491 6   
2492 7   
2493 6   
2494 6   
2495 3   
2496 8   
2497 5   
2498 9   
2499 4   
2500 8   
2501 3   
2502 4   
2503 8   
2504 10  
2505 6   
2506 8   
2507 9   
2508 9   
2509 2   
2510 7   
2511 7   
2512 8   
2513 3   
2514 10  
2515 5   
2516 3   
2517 4   
2518 1   
2519 10  
2520 1   
2521 2   
2522 4   
2523 6   
2524 3   
2525 4   
2526 6   
2527 4   
2528 8   
2529 4   
2530 7   
2531 9   
2532 8   
2533 10  
2534 3   
2535 1   
2536 3   
2537 4   
2538 5   
2539 4   
2540 5   
2541 4   
2542 1   
2543 7   
2544 10  
2545 3   
2546 2   
2547 6   
2548 2   
2549 4   
2550 2   
2551 8   
2552 2   
2553 3   
2554 4   
2555 10  
2556 4   
2557 5   
2558 8   
2559 4   
2560 6   
2561 5   
2562 10  
2563 3   
2564 1   
2565 9   
2566 4   
2567 2   
2568 8   
2569 6   
2570 4   
2571 9   
2572 10  
2573 5   
2574 4   
2575 6   
2576 2   
2577 1   
2578 8   
2579 5   
2580 8   
2581 6   
2582 1   
2583 7   
2584 5   
2585 4   
2586 4   
2587 6   
2588 8   
2589 6   
2590 2   
2591 9   
2592 4   
2593 3   
2594 2   
2595 8   
2596 1   
2597 7   
2598 8   
2599 10  
2600 4   
2601 4   
2602 8   
2603 2   
2604 8   
2605 7   
2606 6   
2607 1   
2608 3   
2609 6   
2610 8   
2611 5   
2612 10  
2613 7   
2614 1   
2615 9   
2616 1   
2617 3   
2618 3   
2619 9   
2620 2   
2621 10  
2622 8   
2623 3   
2624 5   
2625 5   
2626 7   
2627 1   
2628 3   
2629 9   
2630 4   
2631 7   
2632 10  
2633 2   
2634 2   
2635 5   
2636 7   
2637 8   
2638 3   
2639 2   
2640 2   
2641 7   
2642 4   
2643 9   
2644 2   
2645 8   
2646 7   
2647 4   
2648 5   
2649 1   
2650 7   
2651 7   
2652 2   
2653 8   
2654 6   
2655 9   
2656 4   
2657 9   
2658 9   
2659 8   
2660 1   
2661 1   
2662 7   
2663 5   
2664 10  
2665 4   
2666 10  
2667 2   
2668 4   
2669 6   
2670 10  
2671 10  
2672 8   
2673 8   
2674 8   
2675 10  
2676 2   
2677 1   
2678 3   
2679 3   
2680 3   
2681 4   
2682 2   
2683 1   
2684 5   
2685 3   
2686 4   
2687 4   
2688 2   
2689 3   
2690 5   
2691 2   
2692 9   
2693 10  
2694 7   
2695 2   
2696 10  
2697 2   
2698 5   
2699 7   
2700 3   
2701 3   
2702 3   
2703 1   
2704 6   
2705 3   
2706 9   
2707 5   
2708 8   
2709 10  
2710 6   
2711 7   
2712 9   
2713 8   
2714 6   
2715 7   
2716 10  
2717 10  
2718 5   
2719 5   
2720 3   
2721 9   
2722 10  
2723 8   
2724 8   
2725 6   
2726 6   
2727 2   
2728 5   
2729 2   
2730 3   
2731 4   
2732 3   
2733 7   
2734 5   
2735 1   
2736 7   
2737 4   
2738 2   
2739 3   
2740 10  
2741 8   
2742 7   
2743 5   
2744 8   
2745 8   
2746 5   
2747 8   
2748 4   
2749 5   
2750 5   
2751 9   
2752 6   
2753 3   
2754 10  
2755 5   
2756 4   
2757 4   
2758 3   
2759 8   
2760 9   
2761 9   
2762 10  
2763 1   
2764 8   
2765 1   
2766 7   
2767 7   
2768 7   
2769 7   
2770 6   
2771 3   
2772 3   
2773 7   
2774 9   
2775 5   
2776 9   
2777 2   
2778 10  
2779 8   
2780 1   
2781 8   
2782 2   
2783 6   
2784 7   
2785 3   
2786 4   
2787 2   
2788 10  
2789 3   
2790 9   
2791 7   
2792 5   
2793 3   
2794 5   
2795 8   
2796 2   
2797 3   
2798 1   
2799 10  
2800 2   
2801 9   
2802 10  
2803 7   
2804 5   
2805 3   
2806 9   
2807 8   
2808 4   
2809 9   
2810 7   
2811 2   
2812 1   
2813 6   
2814 9   
2815 1   
2816 4   
2817 1   
2818 2   
2819 3   
2820 7   
2821 9   
2822 10  
2823 1   
2824 5   
2825 10  
2826 5   
2827 4   
2828 6   
2829 10  
2830 9   
2831 2   
2832 4   
2833 5   
2834 6   
2835 7   
2836 9   
2837 7   
2838 8   
2839 4   
2840 7   
2841 6   
2842 6   
2843 10  
2844 1   
2845 4   
2846 7   
2847 6   
2848 3   
2849 8   
2850 2   
2851 8   
2852 1   
2853 1   
2854 7   
2855 5   
2856 9   
2857 1   
2858 1   
2859 5   
2860 1   
2861 10  
2862 10  
2863 1   
2864 2   
2865 4   
2866 6   
2867 1   
2868 10  
2869 10  
2870 10  
2871 2   
2872 5   
2873 10  
2874 6   
2875 9   
2876 10  
2877 5   
2878 5   
2879 8   
2880 3   
2881 5   
2882 10  
2883 2   
2884 3   
2885 10  
2886 4   
2887 4   
2888 1   
2889 3   
2890 3   
2891 10  
2892 8   
2893 4   
2894 1   
2895 3   
2896 4   
2897 9   
2898 1   
2899 4   
2900 5   
2901 7   
2902 3   
2903 3   
2904 10  
2905 10  
2906 8   
2907 3   
2908 1   
2909 4   
2910 9   
2911 2   
2912 6   
2913 9   
2914 4   
2915 9   
2916 7   
2917 3   
2918 7   
2919 1   
2920 3   
2921 8   
2922 1   
2923 3   
2924 7   
2925 6   
2926 7   
2927 2   
2928 3   
2929 8   
2930 9   
2931 3   
2932 4   
2933 1   
2934 1   
2935 1   
2936 4   
2937 9   
2938 8   
2939 2   
2940 10  
2941 8   
2942 10  
2943 9   
2944 2   
2945 3   
2946 2   
2947 8   
2948 10  
2949 2   
2950 10  
2951 5   
2952 9   
2953 5   
2954 3   
2955 8   
2956 10  
2957 4   
2958 9   
2959 9   
2960 4   
2961 4   
2962 7   
2963 4   
2964 2   
2965 1   
2966 6   
2967 6   
2968 5   
2969 3   
2970 6   
2971 8   
2972 10  
2973 8   
2974 3   
2975 4   
2976 5   
2977 8   
2978 4   
2979 2   
2980 6   
2981 6   
2982 10  
2983 10  
2984 10  
2985 9   
2986 3   
2987 7   
2988 5   
2989 8   
2990 8   
2991 6   
2992 3   
2993 3   
2994 6   
2995 7   
2996 10  
2997 7   
2998 10  
2999 2   
3000 5   
3001 5   
3002 3   
3003 4   
3004 6   
3005 2   
3006 7   
3007 7   
3008 7   
3009 5   
3010 3   
3011 5   
3012 9   
3013 8   
3014 5   
3015 8   
3016 9   
3017 6   
3018 7   
3019 5   
3020 2   
3021 3   
3022 9   
3023 6   
3024 5   
3025 5   
3026 3   
3027 2   
3028 3   
3029 10  
3030 2   
3031 5   
3032 5   
3033 7   
3034 2   
3035 2   
3036 2   
3037 7   
3038 4   
3039 4   
3040 10  
3041 4   
3042 10  
3043 6   
3044 6   
3045 5   
3046 10  
3047 6   
3048 8   
3049 4   
3050 6   
3051 5   
3052 9   
3053 10  
3054 5   
3055 2   
3056 9   
3057 8   
3058 7   
3059 10  
3060 3   
3061 6   
3062 7   
3063 2   
3064 4   
3065 4   
3066 7   
3067 1   
3068 5   
3069 5   
3070 6   
3071 1   
3072 4   
3073 6   
3074 6   
3075 5   
3076 2   
3077 4   
3078 2   
3079 5   
3080 9   
3081 10  
3082 2   
3083 2   
3084 5   
3085 1   
3086 1   
3087 10  
3088 5   
3089 2   
3090 7   
3091 8   
3092 1   
3093 6   
3094 5   
3095 9   
3096 4   
3097 10  
3098 9   
3099 6   
3100 4   
3101 2   
3102 7   
3103 2   
3104 10  
3105 10  
3106 6   
3107 1   
3108 5   
3109 3   
3110 5   
3111 9   
3112 5   
3113 3   
3114 7   
3115 8   
3116 9   
3117 4   
3118 9   
3119 9   
3120 2   
3121 3   
3122 7   
3123 8   
3124 4   
3125 2   
3126 6   
3127 2   
3128 1   
3129 8   
3130 3   
3131 6   
3132 2   
3133 5   
3134 3   
3135 9   
3136 4   
3137 2   
3138 2   
3139 2   
3140 8   
3141 4   
3142 4   
3143 4   
3144 5   
3145 2   
3146 10  
3147 2   
3148 1   
3149 9   
3150 1   
3151 3   
3152 3   
3153 1   
3154 1   
3155 5   
3156 3   
3157 4   
3158 8   
3159 5   
3160 2   
3161 10  
3162 8   
3163 6   
3164 8   
3165 7   
3166 3   
3167 4   
3168 3   
3169 2   
3170 1   
3171 8   
3172 8   
3173 4   
3174 1   
3175 9   
3176 1   
3177 9   
3178 9   
3179 9   
3180 5   
3181 6   
3182 8   
3183 6   
3184 4   
3185 4   
3186 10  
3187 5   
3188 1   
3189 3   
3190 8   
3191 6   
3192 10  
3193 1   
3194 9   
3195 4   
3196 8   
3197 3   
3198 4   
3199 4   
3200 5   
3201 3   
3202 7   
3203 3   
3204 4   
3205 2   
3206 5   
3207 4   
3208 2   
3209 9   
3210 6   
3211 6   
3212 3   
3213 9   
3214 3   
3215 9   
3216 6   
3217 8   
3218 5   
3219 1   
3220 9   
3221 4   
3222 3   
3223 1   
3224 7   
3225 7   
3226 8   
3227 2   
3228 7   
3229 6   
3230 7   
3231 10  
3232 2   
3233 10  
3234 7   
3235 6   
3236 8   
3237 1   
3238 9   
3239 9   
3240 3   
3241 2   
3242 6   
3243 5   
3244 3   
3245 5   
3246 6   
3247 1   
3248 2   
3249 3   
3250 7   
3251 8   
3252 7   
3253 2   
3254 2   
3255 3   
3256 10  
3257 10  
3258 6   
3259 8   
3260 3   
3261 9   
3262 5   
3263 6   
3264 5   
3265 1   
3266 3   
3267 10  
3268 8   
3269 1   
3270 10  
3271 3   
3272 5   
3273 6   
3274 3   
3275 8   
3276 2   
3277 10  
3278 1   
3279 5   
3280 4   
3281 4   
3282 10  
3283 7   
3284 8   
3285 10  
3286 1   
3287 4   
3288 5   
3289 1   
3290 9   
3291 2   
3292 10  
3293 3   
3294 10  
3295 8   
3296 4   
3297 2   
3298 1   
3299 8   
3300 8   
3301 7   
3302 4   
3303 5   
3304 6   
3305 7   
3306 7   
3307 9   
3308 4   
3309 9   
3310 9   
3311 7   
3312 4   
3313 6   
3314 1   
3315 6   
3316 6   
3317 3   
3318 7   
3319 3   
3320 5   
3321 7   
3322 1   
3323 6   
3324 10  
3325 6   
3326 3   
3327 6   
3328 3   
3329 10  
3330 2   
3331 10  
3332 6   
3333 9   
3334 6   
3335 5   
3336 2   
3337 7   
3338 7   
3339 9   
3340 3   
3341 5   
3342 5   
3343 10  
3344 3   
3345 6   
3346 2   
3347 4   
3348 5   
3349 7   
3350 5   
3351 8   
3352 7   
3353 6   
3354 6   
3355 5   
3356 6   
3357 3   
3358 4   
3359 9   
3360 1   
3361 5   
3362 6   
3363 3   
3364 1   
3365 10  
3366 2   
3367 4   
3368 1   
3369 3   
3370 4   
3371 9   
3372 4   
3373 5   
3374 7   
3375 5   
3376 10  
3377 9   
3378 1   
3379 8   
3380 3   
3381 5   
3382 2   
3383 2   
3384 4   
3385 9   
3386 3   
3387 2   
3388 8   
3389 5   
3390 5   
3391 6   
3392 9   
3393 1   
3394 2   
3395 2   
3396 7   
3397 5   
3398 10  
3399 10  
3400 7   
3401 6   
3402 4   
3403 8   
3404 7   
3405 5   
3406 5   
3407 6   
3408 1   
3409 4   
3410 7   
3411 6   
3412 1   
3413 4   
3414 9   
3415 5   
3416 9   
3417 5   
3418 9   
3419 5   
3420 7   
3421 7   
3422 8   
3423 5   
3424 1   
3425 7   
3426 3   
3427 7   
3428 6   
3429 9   
3430 1   
3431 8   
3432 9   
3433 6   
3434 6   
3435 3   
3436 9   
3437 5   
3438 1   
3439 4   
3440 5   
3441 8   
3442 3   
3443 9   
3444 2   
3445 1   
3446 3   
3447 7   
3448 8   
3449 2   
3450 6   
3451 9   
3452 3   
3453 4   
3454 4   
3455 10  
3456 9   
3457 7   
3458 2   
3459 10  
3460 6   
3461 5   
3462 8   
3463 3   
3464 10  
3465 6   
3466 3   
3467 1   
3468 9   
3469 5   
3470 9   
3471 2   
3472 4   
3473 5   
3474 8   
3475 1   
3476 4   
3477 2   
3478 7   
3479 6   
3480 3   
3481 3   
3482 4   
3483 1   
3484 3   
3485 5   
3486 6   
3487 5   
3488 10  
3489 5   
3490 8   
3491 10  
3492 4   
3493 9   
3494 4   
3495 2   
3496 6   
3497 4   
3498 4   
3499 5   
3500 3   
3501 6   
3502 7   
3503 6   
3504 4   
3505 6   
3506 10  
3507 9   
3508 5   
3509 1   
3510 8   
3511 10  
3512 7   
3513 10  
3514 7   
3515 5   
3516 10  
3517 3   
3518 2   
3519 2   
3520 5   
3521 7   
3522 8   
3523 1   
3524 2   
3525 5   
3526 5   
3527 6   
3528 8   
3529 5   
3530 6   
3531 1   
3532 5   
3533 10  
3534 1   
3535 5   
3536 10  
3537 6   
3538 5   
3539 8   
3540 6   
3541 5   
3542 1   
3543 2   
3544 6   
3545 2   
3546 8   
3547 4   
3548 5   
3549 5   
3550 4   
3551 1   
3552 5   
3553 10  
3554 7   
3555 4   
3556 8   
3557 6   
3558 10  
3559 8   
3560 1   
3561 1   
3562 4   
3563 10  
3564 3   
3565 8   
3566 3   
3567 6   
3568 3   
3569 7   
3570 6   
3571 8   
3572 6   
3573 6   
3574 10  
3575 10  
3576 10  
3577 10  
3578 9   
3579 2   
3580 3   
3581 4   
3582 1   
3583 9   
3584 3   
3585 1   
3586 4   
3587 2   
3588 2   
3589 1   
3590 6   
3591 10  
3592 1   
3593 9   
3594 7   
3595 4   
3596 1   
3597 1   
3598 9   
3599 9   
3600 7   
3601 10  
3602 2   
3603 2   
3604 4   
3605 9   
3606 3   
3607 4   
3608 3   
3609 2   
3610 1   
3611 1   
3612 3   
3613 2   
3614 1   
3615 8   
3616 9   
3617 6   
3618 1   
3619 3   
3620 4   
3621 6   
3622 1   
3623 2   
3624 10  
3625 9   
3626 7   
3627 7   
3628 7   
3629 3   
3630 4   
3631 3   
3632 4   
3633 4   
3634 4   
3635 4   
3636 7   
3637 10  
3638 9   
3639 6   
3640 3   
3641 2   
3642 5   
3643 5   
3644 3   
3645 10  
3646 1   
3647 10  
3648 1   
3649 10  
3650 8   
3651 6   
3652 6   
3653 3   
3654 2   
3655 7   
3656 6   
3657 2   
3658 5   
3659 2   
3660 3   
3661 8   
3662 9   
3663 2   
3664 1   
3665 1   
3666 4   
3667 6   
3668 2   
3669 10  
3670 5   
3671 6   
3672 1   
3673 4   
3674 4   
3675 6   
3676 10  
3677 9   
3678 9   
3679 9   
3680 1   
3681 8   
3682 1   
3683 4   
3684 9   
3685 4   
3686 1   
3687 6   
3688 2   
3689 8   
3690 6   
3691 9   
3692 3   
3693 5   
3694 3   
3695 5   
3696 9   
3697 9   
3698 9   
3699 1   
3700 10  
3701 4   
3702 6   
3703 4   
3704 10  
3705 9   
3706 4   
3707 9   
3708 7   
3709 5   
3710 3   
3711 4   
3712 9   
3713 6   
3714 10  
3715 2   
3716 10  
3717 3   
3718 7   
3719 7   
3720 2   
3721 8   
3722 7   
3723 7   
3724 2   
3725 2   
3726 2   
3727 6   
3728 7   
3729 9   
3730 8   
3731 3   
3732 8   
3733 5   
3734 3   
3735 3   
3736 6   
3737 7   
3738 1   
3739 10  
3740 5   
3741 3   
3742 7   
3743 1   
3744 7   
3745 7   
3746 5   
3747 8   
3748 8   
3749 7   
3750 7   
3751 4   
3752 3   
3753 1   
3754 10  
3755 9   
3756 2   
3757 10  
3758 2   
3759 5   
3760 10  
3761 6   
3762 5   
3763 7   
3764 5   
3765 6   
3766 10  
3767 6   
3768 7   
3769 8   
3770 2   
3771 3   
3772 1   
3773 1   
3774 8   
3775 4   
3776 3   
3777 9   
3778 10  
3779 10  
3780 1   
3781 5   
3782 6   
3783 10  
3784 6   
3785 8   
3786 2   
3787 1   
3788 7   
3789 7   
3790 8   
3791 6   
3792 5   
3793 7   
3794 8   
3795 7   
3796 3   
3797 7   
3798 4   
3799 6   
3800 6   
3801 6   
3802 3   
3803 1   
3804 10  
3805 4   
3806 6   
3807 6   
3808 3   
3809 10  
3810 5   
3811 4   
3812 10  
3813 3   
3814 8   
3815 3   
3816 9   
3817 9   
3818 4   
3819 8   
3820 1   
3821 7   
3822 7   
3823 5   
3824 2   
3825 10  
3826 6   
3827 6   
3828 6   
3829 8   
3830 2   
3831 5   
3832 4   
3833 5   
3834 9   
3835 1   
3836 7   
3837 7   
3838 4   
3839 5   
3840 2   
3841 5   
3842 9   
3843 10  
3844 2   
3845 2   
3846 7   
3847 2   
3848 6   
3849 10  
3850 7   
3851 7   
3852 8   
3853 5   
3854 7   
3855 8   
3856 3   
3857 5   
3858 4   
3859 4   
3860 6   
3861 3   
3862 6   
3863 6   
3864 8   
3865 3   
3866 7   
3867 6   
3868 7   
3869 8   
3870 4   
3871 6   
3872 3   
3873 10  
3874 2   
3875 3   
3876 4   
3877 5   
3878 6   
3879 3   
3880 2   
3881 6   
3882 1   
3883 7   
3884 3   
3885 6   
3886 1   
3887 7   
3888 4   
3889 5   
3890 2   
3891 6   
3892 3   
3893 6   
3894 5   
3895 9   
3896 8   
3897 6   
3898 6   
3899 6   
3900 5   
3901 10  
3902 2   
3903 4   
3904 3   
3905 3   
3906 10  
3907 2   
3908 9   
3909 6   
3910 1   
3911 2   
3912 10  
3913 4   
3914 4   
3915 8   
3916 5   
3917 4   
3918 6   
3919 7   
3920 5   
3921 9   
3922 4   
3923 5   
3924 9   
3925 5   
3926 9   
3927 3   
3928 10  
3929 9   
3930 4   
3931 1   
3932 7   
3933 1   
3934 5   
3935 1   
3936 7   
3937 6   
3938 5   
3939 6   
3940 10  
3941 5   
3942 5   
3943 5   
3944 10  
3945 10  
3946 3   
3947 5   
3948 8   
3949 4   
3950 9   
3951 8   
3952 7   
3953 10  
3954 1   
3955 6   
3956 7   
3957 5   
3958 5   
3959 2   
3960 4   
3961 9   
3962 10  
3963 2   
3964 10  
3965 9   
3966 5   
3967 9   
3968 7   
3969 2   
3970 2   
3971 1   
3972 4   
3973 6   
3974 2   
3975 10  
3976 4   
3977 6   
3978 10  
3979 3   
3980 1   
3981 6   
3982 4   
3983 7   
3984 6   
3985 1   
3986 6   
3987 5   
3988 4   
3989 1   
3990 5   
3991 10  
3992 10  
3993 7   
3994 2   
3995 2   
3996 8   
3997 1   
3998 3   
3999 4   
4000 7   
4001 3   
4002 8   
4003 2   
4004 4   
4005 5   
4006 1   
4007 5   
4008 3   
4009 7   
4010 6   
4011 9   
4012 9   
4013 8   
4014 4   
4015 5   
4016 1   
4017 9   
4018 1   
4019 5   
4020 2   
4021 7   
4022 5   
4023 2   
4024 3   
4025 4   
4026 9   
4027 1   
4028 1   
4029 2   
4030 7   
4031 6   
4032 1   
4033 8   
4034 7   
4035 8   
4036 6   
4037 2   
4038 4   
4039 9   
4040 7   
4041 9   
4042 7   
4043 5   
4044 9   
4045 3   
4046 3   
4047 8   
4048 3   
4049 7   
4050 2   
4051 3   
4052 10  
4053 10  
4054 1   
4055 6   
4056 8   
4057 1   
4058 7   
4059 7   
4060 1   
4061 9   
4062 1   
4063 10  
4064 2   
4065 2   
4066 9   
4067 9   
4068 5   
4069 1   
4070 4   
4071 1   
4072 10  
4073 9   
4074 2   
4075 10  
4076 6   
4077 4   
4078 3   
4079 4   
4080 5   
4081 9   
4082 10  
4083 2   
4084 6   
4085 9   
4086 5   
4087 8   
4088 2   
4089 5   
4090 4   
4091 2   
4092 3   
4093 6   
4094 10  
4095 9   
4096 6   
4097 3   
4098 2   
4099 4   
4100 8   
4101 5   
4102 10  
4103 10  
4104 9   
4105 6   
4106 9   
4107 1   
4108 4   
4109 4   
4110 5   
4111 1   
4112 7   
4113 9   
4114 4   
4115 10  
4116 9   
4117 5   
4118 8   
4119 5   
4120 6   
4121 6   
4122 1   
4123 5   
4124 10  
4125 10  
4126 3   
4127 1   
4128 7   
4129 8   
4130 3   
4131 1   
4132 6   
4133 2   
4134 2   
4135 9   
4136 10  
4137 10  
4138 6   
4139 9   
4140 7   
4141 8   
4142 8   
4143 7   
4144 4   
4145 4   
4146 6   
4147 7   
4148 2   
4149 6   
4150 4   
4151 7   
4152 6   
4153 6   
4154 5   
4155 5   
4156 7   
4157 9   
4158 9   
4159 7   
4160 4   
4161 9   
4162 2   
4163 9   
4164 10  
4165 5   
4166 10  
4167 5   
4168 7   
4169 5   
4170 1   
4171 6   
4172 3   
4173 10  
4174 9   
4175 4   
4176 6   
4177 7   
4178 7   
4179 6   
4180 5   
4181 10  
4182 9   
4183 5   
4184 4   
4185 1   
4186 2   
4187 2   
4188 9   
4189 3   
4190 7   
4191 9   
4192 6   
4193 5   
4194 3   
4195 3   
4196 2   
4197 7   
4198 2   
4199 9   
4200 7   
4201 8   
4202 5   
4203 7   
4204 3   
4205 6   
4206 10  
4207 2   
4208 1   
4209 8   
4210 9   
4211 9   
4212 7   
4213 4   
4214 10  
4215 10  
4216 9   
4217 5   
4218 8   
4219 5   
4220 10  
4221 10  
4222 6   
4223 5   
4224 1   
4225 5   
4226 10  
4227 10  
4228 9   
4229 4   
4230 7   
4231 10  
4232 6   
4233 1   
4234 3   
4235 1   
4236 7   
4237 2   
4238 6   
4239 2   
4240 3   
4241 8   
4242 2   
4243 2   
4244 1   
4245 4   
4246 7   
4247 10  
4248 4   
4249 7   
4250 7   
4251 2   
4252 6   
4253 8   
4254 10  
4255 3   
4256 5   
4257 6   
4258 6   
4259 9   
4260 5   
4261 3   
4262 1   
4263 7   
4264 4   
4265 7   
4266 6   
4267 1   
4268 8   
4269 10  
4270 4   
4271 5   
4272 8   
4273 7   
4274 2   
4275 4   
4276 1   
4277 9   
4278 5   
4279 1   
4280 3   
4281 2   
4282 3   
4283 3   
4284 9   
4285 1   
4286 9   
4287 3   
4288 5   
4289 4   
4290 8   
4291 9   
4292 8   
4293 8   
4294 9   
4295 9   
4296 10  
4297 5   
4298 6   
4299 1   
4300 8   
4301 4   
4302 4   
4303 8   
4304 9   
4305 7   
4306 3   
4307 6   
4308 10  
4309 8   
4310 2   
4311 3   
4312 8   
4313 4   
4314 8   
4315 1   
4316 1   
4317 1   
4318 2   
4319 8   
4320 4   
4321 2   
4322 9   
4323 10  
4324 1   
4325 2   
4326 10  
4327 3   
4328 8   
4329 2   
4330 6   
4331 10  
4332 8   
4333 10  
4334 9   
4335 3   
4336 4   
4337 1   
4338 6   
4339 1   
4340 6   
4341 10  
4342 3   
4343 6   
4344 3   
4345 9   
4346 5   
4347 6   
4348 9   
4349 5   
4350 6   
4351 8   
4352 10  
4353 5   
4354 7   
4355 7   
4356 6   
4357 9   
4358 6   
4359 9   
4360 1   
4361 5   
4362 2   
4363 6   
4364 9   
4365 7   
4366 9   
4367 10  
4368 9   
4369 10  
4370 2   
4371 6   
4372 9   
4373 5   
4374 10  
4375 5   
4376 4   
4377 2   
4378 7   
4379 6   
4380 6   
4381 6   
4382 4   
4383 5   
4384 6   
4385 10  
4386 6   
4387 9   
4388 2   
4389 8   
4390 1   
4391 1   
4392 10  
4393 6   
4394 4   
4395 4   
4396 6   
4397 3   
4398 6   
4399 5   
4400 10  
4401 2   
4402 4   
4403 9   
4404 2   
4405 5   
4406 2   
4407 9   
4408 2   
4409 2   
4410 8   
4411 6   
4412 8   
4413 2   
4414 10  
4415 7   
4416 5   
4417 4   
4418 7   
4419 4   
4420 8   
4421 9   
4422 3   
4423 8   
4424 1   
4425 6   
4426 7   
4427 5   
4428 10  
4429 4   
4430 10  
4431 6   
4432 9   
4433 7   
4434 7   
4435 1   
4436 4   
4437 6   
4438 5   
4439 9   
4440 5   
4441 1   
4442 5   
4443 4   
4444 10  
4445 4   
4446 6   
4447 3   
4448 2   
4449 4   
4450 1   
4451 5   
4452 6   
4453 6   
4454 3   
4455 6   
4456 7   
4457 10  
4458 5   
4459 5   
4460 2   
4461 4   
4462 5   
4463 4   
4464 2   
4465 8   
4466 4   
4467 7   
4468 5   
4469 7   
4470 4   
4471 1   
4472 1   
4473 5   
4474 2   
4475 6   
4476 3   
4477 9   
4478 8   
4479 9   
4480 8   
4481 1   
4482 8   
4483 7   
4484 8   
4485 10  
4486 9   
4487 9   
4488 2   
4489 10  
4490 7   
4491 1   
4492 9   
4493 3   
4494 10  
4495 9   
4496 4   
4497 4   
4498 3   
4499 6   
4500 10  
4501 1   
4502 9   
4503 1   
4504 1   
4505 7   
4506 1   
4507 1   
4508 7   
4509 3   
4510 1   
4511 5   
4512 7   
4513 9   
4514 3   
4515 2   
4516 8   
4517 9   
4518 7   
4519 3   
4520 8   
4521 8   
4522 6   
4523 8   
4524 10  
4525 1   
4526 8   
4527 3   
4528 6   
4529 7   
4530 4   
4531 8   
4532 6   
4533 9   
4534 6   
4535 1   
4536 6   
4537 2   
4538 5   
4539 8   
4540 2   
4541 7   
4542 8   
4543 3   
4544 6   
4545 5   
4546 10  
4547 2   
4548 4   
4549 4   
4550 3   
4551 9   
4552 3   
4553 6   
4554 7   
4555 6   
4556 3   
4557 10  
4558 6   
4559 10  
4560 6   
4561 9   
4562 2   
4563 5   
4564 7   
4565 5   
4566 1   
4567 10  
4568 1   
4569 6   
4570 4   
4571 1   
4572 3   
4573 9   
4574 9   
4575 3   
4576 4   
4577 5   
4578 2   
4579 7   
4580 3   
4581 7   
4582 7   
4583 2   
4584 5   
4585 7   
4586 9   
4587 8   
4588 3   
4589 8   
4590 3   
4591 10  
4592 4   
4593 3   
4594 9   
4595 7   
4596 4   
4597 4   
4598 4   
4599 6   
4600 5   
4601 4   
4602 10  
4603 4   
4604 5   
4605 6   
4606 8   
4607 4   
4608 1   
4609 6   
4610 1   
4611 1   
4612 7   
4613 6   
4614 9   
4615 10  
4616 5   
4617 5   
4618 9   
4619 4   
4620 4   
4621 8   
4622 6   
4623 7   
4624 7   
4625 4   
4626 9   
4627 8   
4628 9   
4629 1   
4630 10  
4631 7   
4632 4   
4633 4   
4634 2   
4635 3   
4636 9   
4637 10  
4638 10  
4639 1   
4640 4   
4641 10  
4642 4   
4643 4   
4644 3   
4645 7   
4646 7   
4647 10  
4648 7   
4649 5   
4650 5   
4651 1   
4652 6   
4653 10  
4654 1   
4655 10  
4656 9   
4657 2   
4658 10  
4659 6   
4660 3   
4661 2   
4662 2   
4663 2   
4664 2   
4665 5   
4666 1   
4667 2   
4668 6   
4669 5   
4670 5   
4671 9   
4672 1   
4673 3   
4674 6   
4675 9   
4676 5   
4677 6   
4678 4   
4679 9   
4680 1   
4681 4   
4682 6   
4683 4   
4684 3   
4685 9   
4686 4   
4687 3   
4688 5   
4689 4   
4690 3   
4691 10  
4692 9   
4693 10  
4694 4   
4695 5   
4696 2   
4697 4   
4698 6   
4699 2   
4700 7   
4701 6   
4702 9   
4703 2   
4704 2   
4705 9   
4706 7   
4707 2   
4708 10  
4709 7   
4710 2   
4711 9   
4712 9   
4713 2   
4714 2   
4715 5   
4716 4   
4717 8   
4718 1   
4719 2   
4720 6   
4721 8   
4722 7   
4723 9   
4724 8   
4725 6   
4726 6   
4727 2   
4728 3   
4729 1   
4730 2   
4731 9   
4732 8   
4733 5   
4734 10  
4735 7   
4736 10  
4737 9   
4738 1   
4739 2   
4740 4   
4741 2   
4742 6   
4743 10  
4744 5   
4745 3   
4746 6   
4747 5   
4748 8   
4749 8   
4750 4   
4751 9   
4752 4   
4753 9   
4754 7   
4755 4   
4756 4   
4757 10  
4758 10  
4759 2   
4760 5   
4761 2   
4762 8   
4763 9   
4764 3   
4765 8   
4766 9   
4767 4   
4768 7   
4769 6   
4770 10  
4771 4   
4772 4   
4773 4   
4774 9   
4775 8   
4776 3   
4777 1   
4778 10  
4779 2   
4780 4   
4781 7   
4782 8   
4783 5   
4784 2   
4785 6   
4786 1   
4787 10  
4788 1   
4789 2   
4790 8   
4791 1   
4792 9   
4793 10  
4794 7   
4795 7   
4796 10  
4797 6   
4798 10  
4799 6   
4800 2   
4801 5   
4802 6   
4803 6   
4804 4   
4805 4   
4806 5   
4807 4   
4808 5   
4809 3   
4810 1   
4811 6   
4812 4   
4813 9   
4814 10  
4815 10  
4816 3   
4817 4   
4818 7   
4819 3   
4820 4   
4821 9   
4822 5   
4823 2   
4824 3   
4825 4   
4826 1   
4827 10  
4828 1   
4829 4   
4830 1   
4831 5   
4832 8   
4833 9   
4834 6   
4835 3   
4836 4   
4837 6   
4838 3   
4839 7   
4840 10  
4841 3   
4842 6   
4843 10  
4844 3   
4845 3   
4846 9   
4847 6   
4848 3   
4849 10  
4850 7   
4851 8   
4852 8   
4853 4   
4854 4   
4855 6   
4856 6   
4857 2   
4858 7   
4859 10  
4860 8   
4861 1   
4862 7   
4863 2   
4864 9   
4865 2   
4866 5   
4867 3   
4868 4   
4869 6   
4870 5   
4871 6   
4872 4   
4873 4   
4874 6   
4875 6   
4876 5   
4877 1   
4878 1   
4879 2   
4880 7   
4881 7   
4882 1   
4883 7   
4884 1   
4885 4   
4886 10  
4887 8   
4888 6   
4889 4   
4890 3   
4891 3   
4892 1   
4893 7   
4894 9   
4895 3   
4896 5   
4897 10  
4898 5   
4899 1   
4900 9   
4901 6   
4902 4   
4903 4   
4904 1   
4905 1   
4906 5   
4907 7   
4908 9   
4909 7   
4910 4   
4911 5   
4912 5   
4913 6   
4914 3   
4915 3   
4916 2   
4917 9   
4918 3   
4919 4   
4920 6   
4921 6   
4922 2   
4923 6   
4924 3   
4925 5   
4926 4   
4927 8   
4928 7   
4929 8   
4930 9   
4931 5   
4932 10  
4933 7   
4934 7   
4935 5   
4936 6   
4937 2   
4938 6   
4939 4   
4940 7   
4941 10  
4942 7   
4943 2   
4944 6   
4945 8   
4946 9   
4947 2   
4948 7   
4949 7   
4950 1   
4951 2   
4952 9   
4953 9   
4954 6   
4955 9   
4956 9   
4957 4   
4958 9   
4959 4   
4960 2   
4961 1   
4962 9   
4963 1   
4964 8   
4965 6   
4966 1   
4967 7   
4968 8   
4969 4   
4970 5   
4971 8   
4972 10  
4973 1   
4974 3   
4975 4   
4976 9   
4977 6   
4978 7   
4979 7   
4980 1   
4981 10  
4982 9   
4983 4   
4984 3   
4985 2   
4986 3   
4987 1   
4988 3   
4989 8   
4990 3   
4991 4   
4992 3   
4993 3   
4994 8   
4995 5   
4996 10  
4997 10  
4998 8   
4999 9   
5000 5   
5001 3   
5002 10  
5003 7   
5004 4   
5005 4   
5006 5   
5007 2   
5008 9   
5009 3   
5010 2   
5011 5   
5012 1   
5013 3   
5014 10  
5015 7   
5016 1   
5017 8   
5018 9   
5019 7   
5020 8   
5021 5   
5022 8   
5023 7   
5024 1   
5025 3   
5026 5   
5027 6   
5028 4   
5029 6   
5030 5   
5031 1   
5032 1   
5033 2   
5034 9   
5035 5   
5036 7   
5037 3   
5038 4   
5039 6   
5040 6   
5041 9   
5042 7   
5043 7   
5044 3   
5045 2   
5046 8   
5047 1   
5048 2   
5049 5   
5050 7   
5051 7   
5052 8   
5053 2   
5054 8   
5055 3   
5056 4   
5057 7   
5058 5   
5059 7   
5060 4   
5061 9   
5062 1   
5063 4   
5064 2   
5065 5   
5066 5   
5067 8   
5068 9   
5069 10  
5070 2   
5071 7   
5072 6   
5073 7   
5074 3   
5075 2   
5076 1   
5077 6   
5078 8   
5079 4   
5080 1   
5081 2   
5082 10  
5083 8   
5084 10  
5085 9   
5086 8   
5087 1   
5088 2   
5089 6   
5090 5   
5091 7   
5092 1   
5093 1   
5094 4   
5095 1   
5096 9   
5097 4   
5098 3   
5099 6   
5100 8   
5101 6   
5102 5   
5103 3   
5104 10  
5105 2   
5106 2   
5107 6   
5108 1   
5109 9   
5110 3   
5111 8   
5112 5   
5113 6   
5114 9   
5115 9   
5116 2   
5117 9   
5118 10  
5119 9   
5120 6   
5121 7   
5122 6   
5123 7   
5124 8   
5125 4   
5126 7   
5127 1   
5128 9   
5129 3   
5130 4   
5131 6   
5132 7   
5133 3   
5134 8   
5135 9   
5136 8   
5137 3   
5138 1   
5139 7   
5140 5   
5141 10  
5142 2   
5143 2   
5144 9   
5145 3   
5146 9   
5147 3   
5148 3   
5149 7   
5150 9   
5151 10  
5152 8   
5153 7   
5154 8   
5155 3   
5156 9   
5157 8   
5158 10  
5159 2   
5160 2   
5161 5   
5162 3   
5163 9   
5164 3   
5165 7   
5166 4   
5167 9   
5168 8   
5169 3   
5170 4   
5171 9   
5172 1   
5173 3   
5174 2   
5175 4   
5176 2   
5177 8   
5178 4   
5179 1   
5180 2   
5181 3   
5182 6   
5183 4   
5184 7   
5185 5   
5186 4   
5187 8   
5188 4   
5189 9   
5190 3   
5191 9   
5192 8   
5193 1   
5194 6   
5195 9   
5196 10  
5197 5   
5198 1   
5199 8   
5200 5   
5201 2   
5202 1   
5203 6   
5204 7   
5205 5   
5206 10  
5207 3   
5208 7   
5209 2   
5210 9   
5211 5   
5212 1   
5213 1   
5214 3   
5215 2   
5216 10  
5217 7   
5218 9   
5219 6   
5220 8   
5221 2   
5222 2   
5223 10  
5224 5   
5225 1   
5226 5   
5227 5   
5228 2   
5229 10  
5230 3   
5231 2   
5232 10  
5233 8   
5234 1   
5235 6   
5236 10  
5237 10  
5238 9   
5239 9   
5240 5   
5241 3   
5242 3   
5243 8   
5244 10  
5245 1   
5246 10  
5247 1   
5248 4   
5249 2   
5250 8   
5251 5   
5252 3   
5253 8   
5254 9   
5255 1   
5256 3   
5257 6   
5258 8   
5259 7   
5260 3   
5261 10  
5262 6   
5263 3   
5264 4   
5265 1   
5266 5   
5267 5   
5268 6   
5269 4   
5270 6   
5271 9   
5272 6   
5273 9   
5274 8   
5275 9   
5276 7   
5277 1   
5278 1   
5279 1   
5280 1   
5281 10  
5282 9   
5283 1   
5284 10  
5285 6   
5286 1   
5287 4   
5288 10  
5289 7   
5290 4   
5291 2   
5292 1   
5293 2   
5294 6   
5295 2   
5296 10  
5297 8   
5298 5   
5299 6   
5300 7   
5301 1   
5302 8   
5303 2   
5304 6   
5305 6   
5306 1   
5307 8   
5308 9   
5309 4   
5310 7   
5311 1   
5312 9   
5313 10  
5314 5   
5315 3   
5316 4   
5317 6   
5318 2   
5319 6   
5320 3   
5321 8   
5322 7   
5323 10  
5324 6   
5325 5   
5326 2   
5327 4   
5328 9   
5329 8   
5330 2   
5331 8   
5332 3   
5333 8   
5334 3   
5335 1   
5336 8   
5337 8   
5338 5   
5339 5   
5340 2   
5341 8   
5342 7   
5343 1   
5344 4   
5345 8   
5346 6   
5347 3   
5348 2   
5349 7   
5350 6   
5351 7   
5352 6   
5353 10  
5354 6   
5355 5   
5356 6   
5357 8   
5358 1   
5359 7   
5360 10  
5361 6   
5362 3   
5363 5   
5364 2   
5365 10  
5366 5   
5367 1   
5368 1   
5369 8   
5370 8   
5371 6   
5372 9   
5373 8   
5374 6   
5375 6   
5376 1   
5377 5   
5378 2   
5379 10  
5380 6   
5381 4   
5382 4   
5383 6   
5384 5   
5385 6   
5386 3   
5387 2   
5388 8   
5389 5   
5390 6   
5391 2   
5392 5   
5393 10  
5394 6   
5395 5   
5396 3   
5397 10  
5398 4   
5399 2   
5400 5   
5401 4   
5402 6   
5403 2   
5404 4   
5405 5   
5406 8   
5407 8   
5408 4   
5409 4   
5410 6   
5411 9   
5412 6   
5413 5   
5414 7   
5415 7   
5416 9   
5417 10  
5418 5   
5419 8   
5420 7   
5421 10  
5422 8   
5423 10  
5424 4   
5425 7   
5426 10  
5427 6   
5428 4   
5429 9   
5430 8   
5431 3   
5432 3   
5433 7   
5434 10  
5435 8   
5436 7   
5437 3   
5438 10  
5439 8   
5440 8   
5441 8   
5442 10  
5443 7   
5444 1   
5445 1   
5446 3   
5447 8   
5448 6   
5449 6   
5450 1   
5451 10  
5452 10  
5453 8   
5454 3   
5455 2   
5456 9   
5457 2   
5458 2   
5459 1   
5460 4   
5461 4   
5462 3   
5463 6   
5464 7   
5465 3   
5466 2   
5467 8   
5468 7   
5469 2   
5470 10  
5471 4   
5472 10  
5473 5   
5474 1   
5475 1   
5476 2   
5477 8   
5478 3   
5479 7   
5480 3   
5481 4   
5482 4   
5483 9   
5484 4   
5485 2   
5486 6   
5487 6   
5488 7   
5489 5   
5490 7   
5491 3   
5492 8   
5493 3   
5494 4   
5495 8   
5496 8   
5497 4   
5498 4   
5499 8   
5500 4   
5501 8   
5502 4   
5503 8   
5504 10  
5505 4   
5506 9   
5507 5   
5508 6   
5509 5   
5510 5   
5511 6   
5512 5   
5513 10  
5514 8   
5515 2   
5516 8   
5517 6   
5518 6   
5519 3   
5520 8   
5521 2   
5522 7   
5523 7   
5524 8   
5525 5   
5526 6   
5527 2   
5528 10  
5529 7   
5530 8   
5531 3   
5532 9   
5533 5   
5534 3   
5535 4   
5536 7   
5537 6   
5538 5   
5539 10  
5540 4   
5541 1   
5542 8   
5543 10  
5544 8   
5545 5   
5546 4   
5547 7   
5548 7   
5549 9   
5550 4   
5551 8   
5552 4   
5553 9   
5554 9   
5555 3   
5556 10  
5557 7   
5558 5   
5559 8   
5560 8   
5561 2   
5562 3   
5563 2   
5564 4   
5565 1   
5566 10  
5567 9   
5568 5   
5569 7   
5570 10  
5571 7   
5572 8   
5573 8   
5574 7   
5575 1   
5576 7   
5577 2   
5578 3   
5579 1   
5580 3   
5581 10  
5582 9   
5583 2   
5584 2   
5585 1   
5586 6   
5587 5   
5588 1   
5589 4   
5590 8   
5591 9   
5592 1   
5593 2   
5594 1   
5595 10  
5596 3   
5597 4   
5598 8   
5599 2   
5600 3   
5601 2   
5602 5   
5603 5   
5604 6   
5605 7   
5606 9   
5607 9   
5608 6   
5609 9   
5610 7   
5611 5   
5612 1   
5613 6   
5614 4   
5615 5   
5616 1   
5617 7   
5618 5   
5619 6   
5620 6   
5621 7   
5622 1   
5623 4   
5624 7   
5625 6   
5626 2   
5627 1   
5628 9   
5629 8   
5630 9   
5631 6   
5632 6   
5633 7   
5634 6   
5635 7   
5636 3   
5637 5   
5638 4   
5639 9   
5640 6   
5641 5   
5642 1   
5643 3   
5644 5   
5645 3   
5646 7   
5647 10  
5648 5   
5649 5   
5650 9   
5651 6   
5652 7   
5653 3   
5654 1   
5655 9   
5656 8   
5657 7   
5658 6   
5659 6   
5660 8   
5661 6   
5662 8   
5663 9   
5664 6   
5665 4   
5666 3   
5667 10  
5668 7   
5669 8   
5670 8   
5671 5   
5672 9   
5673 10  
5674 1   
5675 2   
5676 6   
5677 1   
5678 1   
5679 7   
5680 1   
5681 2   
5682 7   
5683 7   
5684 3   
5685 4   
5686 3   
5687 5   
5688 4   
5689 8   
5690 9   
5691 2   
5692 3   
5693 2   
5694 5   
5695 6   
5696 8   
5697 4   
5698 9   
5699 10  
5700 1   
5701 3   
5702 9   
5703 1   
5704 1   
5705 2   
5706 3   
5707 2   
5708 3   
5709 1   
5710 8   
5711 8   
5712 9   
5713 6   
5714 7   
5715 1   
5716 8   
5717 7   
5718 5   
5719 3   
5720 8   
5721 4   
5722 7   
5723 8   
5724 8   
5725 10  
5726 6   
5727 10  
5728 2   
5729 9   
5730 6   
5731 7   
5732 5   
5733 9   
5734 4   
5735 4   
5736 1   
5737 4   
5738 3   
5739 2   
5740 2   
5741 2   
5742 4   
5743 5   
5744 10  
5745 10  
5746 8   
5747 3   
5748 9   
5749 9   
5750 5   
5751 1   
5752 7   
5753 1   
5754 1   
5755 3   
5756 1   
5757 1   
5758 10  
5759 3   
5760 9   
5761 10  
5762 10  
5763 7   
5764 10  
5765 8   
5766 7   
5767 2   
5768 1   
5769 7   
5770 2   
5771 10  
5772 5   
5773 3   
5774 8   
5775 9   
5776 7   
5777 2   
5778 10  
5779 9   
5780 1   
5781 2   
5782 9   
5783 1   
5784 6   
5785 5   
5786 6   
5787 4   
5788 2   
5789 2   
5790 2   
5791 3   
5792 9   
5793 2   
5794 6   
5795 2   
5796 4   
5797 1   
5798 1   
5799 6   
5800 8   
5801 10  
5802 5   
5803 3   
5804 9   
5805 7   
5806 3   
5807 7   
5808 5   
5809 10  
5810 8   
5811 3   
5812 3   
5813 3   
5814 6   
5815 9   
5816 10  
5817 6   
5818 3   
5819 7   
5820 3   
5821 10  
5822 1   
5823 7   
5824 9   
5825 10  
5826 2   
5827 3   
5828 6   
5829 6   
5830 9   
5831 4   
5832 10  
5833 6   
5834 8   
5835 8   
5836 2   
5837 5   
5838 7   
5839 3   
5840 9   
5841 9   
5842 7   
5843 10  
5844 9   
5845 5   
5846 2   
5847 4   
5848 4   
5849 8   
5850 8   
5851 7   
5852 6   
5853 6   
5854 7   
5855 9   
5856 10  
5857 3   
5858 4   
5859 4   
5860 3   
5861 10  
5862 6   
5863 5   
5864 3   
5865 8   
5866 9   
5867 4   
5868 9   
5869 3   
5870 4   
5871 7   
5872 9   
5873 9   
5874 8   
5875 9   
5876 2   
5877 4   
5878 8   
5879 1   
5880 6   
5881 3   
5882 6   
5883 10  
5884 7   
5885 4   
5886 1   
5887 9   
5888 10  
5889 4   
5890 5   
5891 4   
5892 4   
5893 3   
5894 3   
5895 6   
5896 5   
5897 3   
5898 10  
5899 10  
5900 3   
5901 10  
5902 6   
5903 6   
5904 4   
5905 9   
5906 7   
5907 5   
5908 2   
5909 7   
5910 7   
5911 4   
5912 2   
5913 5   
5914 2   
5915 9   
5916 1   
5917 4   
5918 1   
5919 10  
5920 3   
5921 10  
5922 2   
5923 8   
5924 5   
5925 10  
5926 6   
5927 1   
5928 4   
5929 7   
5930 1   
5931 10  
5932 4   
5933 10  
5934 5   
5935 3   
5936 8   
5937 8   
5938 10  
5939 3   
5940 10  
5941 5   
5942 5   
5943 3   
5944 8   
5945 3   
5946 8   
5947 1   
5948 4   
5949 2   
5950 8   
5951 5   
5952 2   
5953 1   
5954 10  
5955 4   
5956 2   
5957 8   
5958 9   
5959 10  
5960 2   
5961 8   
5962 4   
5963 8   
5964 4   
5965 6   
5966 6   
5967 2   
5968 4   
5969 7   
5970 6   
5971 7   
5972 7   
5973 5   
5974 9   
5975 10  
5976 7   
5977 3   
5978 7   
5979 3   
5980 7   
5981 3   
5982 7   
5983 5   
5984 10  
5985 5   
5986 5   
5987 8   
5988 5   
5989 5   
5990 5   
5991 1   
5992 6   
5993 3   
5994 8   
5995 2   
5996 6   
5997 7   
5998 2   
5999 10  
6000 10  
6001 7   
6002 2   
6003 3   
6004 4   
6005 5   
6006 3   
6007 6   
6008 7   
6009 10  
6010 4   
6011 1   
6012 8   
6013 1   
6014 9   
6015 8   
6016 9   
6017 5   
6018 6   
6019 10  
6020 7   
6021 5   
6022 1   
6023 9   
6024 7   
6025 10  
6026 7   
6027 4   
6028 7   
6029 8   
6030 4   
6031 3   
6032 9   
6033 6   
6034 6   
6035 6   
6036 6   
6037 3   
6038 1   
6039 7   
6040 7   
6041 10  
6042 1   
6043 1   
6044 7   
6045 1   
6046 3   
6047 7   
6048 3   
6049 5   
6050 5   
6051 8   
6052 10  
6053 10  
6054 9   
6055 2   
6056 4   
6057 10  
6058 8   
6059 3   
6060 6   
6061 2   
6062 3   
6063 8   
6064 6   
6065 2   
6066 9   
6067 3   
6068 9   
6069 5   
6070 1   
6071 9   
6072 7   
6073 3   
6074 6   
6075 3   
6076 9   
6077 6   
6078 1   
6079 2   
6080 10  
6081 10  
6082 8   
6083 6   
6084 10  
6085 1   
6086 4   
6087 8   
6088 6   
6089 5   
6090 10  
6091 3   
6092 6   
6093 5   
6094 2   
6095 8   
6096 4   
6097 7   
6098 1   
6099 2   
6100 7   
6101 8   
6102 7   
6103 1   
6104 4   
6105 10  
6106 9   
6107 10  
6108 1   
6109 6   
6110 2   
6111 4   
6112 10  
6113 7   
6114 3   
6115 3   
6116 1   
6117 6   
6118 9   
6119 7   
6120 4   
6121 7   
6122 5   
6123 4   
6124 8   
6125 5   
6126 2   
6127 5   
6128 7   
6129 9   
6130 9   
6131 7   
6132 4   
6133 2   
6134 8   
6135 6   
6136 7   
6137 2   
6138 3   
6139 2   
6140 2   
6141 4   
6142 2   
6143 2   
6144 10  
6145 4   
6146 5   
6147 1   
6148 10  
6149 6   
6150 5   
6151 10  
6152 9   
6153 2   
6154 7   
6155 8   
6156 8   
6157 3   
6158 9   
6159 6   
6160 10  
6161 3   
6162 3   
6163 9   
6164 8   
6165 1   
6166 6   
6167 1   
6168 9   
6169 5   
6170 3   
6171 8   
6172 7   
6173 2   
6174 4   
6175 1   
6176 10  
6177 9   
6178 6   
6179 5   
6180 6   
6181 6   
6182 9   
6183 3   
6184 5   
6185 2   
6186 5   
6187 6   
6188 9   
6189 9   
6190 10  
6191 10  
6192 9   
6193 7   
6194 4   
6195 3   
6196 10  
6197 5   
6198 4   
6199 1   
6200 9   
6201 9   
6202 10  
6203 10  
6204 6   
6205 5   
6206 4   
6207 5   
6208 1   
6209 4   
6210 6   
6211 7   
6212 4   
6213 6   
6214 9   
6215 8   
6216 1   
6217 1   
6218 4   
6219 6   
6220 7   
6221 10  
6222 8   
6223 1   
6224 7   
6225 7   
6226 7   
6227 7   
6228 4   
6229 9   
6230 6   
6231 7   
6232 2   
6233 3   
6234 10  
6235 10  
6236 5   
6237 5   
6238 10  
6239 8   
6240 4   
6241 3   
6242 2   
6243 9   
6244 9   
6245 7   
6246 5   
6247 3   
6248 7   
6249 5   
6250 3   
6251 3   
6252 8   
6253 3   
6254 10  
6255 3   
6256 6   
6257 4   
6258 2   
6259 10  
6260 6   
6261 3   
6262 7   
6263 10  
6264 1   
6265 10  
6266 10  
6267 6   
6268 4   
6269 10  
6270 5   
6271 10  
6272 8   
6273 6   
6274 5   
6275 9   
6276 7   
6277 7   
6278 2   
6279 2   
6280 6   
6281 10  
6282 3   
6283 4   
6284 9   
6285 5   
6286 4   
6287 3   
6288 7   
6289 2   
6290 6   
6291 6   
6292 6   
6293 5   
6294 5   
6295 7   
6296 3   
6297 4   
6298 8   
6299 2   
6300 8   
6301 6   
6302 10  
6303 9   
6304 3   
6305 4   
6306 6   
6307 7   
6308 4   
6309 5   
6310 7   
6311 5   
6312 2   
6313 9   
6314 6   
6315 10  
6316 8   
6317 1   
6318 1   
6319 2   
6320 1   
6321 7   
6322 6   
6323 1   
6324 7   
6325 6   
6326 4   
6327 1   
6328 1   
6329 9   
6330 7   
6331 4   
6332 3   
6333 9   
6334 4   
6335 2   
6336 10  
6337 10  
6338 7   
6339 5   
6340 6   
6341 2   
6342 10  
6343 1   
6344 4   
6345 9   
6346 5   
6347 2   
6348 8   
6349 6   
6350 5   
6351 7   
6352 8   
6353 7   
6354 4   
6355 5   
6356 7   
6357 7   
6358 8   
6359 1   
6360 6   
6361 8   
6362 4   
6363 3   
6364 8   
6365 6   
6366 8   
6367 9   
6368 5   
6369 3   
6370 10  
6371 2   
6372 3   
6373 4   
6374 10  
6375 10  
6376 7   
6377 4   
6378 3   
6379 4   
6380 4   
6381 2   
6382 6   
6383 10  
6384 7   
6385 5   
6386 3   
6387 9   
6388 4   
6389 8   
6390 8   
6391 4   
6392 4   
6393 10  
6394 10  
6395 10  
6396 10  
6397 3   
6398 5   
6399 5   
6400 7   
6401 2   
6402 4   
6403 4   
6404 6   
6405 2   
6406 3   
6407 2   
6408 10  
6409 6   
6410 3   
6411 5   
6412 10  
6413 2   
6414 7   
6415 6   
6416 8   
6417 4   
6418 3   
6419 1   
6420 3   
6421 4   
6422 5   
6423 1   
6424 1   
6425 6   
6426 2   
6427 3   
6428 1   
6429 2   
6430 3   
6431 8   
6432 4   
6433 6   
6434 9   
6435 8   
6436 7   
6437 3   
6438 2   
6439 3   
6440 10  
6441 6   
6442 3   
6443 6   
6444 2   
6445 3   
6446 9   
6447 1   
6448 8   
6449 4   
6450 9   
6451 3   
6452 5   
6453 4   
6454 7   
6455 10  
6456 4   
6457 8   
6458 4   
6459 2   
6460 7   
6461 2   
6462 4   
6463 9   
6464 9   
6465 9   
6466 4   
6467 4   
6468 4   
6469 4   
6470 9   
6471 4   
6472 5   
6473 1   
6474 1   
6475 9   
6476 7   
6477 9   
6478 1   
6479 2   
6480 8   
6481 10  
6482 5   
6483 3   
6484 7   
6485 5   
6486 5   
6487 10  
6488 1   
6489 3   
6490 4   
6491 3   
6492 6   
6493 9   
6494 4   
6495 3   
6496 8   
6497 2   
6498 6   
6499 5   
6500 6   
6501 3   
6502 5   
6503 10  
6504 6   
6505 2   
6506 7   
6507 9   
6508 2   
6509 5   
6510 4   
6511 2   
6512 8   
6513 5   
6514 3   
6515 1   
6516 10  
6517 7   
6518 10  
6519 5   
6520 10  
6521 10  
6522 6   
6523 9   
6524 9   
6525 7   
6526 9   
6527 9   
6528 2   
6529 9   
6530 7   
6531 8   
6532 5   
6533 9   
6534 1   
6535 9   
6536 9   
6537 7   
6538 3   
6539 10  
6540 5   
6541 5   
6542 10  
6543 6   
6544 9   
6545 7   
6546 2   
6547 8   
6548 7   
6549 6   
6550 8   
6551 2   
6552 6   
6553 9   
6554 5   
6555 9   
6556 6   
6557 4   
6558 8   
6559 9   
6560 7   
6561 1   
6562 8   
6563 6   
6564 1   
6565 10  
6566 5   
6567 4   
6568 4   
6569 4   
6570 8   
6571 10  
6572 1   
6573 7   
6574 5   
6575 3   
6576 8   
6577 9   
6578 9   
6579 4   
6580 3   
6581 1   
6582 5   
6583 9   
6584 1   
6585 8   
6586 10  
6587 5   
6588 1   
6589 5   
6590 7   
6591 8   
6592 4   
6593 8   
6594 3   
6595 1   
6596 9   
6597 9   
6598 4   
6599 8   
6600 7   
6601 6   
6602 3   
6603 3   
6604 3   
6605 1   
6606 6   
6607 6   
6608 3   
6609 9   
6610 9   
6611 9   
6612 8   
6613 5   
6614 3   
6615 7   
6616 3   
6617 3   
6618 3   
6619 6   
6620 8   
6621 10  
6622 7   
6623 2   
6624 1   
6625 8   
6626 2   
6627 10  
6628 5   
6629 3   
6630 10  
6631 10  
6632 8   
6633 6   
6634 3   
6635 8   
6636 1   
6637 10  
6638 4   
6639 1   
6640 9   
6641 1   
6642 5   
6643 9   
6644 10  
6645 9   
6646 9   
6647 8   
6648 2   
6649 5   
6650 2   
6651 5   
6652 5   
6653 3   
6654 3   
6655 10  
6656 10  
6657 10  
6658 6   
6659 1   
6660 10  
6661 6   
6662 3   
6663 4   
6664 10  
6665 4   
6666 5   
6667 3   
6668 1   
6669 5   
6670 10  
6671 2   
6672 9   
6673 10  
6674 2   
6675 6   
6676 8   
6677 2   
6678 9   
6679 8   
6680 7   
6681 9   
6682 8   
6683 10  
6684 5   
6685 5   
6686 9   
6687 10  
6688 5   
6689 9   
6690 2   
6691 3   
6692 8   
6693 2   
6694 3   
6695 7   
6696 10  
6697 10  
6698 5   
6699 9   
6700 10  
6701 4   
6702 6   
6703 5   
6704 6   
6705 9   
6706 10  
6707 8   
6708 8   
6709 1   
6710 7   
6711 6   
6712 9   
6713 10  
6714 7   
6715 6   
6716 1   
6717 10  
6718 3   
6719 1   
6720 1   
6721 4   
6722 6   
6723 10  
6724 2   
6725 7   
6726 4   
6727 6   
6728 1   
6729 2   
6730 8   
6731 4   
6732 9   
6733 4   
6734 8   
6735 6   
6736 6   
6737 2   
6738 7   
6739 4   
6740 1   
6741 1   
6742 8   
6743 6   
6744 9   
6745 7   
6746 1   
6747 3   
6748 9   
6749 7   
6750 2   
6751 6   
6752 2   
6753 2   
6754 6   
6755 6   
6756 10  
6757 10  
6758 2   
6759 8   
6760 4   
6761 10  
6762 9   
6763 6   
6764 2   
6765 7   
6766 5   
6767 8   
6768 10  
6769 2   
6770 7   
6771 5   
6772 8   
6773 4   
6774 1   
6775 7   
6776 2   
6777 2   
6778 4   
6779 2   
6780 3   
6781 10  
6782 1   
6783 7   
6784 10  
6785 2   
6786 7   
6787 4   
6788 10  
6789 8   
6790 3   
6791 10  
6792 3   
6793 2   
6794 6   
6795 3   
6796 4   
6797 4   
6798 6   
6799 3   
6800 5   
6801 2   
6802 6   
6803 8   
6804 7   
6805 5   
6806 1   
6807 4   
6808 6   
6809 9   
6810 8   
6811 1   
6812 3   
6813 6   
6814 8   
6815 1   
6816 10  
6817 6   
6818 1   
6819 4   
6820 1   
6821 9   
6822 2   
6823 8   
6824 2   
6825 10  
6826 10  
6827 5   
6828 3   
6829 9   
6830 3   
6831 7   
6832 2   
6833 4   
6834 7   
6835 7   
6836 9   
6837 10  
6838 10  
6839 1   
6840 1   
6841 2   
6842 6   
6843 5   
6844 3   
6845 3   
6846 8   
6847 2   
6848 3   
6849 7   
6850 2   
6851 8   
6852 2   
6853 3   
6854 2   
6855 7   
6856 2   
6857 3   
6858 6   
6859 3   
6860 4   
6861 1   
6862 9   
6863 4   
6864 7   
6865 10  
6866 3   
6867 5   
6868 5   
6869 3   
6870 2   
6871 5   
6872 4   
6873 3   
6874 2   
6875 4   
6876 4   
6877 3   
6878 4   
6879 9   
6880 8   
6881 10  
6882 4   
6883 4   
6884 7   
6885 2   
6886 1   
6887 8   
6888 7   
6889 3   
6890 2   
6891 2   
6892 9   
6893 8   
6894 10  
6895 8   
6896 3   
6897 3   
6898 3   
6899 2   
6900 7   
6901 5   
6902 8   
6903 4   
6904 2   
6905 9   
6906 1   
6907 1   
6908 3   
6909 1   
6910 2   
6911 1   
6912 8   
6913 2   
6914 9   
6915 3   
6916 1   
6917 3   
6918 5   
6919 6   
6920 4   
6921 1   
6922 10  
6923 7   
6924 2   
6925 3   
6926 5   
6927 2   
6928 2   
6929 2   
6930 4   
6931 10  
6932 6   
6933 1   
6934 1   
6935 3   
6936 5   
6937 8   
6938 8   
6939 6   
6940 10  
6941 3   
6942 4   
6943 10  
6944 10  
6945 8   
6946 2   
6947 10  
6948 1   
6949 5   
6950 8   
6951 8   
6952 1   
6953 7   
6954 6   
6955 8   
6956 10  
6957 10  
6958 4   
6959 4   
6960 2   
6961 10  
6962 3   
6963 4   
6964 3   
6965 1   
6966 4   
6967 5   
6968 8   
6969 3   
6970 4   
6971 4   
6972 3   
6973 7   
6974 8   
6975 2   
6976 7   
6977 9   
6978 5   
6979 4   
6980 2   
6981 8   
6982 5   
6983 7   
6984 8   
6985 3   
6986 2   
6987 2   
6988 10  
6989 1   
6990 8   
6991 3   
6992 9   
6993 10  
6994 8   
6995 9   
6996 6   
6997 5   
6998 9   
6999 8   
7000 5   
7001 10  
7002 10  
7003 5   
7004 1   
7005 6   
7006 5   
7007 4   
7008 4   
7009 8   
7010 3   
7011 2   
7012 1   
7013 7   
7014 3   
7015 9   
7016 1   
7017 6   
7018 4   
7019 5   
7020 4   
7021 7   
7022 3   
7023 3   
7024 10  
7025 3   
7026 10  
7027 3   
7028 6   
7029 10  
7030 6   
7031 4   
7032 4   
7033 6   
7034 10  
7035 4   
7036 9   
7037 6   
7038 1   
7039 1   
7040 4   
7041 6   
7042 9   
7043 9   
7044 8   
7045 1   
7046 6   
7047 3   
7048 2   
7049 3   
7050 10  
7051 3   
7052 5   
7053 8   
7054 2   
7055 9   
7056 9   
7057 1   
7058 10  
7059 9   
7060 3   
7061 7   
7062 1   
7063 8   
7064 7   
7065 10  
7066 1   
7067 3   
7068 10  
7069 8   
7070 5   
7071 5   
7072 10  
7073 10  
7074 1   
7075 8   
7076 1   
7077 6   
7078 6   
7079 10  
7080 2   
7081 7   
7082 4   
7083 7   
7084 2   
7085 10  
7086 7   
7087 4   
7088 2   
7089 5   
7090 2   
7091 2   
7092 3   
7093 1   
7094 4   
7095 2   
7096 8   
7097 3   
7098 10  
7099 3   
7100 10  
7101 8   
7102 1   
7103 4   
7104 10  
7105 5   
7106 6   
7107 1   
7108 1   
7109 7   
7110 2   
7111 6   
7112 10  
7113 2   
7114 2   
7115 3   
7116 2   
7117 10  
7118 2   
7119 10  
7120 9   
7121 1   
7122 4   
7123 4   
7124 4   
7125 3   
7126 2   
7127 5   
7128 9   
7129 6   
7130 10  
7131 4   
7132 9   
7133 5   
7134 6   
7135 4   
7136 9   
7137 7   
7138 9   
7139 10  
7140 6   
7141 7   
7142 3   
7143 6   
7144 2   
7145 8   
7146 9   
7147 1   
7148 3   
7149 4   
7150 1   
7151 3   
7152 8   
7153 2   
7154 6   
7155 10  
7156 1   
7157 5   
7158 3   
7159 1   
7160 10  
7161 3   
7162 3   
7163 5   
7164 10  
7165 4   
7166 2   
7167 7   
7168 10  
7169 3   
7170 5   
7171 8   
7172 10  
7173 5   
7174 7   
7175 4   
7176 9   
7177 10  
7178 2   
7179 3   
7180 2   
7181 6   
7182 8   
7183 7   
7184 8   
7185 5   
7186 2   
7187 5   
7188 9   
7189 7   
7190 8   
7191 2   
7192 2   
7193 6   
7194 6   
7195 9   
7196 1   
7197 9   
7198 1   
7199 8   
7200 8   
7201 8   
7202 6   
7203 2   
7204 3   
7205 10  
7206 6   
7207 8   
7208 4   
7209 10  
7210 8   
7211 2   
7212 10  
7213 10  
7214 5   
7215 5   
7216 4   
7217 4   
7218 6   
7219 3   
7220 6   
7221 9   
7222 4   
7223 9   
7224 3   
7225 9   
7226 5   
7227 9   
7228 3   
7229 2   
7230 7   
7231 9   
7232 7   
7233 9   
7234 7   
7235 7   
7236 5   
7237 8   
7238 7   
7239 9   
7240 6   
7241 7   
7242 4   
7243 6   
7244 9   
7245 2   
7246 7   
7247 10  
7248 2   
7249 7   
7250 1   
7251 5   
7252 9   
7253 4   
7254 9   
7255 3   
7256 10  
7257 8   
7258 5   
7259 5   
7260 5   
7261 10  
7262 2   
7263 5   
7264 9   
7265 7   
7266 5   
7267 3   
7268 2   
7269 9   
7270 1   
7271 10  
7272 7   
7273 1   
7274 6   
7275 8   
7276 1   
7277 4   
7278 8   
7279 2   
7280 4   
7281 5   
7282 9   
7283 5   
7284 2   
7285 9   
7286 10  
7287 5   
7288 7   
7289 2   
7290 8   
7291 8   
7292 10  
7293 9   
7294 1   
7295 10  
7296 9   
7297 7   
7298 2   
7299 3   
7300 2   
7301 1   
7302 3   
7303 6   
7304 6   
7305 8   
7306 7   
7307 6   
7308 5   
7309 7   
7310 5   
7311 3   
7312 10  
7313 4   
7314 4   
7315 9   
7316 6   
7317 6   
7318 9   
7319 3   
7320 6   
7321 2   
7322 9   
7323 2   
7324 9   
7325 5   
7326 7   
7327 6   
7328 6   
7329 6   
7330 3   
7331 7   
7332 8   
7333 2   
7334 1   
7335 5   
7336 6   
7337 2   
7338 4   
7339 8   
7340 2   
7341 2   
7342 1   
7343 5   
7344 1   
7345 5   
7346 5   
7347 6   
7348 6   
7349 4   
7350 4   
7351 9   
7352 7   
7353 1   
7354 9   
7355 10  
7356 3   
7357 9   
7358 6   
7359 1   
7360 9   
7361 8   
7362 2   
7363 3   
7364 4   
7365 8   
7366 8   
7367 1   
7368 3   
7369 10  
7370 9   
7371 8   
7372 6   
7373 3   
7374 6   
7375 8   
7376 10  
7377 6   
7378 8   
7379 2   
7380 8   
7381 6   
7382 7   
7383 10  
7384 2   
7385 9   
7386 8   
7387 3   
7388 2   
7389 1   
7390 2   
7391 3   
7392 2   
7393 3   
7394 5   
7395 1   
7396 10  
7397 4   
7398 6   
7399 7   
7400 1   
7401 10  
7402 9   
7403 9   
7404 5   
7405 6   
7406 6   
7407 7   
7408 7   
7409 2   
7410 3   
7411 9   
7412 7   
7413 3   
7414 8   
7415 9   
7416 6   
7417 3   
7418 2   
7419 5   
7420 8   
7421 9   
7422 6   
7423 10  
7424 10  
7425 6   
7426 7   
7427 10  
7428 6   
7429 4   
7430 3   
7431 6   
7432 3   
7433 10  
7434 7   
7435 2   
7436 4   
7437 1   
7438 7   
7439 2   
7440 7   
7441 8   
7442 6   
7443 7   
7444 5   
7445 3   
7446 10  
7447 7   
7448 8   
7449 5   
7450 3   
7451 4   
7452 9   
7453 2   
7454 3   
7455 4   
7456 2   
7457 2   
7458 5   
7459 5   
7460 8   
7461 1   
7462 1   
7463 2   
7464 2   
7465 8   
7466 10  
7467 8   
7468 1   
7469 10  
7470 8   
7471 5   
7472 10  
7473 6   
7474 1   
7475 8   
7476 4   
7477 8   
7478 8   
7479 8   
7480 9   
7481 2   
7482 7   
7483 2   
7484 8   
7485 8   
7486 10  
7487 4   
7488 10  
7489 10  
7490 10  
7491 9   
7492 5   
7493 3   
7494 3   
7495 3   
7496 6   
7497 6   
7498 9   
7499 6   
7500 1   
7501 8   
7502 7   
7503 9   
7504 6   
7505 5   
7506 3   
7507 8   
7508 10  
7509 5   
7510 8   
7511 7   
7512 8   
7513 6   
7514 5   
7515 6   
7516 6   
7517 6   
7518 1   
7519 7   
7520 2   
7521 6   
7522 9   
7523 7   
7524 9   
7525 9   
7526 1   
7527 8   
7528 8   
7529 2   
7530 10  
7531 9   
7532 10  
7533 5   
7534 4   
7535 2   
7536 7   
7537 10  
7538 7   
7539 3   
7540 5   
7541 3   
7542 5   
7543 10  
7544 2   
7545 8   
7546 9   
7547 3   
7548 8   
7549 4   
7550 6   
7551 1   
7552 2   
7553 10  
7554 7   
7555 10  
7556 6   
7557 5   
7558 7   
7559 10  
7560 3   
7561 4   
7562 6   
7563 7   
7564 4   
7565 3   
7566 3   
7567 6   
7568 1   
7569 2   
7570 5   
7571 10  
7572 2   
7573 10  
7574 8   
7575 8   
7576 2   
7577 2   
7578 10  
7579 7   
7580 3   
7581 5   
7582 9   
7583 3   
7584 4   
7585 1   
7586 8   
7587 1   
7588 3   
7589 7   
7590 10  
7591 1   
7592 7   
7593 6   
7594 4   
7595 5   
7596 10  
7597 3   
7598 4   
7599 1   
7600 4   
7601 9   
7602 10  
7603 4   
7604 2   
7605 10  
7606 9   
7607 5   
7608 9   
7609 7   
7610 6   
7611 2   
7612 7   
7613 6   
7614 7   
7615 5   
7616 5   
7617 5   
7618 1   
7619 3   
7620 3   
7621 7   
7622 7   
7623 2   
7624 3   
7625 1   
7626 8   
7627 10  
7628 8   
7629 8   
7630 3   
7631 2   
7632 10  
7633 3   
7634 2   
7635 5   
7636 5   
7637 10  
7638 3   
7639 3   
7640 2   
7641 8   
7642 4   
7643 5   
7644 1   
7645 6   
7646 3   
7647 2   
7648 2   
7649 7   
7650 6   
7651 5   
7652 1   
7653 6   
7654 10  
7655 7   
7656 2   
7657 8   
7658 5   
7659 5   
7660 8   
7661 7   
7662 9   
7663 4   
7664 5   
7665 7   
7666 9   
7667 7   
7668 4   
7669 10  
7670 2   
7671 7   
7672 1   
7673 5   
7674 4   
7675 5   
7676 6   
7677 5   
7678 6   
7679 7   
7680 8   
7681 6   
7682 10  
7683 3   
7684 7   
7685 9   
7686 2   
7687 1   
7688 10  
7689 7   
7690 6   
7691 4   
7692 8   
7693 3   
7694 8   
7695 10  
7696 5   
7697 9   
7698 1   
7699 6   
7700 9   
7701 4   
7702 8   
7703 9   
7704 8   
7705 5   
7706 8   
7707 9   
7708 7   
7709 9   
7710 3   
7711 2   
7712 8   
7713 5   
7714 5   
7715 5   
7716 8   
7717 7   
7718 10  
7719 2   
7720 2   
7721 6   
7722 8   
7723 2   
7724 9   
7725 10  
7726 3   
7727 1   
7728 4   
7729 2   
7730 1   
7731 3   
7732 5   
7733 4   
7734 4   
7735 10  
7736 3   
7737 7   
7738 5   
7739 4   
7740 5   
7741 5   
7742 8   
7743 1   
7744 3   
7745 8   
7746 10  
7747 8   
7748 2   
7749 4   
7750 8   
7751 7   
7752 5   
7753 8   
7754 8   
7755 2   
7756 3   
7757 5   
7758 7   
7759 9   
7760 4   
7761 5   
7762 2   
7763 2   
7764 1   
7765 2   
7766 4   
7767 9   
7768 10  
7769 1   
7770 4   
7771 3   
7772 6   
7773 1   
7774 4   
7775 10  
7776 8   
7777 6   
7778 5   
7779 6   
7780 4   
7781 7   
7782 3   
7783 10  
7784 3   
7785 4   
7786 3   
7787 10  
7788 5   
7789 10  
7790 5   
7791 2   
7792 8   
7793 1   
7794 1   
7795 3   
7796 2   
7797 7   
7798 2   
7799 8   
7800 4   
7801 3   
7802 9   
7803 7   
7804 8   
7805 4   
7806 1   
7807 5   
7808 8   
7809 6   
7810 3   
7811 5   
7812 2   
7813 10  
7814 1   
7815 8   
7816 10  
7817 7   
7818 8   
7819 8   
7820 3   
7821 3   
7822 7   
7823 6   
7824 8   
7825 1   
7826 6   
7827 2   
7828 8   
7829 6   
7830 1   
7831 9   
7832 7   
7833 10  
7834 5   
7835 9   
7836 2   
7837 5   
7838 6   
7839 3   
7840 5   
7841 9   
7842 9   
7843 2   
7844 2   
7845 8   
7846 5   
7847 8   
7848 4   
7849 9   
7850 1   
7851 2   
7852 8   
7853 7   
7854 9   
7855 1   
7856 4   
7857 2   
7858 1   
7859 4   
7860 4   
7861 3   
7862 3   
7863 8   
7864 2   
7865 7   
7866 3   
7867 2   
7868 3   
7869 2   
7870 2   
7871 1   
7872 6   
7873 8   
7874 9   
7875 3   
7876 7   
7877 7   
7878 7   
7879 4   
7880 3   
7881 1   
7882 6   
7883 1   
7884 3   
7885 8   
7886 1   
7887 6   
7888 3   
7889 7   
7890 1   
7891 2   
7892 9   
7893 1   
7894 9   
7895 8   
7896 7   
7897 6   
7898 2   
7899 4   
7900 3   
7901 7   
7902 1   
7903 3   
7904 3   
7905 5   
7906 8   
7907 6   
7908 7   
7909 2   
7910 8   
7911 10  
7912 6   
7913 6   
7914 9   
7915 9   
7916 2   
7917 5   
7918 8   
7919 10  
7920 2   
7921 7   
7922 9   
7923 3   
7924 7   
7925 7   
7926 10  
7927 8   
7928 10  
7929 3   
7930 2   
7931 4   
7932 1   
7933 7   
7934 1   
7935 6   
7936 6   
7937 10  
7938 7   
7939 7   
7940 3   
7941 10  
7942 2   
7943 2   
7944 7   
7945 2   
7946 1   
7947 9   
7948 6   
7949 4   
7950 3   
7951 2   
7952 9   
7953 6   
7954 8   
7955 2   
7956 2   
7957 9   
7958 4   
7959 10  
7960 4   
7961 2   
7962 10  
7963 9   
7964 8   
7965 3   
7966 9   
7967 3   
7968 1   
7969 7   
7970 2   
7971 9   
7972 9   
7973 6   
7974 5   
7975 10  
7976 3   
7977 3   
7978 6   
7979 2   
7980 10  
7981 8   
7982 9   
7983 5   
7984 4   
7985 6   
7986 5   
7987 8   
7988 9   
7989 7   
7990 3   
7991 5   
7992 8   
7993 5   
7994 8   
7995 9   
7996 10  
7997 1   
7998 10  
7999 8   
8000 2   
8001 1   
8002 6   
8003 7   
8004 3   
8005 9   
8006 8   
8007 10  
8008 10  
8009 10  
8010 2   
8011 5   
8012 4   
8013 3   
8014 1   
8015 6   
8016 4   
8017 9   
8018 9   
8019 2   
8020 5   
8021 2   
8022 3   
8023 3   
8024 8   
8025 6   
8026 7   
8027 1   
8028 3   
8029 4   
8030 3   
8031 5   
8032 9   
8033 6   
8034 8   
8035 2   
8036 8   
8037 10  
8038 8   
8039 1   
8040 9   
8041 3   
8042 5   
8043 2   
8044 8   
8045 9   
8046 10  
8047 10  
8048 1   
8049 10  
8050 8   
8051 8   
8052 8   
8053 9   
8054 6   
8055 3   
8056 6   
8057 1   
8058 6   
8059 9   
8060 5   
8061 10  
8062 2   
8063 4   
8064 2   
8065 2   
8066 2   
8067 1   
8068 8   
8069 6   
8070 9   
8071 8   
8072 9   
8073 2   
8074 9   
8075 1   
8076 5   
8077 3   
8078 8   
8079 2   
8080 9   
8081 9   
8082 4   
8083 1   
8084 6   
8085 8   
8086 8   
8087 10  
8088 7   
8089 5   
8090 2   
8091 8   
8092 1   
8093 1   
8094 7   
8095 4   
8096 3   
8097 6   
8098 2   
8099 4   
8100 10  
8101 2   
8102 1   
8103 9   
8104 2   
8105 7   
8106 6   
8107 3   
8108 9   
8109 3   
8110 10  
8111 4   
8112 4   
8113 1   
8114 8   
8115 5   
8116 2   
8117 8   
8118 3   
8119 6   
8120 1   
8121 8   
8122 7   
8123 9   
8124 4   
8125 1   
8126 10  
8127 5   
8128 5   
8129 1   
8130 4   
8131 4   
8132 9   
8133 1   
8134 9   
8135 9   
8136 4   
8137 2   
8138 7   
8139 3   
8140 2   
8141 10  
8142 7   
8143 8   
8144 9   
8145 2   
8146 1   
8147 5   
8148 10  
8149 10  
8150 8   
8151 8   
8152 5   
8153 6   
8154 9   
8155 10  
8156 1   
8157 2   
8158 6   
8159 3   
8160 7   
8161 5   
8162 7   
8163 3   
8164 2   
8165 3   
8166 9   
8167 5   
8168 7   
8169 8   
8170 9   
8171 7   
8172 8   
8173 7   
8174 8   
8175 3   
8176 6   
8177 8   
8178 5   
8179 5   
8180 9   
8181 9   
8182 6   
8183 5   
8184 6   
8185 1   
8186 10  
8187 9   
8188 8   
8189 10  
8190 2   
8191 5   
8192 10  
8193 2   
8194 10  
8195 10  
8196 8   
8197 4   
8198 1   
8199 2   
8200 5   
8201 6   
8202 4   
8203 3   
8204 9   
8205 10  
8206 4   
8207 5   
8208 4   
8209 9   
8210 4   
8211 3   
8212 1   
8213 7   
8214 2   
8215 8   
8216 3   
8217 4   
8218 6   
8219 1   
8220 4   
8221 10  
8222 9   
8223 4   
8224 8   
8225 7   
8226 5   
8227 3   
8228 4   
8229 6   
8230 2   
8231 7   
8232 1   
8233 2   
8234 6   
8235 5   
8236 3   
8237 9   
8238 9   
8239 7   
8240 7   
8241 1   
8242 7   
8243 7   
8244 4   
8245 2   
8246 4   
8247 7   
8248 5   
8249 1   
8250 7   
8251 10  
8252 8   
8253 2   
8254 1   
8255 5   
8256 9   
8257 7   
8258 4   
8259 4   
8260 8   
8261 1   
8262 8   
8263 7   
8264 10  
8265 7   
8266 1   
8267 4   
8268 1   
8269 3   
8270 3   
8271 6   
8272 7   
8273 6   
8274 6   
8275 10  
8276 5   
8277 10  
8278 3   
8279 4   
8280 4   
8281 5   
8282 3   
8283 3   
8284 8   
8285 4   
8286 6   
8287 10  
8288 5   
8289 5   
8290 5   
8291 2   
8292 5   
8293 9   
8294 6   
8295 2   
8296 5   
8297 10  
8298 8   
8299 8   
8300 10  
8301 10  
8302 9   
8303 9   
8304 5   
8305 8   
8306 2   
8307 4   
8308 3   
8309 2   
8310 9   
8311 1   
8312 3   
8313 8   
8314 3   
8315 8   
8316 10  
8317 4   
8318 3   
8319 5   
8320 1   
8321 6   
8322 3   
8323 9   
8324 10  
8325 2   
8326 9   
8327 4   
8328 5   
8329 9   
8330 4   
8331 9   
8332 7   
8333 9   
8334 6   
8335 2   
8336 4   
8337 3   
8338 3   
8339 1   
8340 10  
8341 5   
8342 10  
8343 1   
8344 1   
8345 6   
8346 4   
8347 5   
8348 9   
8349 9   
8350 9   
8351 8   
8352 5   
8353 5   
8354 4   
8355 9   
8356 4   
8357 1   
8358 4   
8359 6   
8360 6   
8361 10  
8362 4   
8363 6   
8364 1   
8365 7   
8366 8   
8367 8   
8368 7   
8369 10  
8370 4   
8371 8   
8372 5   
8373 7   
8374 5   
8375 3   
8376 5   
8377 2   
8378 4   
8379 5   
8380 2   
8381 4   
8382 1   
8383 4   
8384 5   
8385 5   
8386 7   
8387 4   
8388 1   
8389 2   
8390 3   
8391 9   
8392 9   
8393 9   
8394 2   
8395 7   
8396 8   
8397 9   
8398 4   
8399 6   
8400 5   
8401 6   
8402 4   
8403 6   
8404 2   
8405 10  
8406 9   
8407 9   
8408 6   
8409 7   
8410 2   
8411 1   
8412 9   
8413 8   
8414 2   
8415 7   
8416 4   
8417 10  
8418 3   
8419 6   
8420 7   
8421 4   
8422 4   
8423 8   
8424 1   
8425 7   
8426 6   
8427 9   
8428 3   
8429 9   
8430 2   
8431 5   
8432 5   
8433 7   
8434 3   
8435 7   
8436 10  
8437 6   
8438 5   
8439 7   
8440 3   
8441 7   
8442 7   
8443 10  
8444 2   
8445 7   
8446 9   
8447 10  
8448 5   
8449 3   
8450 8   
8451 9   
8452 1   
8453 3   
8454 5   
8455 8   
8456 4   
8457 8   
8458 2   
8459 7   
8460 4   
8461 9   
8462 1   
8463 10  
8464 3   
8465 2   
8466 10  
8467 3   
8468 9   
8469 5   
8470 4   
8471 8   
8472 2   
8473 2   
8474 9   
8475 3   
8476 6   
8477 7   
8478 3   
8479 6   
8480 5   
8481 3   
8482 9   
8483 10  
8484 4   
8485 1   
8486 6   
8487 5   
8488 2   
8489 4   
8490 10  
8491 6   
8492 9   
8493 9   
8494 6   
8495 7   
8496 7   
8497 6   
8498 8   
8499 3   
8500 4   
8501 6   
8502 7   
8503 9   
8504 9   
8505 6   
8506 8   
8507 1   
8508 4   
8509 6   
8510 5   
8511 9   
8512 1   
8513 9   
8514 7   
8515 2   
8516 4   
8517 5   
8518 5   
8519 5   
8520 3   
8521 4   
8522 7   
8523 2   
8524 3   
8525 1   
8526 8   
8527 10  
8528 6   
8529 10  
8530 5   
8531 6   
8532 6   
8533 5   
8534 6   
8535 2   
8536 2   
8537 8   
8538 2   
8539 3   
8540 7   
8541 2   
8542 7   
8543 6   
8544 8   
8545 1   
8546 6   
8547 8   
8548 9   
8549 6   
8550 4   
8551 3   
8552 7   
8553 4   
8554 4   
8555 5   
8556 7   
8557 2   
8558 6   
8559 3   
8560 8   
8561 5   
8562 5   
8563 8   
8564 9   
8565 8   
8566 1   
8567 2   
8568 10  
8569 5   
8570 6   
8571 10  
8572 9   
8573 3   
8574 8   
8575 4   
8576 4   
8577 10  
8578 3   
8579 6   
8580 1   
8581 2   
8582 5   
8583 5   
8584 4   
8585 6   
8586 4   
8587 2   
8588 4   
8589 5   
8590 3   
8591 8   
8592 8   
8593 5   
8594 6   
8595 4   
8596 5   
8597 1   
8598 2   
8599 9   
8600 7   
8601 6   
8602 10  
8603 6   
8604 7   
8605 9   
8606 7   
8607 3   
8608 9   
8609 10  
8610 5   
8611 5   
8612 7   
8613 3   
8614 1   
8615 2   
8616 1   
8617 1   
8618 9   
8619 10  
8620 1   
8621 3   
8622 4   
8623 6   
8624 4   
8625 1   
8626 10  
8627 4   
8628 8   
8629 4   
8630 8   
8631 8   
8632 3   
8633 10  
8634 8   
8635 1   
8636 6   
8637 5   
8638 3   
8639 3   
8640 4   
8641 10  
8642 5   
8643 7   
8644 10  
8645 2   
8646 6   
8647 4   
8648 3   
8649 3   
8650 4   
8651 1   
8652 2   
8653 3   
8654 4   
8655 3   
8656 2   
8657 1   
8658 10  
8659 7   
8660 1   
8661 1   
8662 6   
8663 3   
8664 5   
8665 7   
8666 10  
8667 3   
8668 7   
8669 9   
8670 4   
8671 10  
8672 8   
8673 7   
8674 10  
8675 6   
8676 1   
8677 4   
8678 2   
8679 6   
8680 10  
8681 1   
8682 2   
8683 10  
8684 8   
8685 8   
8686 3   
8687 9   
8688 5   
8689 8   
8690 5   
8691 3   
8692 4   
8693 1   
8694 6   
8695 3   
8696 6   
8697 3   
8698 3   
8699 7   
8700 6   
8701 8   
8702 3   
8703 4   
8704 9   
8705 1   
8706 10  
8707 5   
8708 1   
8709 3   
8710 10  
8711 10  
8712 6   
8713 10  
8714 6   
8715 2   
8716 4   
8717 7   
8718 8   
8719 9   
8720 8   
8721 3   
8722 6   
8723 2   
8724 1   
8725 1   
8726 6   
8727 3   
8728 6   
8729 4   
8730 4   
8731 3   
8732 8   
8733 8   
8734 3   
8735 4   
8736 9   
8737 8   
8738 10  
8739 2   
8740 6   
8741 1   
8742 8   
8743 1   
8744 5   
8745 6   
8746 4   
8747 9   
8748 2   
8749 3   
8750 7   
8751 5   
8752 10  
8753 3   
8754 7   
8755 3   
8756 9   
8757 2   
8758 7   
8759 3   
8760 5   
8761 6   
8762 5   
8763 3   
8764 4   
8765 10  
8766 9   
8767 1   
8768 2   
8769 9   
8770 10  
8771 2   
8772 10  
8773 7   
8774 9   
8775 7   
8776 1   
8777 7   
8778 3   
8779 10  
8780 5   
8781 4   
8782 8   
8783 3   
8784 2   
8785 2   
8786 2   
8787 9   
8788 6   
8789 6   
8790 1   
8791 7   
8792 4   
8793 2   
8794 7   
8795 7   
8796 10  
8797 8   
8798 7   
8799 9   
8800 10  
8801 9   
8802 10  
8803 3   
8804 5   
8805 3   
8806 8   
8807 5   
8808 8   
8809 10  
8810 5   
8811 2   
8812 4   
8813 5   
8814 9   
8815 6   
8816 6   
8817 8   
8818 2   
8819 8   
8820 2   
8821 2   
8822 5   
8823 10  
8824 8   
8825 10  
8826 5   
8827 9   
8828 6   
8829 6   
8830 3   
8831 3   
8832 5   
8833 5   
8834 5   
8835 5   
8836 10  
8837 7   
8838 4   
8839 9   
8840 6   
8841 10  
8842 1   
8843 1   
8844 5   
8845 4   
8846 2   
8847 4   
8848 3   
8849 10  
8850 7   
8851 7   
8852 2   
8853 4   
8854 7   
8855 6   
8856 1   
8857 5   
8858 2   
8859 9   
8860 9   
8861 8   
8862 5   
8863 9   
8864 10  
8865 9   
8866 2   
8867 3   
8868 1   
8869 9   
8870 3   
8871 8   
8872 2   
8873 8   
8874 4   
8875 4   
8876 1   
8877 9   
8878 9   
8879 5   
8880 6   
8881 3   
8882 4   
8883 9   
8884 3   
8885 4   
8886 5   
8887 2   
8888 1   
8889 8   
8890 6   
8891 1   
8892 8   
8893 5   
8894 6   
8895 3   
8896 7   
8897 1   
8898 1   
8899 7   
8900 8   
8901 8   
8902 7   
8903 10  
8904 6   
8905 8   
8906 1   
8907 3   
8908 3   
8909 4   
8910 3   
8911 1   
8912 4   
8913 9   
8914 6   
8915 8   
8916 8   
8917 2   
8918 7   
8919 2   
8920 1   
8921 3   
8922 3   
8923 10  
8924 10  
8925 1   
8926 5   
8927 10  
8928 7   
8929 2   
8930 1   
8931 5   
8932 7   
8933 2   
8934 10  
8935 7   
8936 4   
8937 5   
8938 3   
8939 3   
8940 8   
8941 5   
8942 8   
8943 4   
8944 5   
8945 2   
8946 9   
8947 10  
8948 3   
8949 3   
8950 3   
8951 5   
8952 3   
8953 1   
8954 9   
8955 1   
8956 4   
8957 10  
8958 7   
8959 6   
8960 6   
8961 2   
8962 5   
8963 5   
8964 10  
8965 4   
8966 8   
8967 8   
8968 8   
8969 3   
8970 1   
8971 7   
8972 3   
8973 8   
8974 3   
8975 3   
8976 8   
8977 1   
8978 9   
8979 8   
8980 9   
8981 7   
8982 8   
8983 9   
8984 5   
8985 4   
8986 2   
8987 1   
8988 8   
8989 5   
8990 1   
8991 1   
8992 4   
8993 1   
8994 4   
8995 6   
8996 10  
8997 6   
8998 9   
8999 3   
9000 9   
9001 7   
9002 10  
9003 1   
9004 5   
9005 2   
9006 6   
9007 7   
9008 6   
9009 6   
9010 6   
9011 2   
9012 4   
9013 5   
9014 4   
9015 6   
9016 8   
9017 5   
9018 2   
9019 2   
9020 6   
9021 6   
9022 3   
9023 3   
9024 6   
9025 10  
9026 5   
9027 2   
9028 5   
9029 4   
9030 6   
9031 10  
9032 5   
9033 5   
9034 9   
9035 5   
9036 2   
9037 7   
9038 8   
9039 7   
9040 10  
9041 1   
9042 6   
9043 5   
9044 3   
9045 4   
9046 3   
9047 5   
9048 9   
9049 3   
9050 3   
9051 6   
9052 1   
9053 6   
9054 10  
9055 2   
9056 9   
9057 1   
9058 2   
9059 9   
9060 4   
9061 4   
9062 6   
9063 3   
9064 10  
9065 9   
9066 7   
9067 7   
9068 7   
9069 4   
9070 7   
9071 5   
9072 1   
9073 1   
9074 2   
9075 8   
9076 2   
9077 6   
9078 4   
9079 4   
9080 4   
9081 2   
9082 4   
9083 10  
9084 1   
9085 1   
9086 10  
9087 9   
9088 1   
9089 10  
9090 8   
9091 7   
9092 3   
9093 5   
9094 1   
9095 7   
9096 6   
9097 2   
9098 9   
9099 6   
9100 4   
9101 6   
9102 6   
9103 7   
9104 7   
9105 9   
9106 10  
9107 1   
9108 9   
9109 8   
9110 1   
9111 8   
9112 10  
9113 5   
9114 1   
9115 10  
9116 6   
9117 2   
9118 1   
9119 9   
9120 5   
9121 2   
9122 5   
9123 8   
9124 9   
9125 1   
9126 10  
9127 7   
9128 6   
9129 3   
9130 5   
9131 3   
9132 2   
9133 6   
9134 8   
9135 10  
9136 8   
9137 7   
9138 3   
9139 7   
9140 2   
9141 2   
9142 9   
9143 7   
9144 7   
9145 5   
9146 1   
9147 9   
9148 1   
9149 6   
9150 4   
9151 1   
9152 10  
9153 9   
9154 1   
9155 1   
9156 4   
9157 6   
9158 2   
9159 6   
9160 3   
9161 1   
9162 4   
9163 1   
9164 3   
9165 7   
9166 9   
9167 9   
9168 6   
9169 6   
9170 1   
9171 6   
9172 8   
9173 6   
9174 8   
9175 2   
9176 8   
9177 4   
9178 10  
9179 4   
9180 8   
9181 8   
9182 7   
9183 1   
9184 7   
9185 6   
9186 1   
9187 2   
9188 9   
9189 6   
9190 1   
9191 5   
9192 10  
9193 5   
9194 5   
9195 4   
9196 4   
9197 3   
9198 9   
9199 9   
9200 10  
9201 3   
9202 9   
9203 5   
9204 10  
9205 9   
9206 1   
9207 2   
9208 6   
9209 7   
9210 6   
9211 6   
9212 9   
9213 3   
9214 9   
9215 9   
9216 4   
9217 4   
9218 8   
9219 6   
9220 1   
9221 9   
9222 5   
9223 4   
9224 6   
9225 4   
9226 5   
9227 7   
9228 2   
9229 2   
9230 3   
9231 7   
9232 7   
9233 5   
9234 9   
9235 4   
9236 8   
9237 6   
9238 5   
9239 6   
9240 1   
9241 4   
9242 2   
9243 7   
9244 5   
9245 7   
9246 4   
9247 7   
9248 8   
9249 1   
9250 2   
9251 3   
9252 5   
9253 8   
9254 1   
9255 8   
9256 7   
9257 4   
9258 2   
9259 5   
9260 10  
9261 9   
9262 3   
9263 7   
9264 7   
9265 9   
9266 5   
9267 6   
9268 10  
9269 3   
9270 6   
9271 2   
9272 2   
9273 7   
9274 2   
9275 5   
9276 1   
9277 3   
9278 8   
9279 4   
9280 5   
9281 10  
9282 10  
9283 8   
9284 6   
9285 3   
9286 2   
9287 7   
9288 4   
9289 9   
9290 8   
9291 6   
9292 5   
9293 2   
9294 5   
9295 6   
9296 1   
9297 5   
9298 10  
9299 8   
9300 9   
9301 3   
9302 8   
9303 6   
9304 1   
9305 10  
9306 6   
9307 4   
9308 9   
9309 6   
9310 8   
9311 6   
9312 5   
9313 4   
9314 5   
9315 4   
9316 7   
9317 3   
9318 2   
9319 4   
9320 1   
9321 7   
9322 4   
9323 4   
9324 3   
9325 1   
9326 1   
9327 5   
9328 6   
9329 8   
9330 8   
9331 9   
9332 2   
9333 9   
9334 1   
9335 1   
9336 7   
9337 2   
9338 5   
9339 7   
9340 2   
9341 5   
9342 10  
9343 9   
9344 2   
9345 6   
9346 1   
9347 5   
9348 1   
9349 3   
9350 5   
9351 1   
9352 8   
9353 5   
9354 4   
9355 3   
9356 8   
9357 4   
9358 2   
9359 10  
9360 8   
9361 8   
9362 8   
9363 5   
9364 7   
9365 10  
9366 8   
9367 4   
9368 7   
9369 8   
9370 1   
9371 1   
9372 4   
9373 6   
9374 1   
9375 3   
9376 6   
9377 5   
9378 1   
9379 1   
9380 8   
9381 9   
9382 3   
9383 6   
9384 3   
9385 5   
9386 1   
9387 1   
9388 7   
9389 10  
9390 5   
9391 10  
9392 10  
9393 4   
9394 6   
9395 3   
9396 3   
9397 7   
9398 9   
9399 2   
9400 4   
9401 2   
9402 10  
9403 3   
9404 5   
9405 7   
9406 2   
9407 5   
9408 4   
9409 2   
9410 5   
9411 7   
9412 8   
9413 2   
9414 5   
9415 6   
9416 4   
9417 5   
9418 3   
9419 2   
9420 7   
9421 2   
9422 4   
9423 6   
9424 10  
9425 10  
9426 4   
9427 10  
9428 5   
9429 2   
9430 3   
9431 4   
9432 6   
9433 9   
9434 8   
9435 5   
9436 7   
9437 9   
9438 9   
9439 9   
9440 3   
9441 6   
9442 5   
9443 6   
9444 3   
9445 7   
9446 8   
9447 10  
9448 4   
9449 4   
9450 10  
9451 9   
9452 2   
9453 3   
9454 4   
9455 5   
9456 7   
9457 3   
9458 5   
9459 6   
9460 6   
9461 9   
9462 4   
9463 6   
9464 6   
9465 6   
9466 7   
9467 7   
9468 5   
9469 5   
9470 2   
9471 7   
9472 6   
9473 1   
9474 7   
9475 8   
9476 5   
9477 7   
9478 4   
9479 7   
9480 6   
9481 6   
9482 5   
9483 10  
9484 10  
9485 8   
9486 6   
9487 4   
9488 5   
9489 7   
9490 9   
9491 5   
9492 10  
9493 8   
9494 5   
9495 5   
9496 2   
9497 4   
9498 5   
9499 9   
9500 8   
9501 7   
9502 1   
9503 6   
9504 3   
9505 7   
9506 10  
9507 1   
9508 4   
9509 1   
9510 3   
9511 10  
9512 9   
9513 1   
9514 2   
9515 7   
9516 9   
9517 2   
9518 10  
9519 2   
9520 10  
9521 7   
9522 6   
9523 6   
9524 10  
9525 6   
9526 10  
9527 1   
9528 4   
9529 6   
9530 1   
9531 10  
9532 3   
9533 2   
9534 3   
9535 9   
9536 3   
9537 6   
9538 3   
9539 2   
9540 5   
9541 6   
9542 4   
9543 3   
9544 2   
9545 2   
9546 8   
9547 6   
9548 7   
9549 2   
9550 6   
9551 3   
9552 6   
9553 1   
9554 9   
9555 1   
9556 8   
9557 6   
9558 10  
9559 5   
9560 1   
9561 10  
9562 10  
9563 3   
9564 2   
9565 4   
9566 8   
9567 5   
9568 5   
9569 4   
9570 1   
9571 5   
9572 5   
9573 3   
9574 7   
9575 2   
9576 6   
9577 10  
9578 1   
9579 8   
9580 7   
9581 1   
9582 3   
9583 6   
9584 8   
9585 3   
9586 5   
9587 5   
9588 9   
9589 6   
9590 10  
9591 7   
9592 1   
9593 4   
9594 2   
9595 4   
9596 6   
9597 4   
9598 9   
9599 6   
9600 4   
9601 2   
9602 2   
9603 9   
9604 6   
9605 6   
9606 8   
9607 7   
9608 8   
9609 3   
9610 1   
9611 3   
9612 1   
9613 6   
9614 8   
9615 4   
9616 7   
9617 7   
9618 6   
9619 10  
9620 4   
9621 8   
9622 6   
9623 7   
9624 7   
9625 5   
9626 10  
9627 4   
9628 4   
9629 4   
9630 2   
9631 2   
9632 7   
9633 5   
9634 8   
9635 1   
9636 10  
9637 9   
9638 10  
9639 8   
9640 10  
9641 3   
9642 1   
9643 2   
9644 1   
9645 8   
9646 10  
9647 9   
9648 4   
9649 1   
9650 8   
9651 3   
9652 4   
9653 3   
9654 6   
9655 7   
9656 4   
9657 10  
9658 3   
9659 3   
9660 1   
9661 3   
9662 4   
9663 1   
9664 3   
9665 3   
9666 6   
9667 9   
9668 1   
9669 6   
9670 9   
9671 1   
9672 6   
9673 6   
9674 1   
9675 3   
9676 3   
9677 10  
9678 8   
9679 10  
9680 8   
9681 4   
9682 1   
9683 6   
9684 8   
9685 5   
9686 4   
9687 10  
9688 6   
9689 8   
9690 3   
9691 4   
9692 7   
9693 4   
9694 8   
9695 8   
9696 7   
9697 10  
9698 4   
9699 9   
9700 8   
9701 1   
9702 2   
9703 8   
9704 5   
9705 6   
9706 6   
9707 10  
9708 9   
9709 4   
9710 8   
9711 5   
9712 7   
9713 1   
9714 5   
9715 8   
9716 6   
9717 8   
9718 3   
9719 10  
9720 7   
9721 8   
9722 6   
9723 9   
9724 5   
9725 7   
9726 4   
9727 4   
9728 4   
9729 6   
9730 3   
9731 5   
9732 8   
9733 2   
9734 7   
9735 1   
9736 8   
9737 10  
9738 10  
9739 10  
9740 3   
9741 10  
9742 3   
9743 2   
9744 3   
9745 5   
9746 3   
9747 10  
9748 7   
9749 6   
9750 6   
9751 5   
9752 5   
9753 5   
9754 7   
9755 5   
9756 1   
9757 7   
9758 3   
9759 8   
9760 8   
9761 2   
9762 10  
9763 10  
9764 4   
9765 4   
9766 4   
9767 9   
9768 9   
9769 4   
9770 7   
9771 4   
9772 3   
9773 1   
9774 2   
9775 1   
9776 3   
9777 10  
9778 1   
9779 8   
9780 5   
9781 2   
9782 3   
9783 4   
9784 6   
9785 8   
9786 4   
9787 2   
9788 6   
9789 1   
9790 2   
9791 5   
9792 4   
9793 9   
9794 5   
9795 1   
9796 1   
9797 1   
9798 7   
9799 1   
9800 9   
9801 6   
9802 10  
9803 4   
9804 3   
9805 1   
9806 6   
9807 6   
9808 7   
9809 1   
9810 9   
9811 4   
9812 8   
9813 2   
9814 5   
9815 10  
9816 7   
9817 4   
9818 5   
9819 5   
9820 3   
9821 8   
9822 5   
9823 7   
9824 7   
9825 4   
9826 9   
9827 5   
9828 4   
9829 7   
9830 8   
9831 5   
9832 2   
9833 2   
9834 7   
9835 4   
9836 7   
9837 3   
9838 6   
9839 1   
9840 1   
9841 7   
9842 1   
9843 2   
9844 1   
9845 3   
9846 4   
9847 8   
9848 7   
9849 1   
9850 6   
9851 8   
9852 6   
9853 3   
9854 4   
9855 7   
9856 1   
9857 3   
9858 9   
9859 4   
9860 7   
9861 7   
9862 9   
9863 9   
9864 5   
9865 9   
9866 10  
9867 4   
9868 5   
9869 8   
9870 8   
9871 9   
9872 10  
9873 1   
9874 1   
9875 5   
9876 10  
9877 6   
9878 2   
9879 3   
9880 1   
9881 5   
9882 1   
9883 5   
9884 2   
9885 8   
9886 4   
9887 8   
9888 8   
9889 2   
9890 10  
9891 3   
9892 4   
9893 4   
9894 10  
9895 9   
9896 10  
9897 9   
9898 4   
9899 3   
9900 10  
9901 6   
9902 10  
9903 6   
9904 3   
9905 4   
9906 7   
9907 1   
9908 5   
9909 1   
9910 5   
9911 4   
9912 10  
9913 2   
9914 9   
9915 8   
9916 10  
9917 1   
9918 8   
9919 1   
9920 9   
9921 4   
9922 1   
9923 2   
9924 9   
9925 8   
9926 3   
9927 9   
9928 8   
9929 6   
9930 6   
9931 10  
9932 5   
9933 7   
9934 5   
9935 4   
9936 9   
9937 5   
9938 7   
9939 5   
9940 8   
9941 2   
9942 4   
9943 9   
9944 1   
9945 1   
9946 9   
9947 4   
9948 5   
9949 6   
9950 5   
9951 7   
9952 1   
9953 4   
9954 1   
9955 2   
9956 2   
9957 5   
9958 6   
9959 1   
9960 9   
9961 4   
9962 2   
9963 8   
9964 4   
9965 1   
9966 10  
9967 3   
9968 9   
9969 10  
9970 3   
9971 2   
9972 4   
9973 4   
9974 6   
9975 1   
9976 6   
9977 4   
9978 9   
9979 7   
9980 5   
9981 8   
9982 3   
9983 1   
9984 10  
9985 7   
9986 4   
9987 6   
9988 8   
9989 5   
9990 8   
9991 4   
9992 4   
9993 6   
9994 3   
9995 10  
9996 7   
9997 10  
9998 2   
9999 10  
10000 2   
10001 4   
DEPOT_SECTION
1
-1
EOF
