NAME : XML5000_2173_01
COMMENT : Generated as the XML100 dataset from the CVRPLIB
TYPE : CVRP
DIMENSION : 5001
EDGE_WEIGHT_TYPE : EUC_2D
CAPACITY : 149
NODE_COORD_SECTION
1    500  500 
2    945  530 
3    529  69  
4    818  471 
5    915  659 
6    491  363 
7    682  967 
8    240  894 
9    558  647 
10   723  430 
11   190  246 
12   131  782 
13   278  532 
14   189  81  
15   800  186 
16   892  107 
17   983  284 
18   695  648 
19   475  499 
20   221  885 
21   440  132 
22   205  113 
23   546  738 
24   945  247 
25   177  528 
26   1    191 
27   113  658 
28   936  782 
29   883  415 
30   293  297 
31   42   235 
32   61   861 
33   172  781 
34   635  184 
35   784  893 
36   514  394 
37   53   62  
38   518  685 
39   773  992 
40   794  170 
41   711  585 
42   970  939 
43   878  816 
44   699  174 
45   368  68  
46   187  536 
47   718  254 
48   573  713 
49   577  782 
50   188  681 
51   83   731 
52   498  763 
53   799  753 
54   998  350 
55   524  275 
56   624  917 
57   508  206 
58   987  235 
59   713  785 
60   368  270 
61   129  829 
62   19   535 
63   426  796 
64   776  719 
65   742  270 
66   226  209 
67   997  425 
68   84   247 
69   192  406 
70   784  741 
71   852  314 
72   705  244 
73   856  531 
74   415  196 
75   54   780 
76   35   96  
77   590  754 
78   384  312 
79   348  700 
80   114  826 
81   742  409 
82   227  82  
83   122  273 
84   710  246 
85   677  444 
86   774  420 
87   299  606 
88   231  411 
89   33   59  
90   808  436 
91   879  252 
92   364  453 
93   646  183 
94   975  722 
95   942  675 
96   49   528 
97   359  311 
98   50   884 
99   572  977 
100  609  857 
101  98   63  
102  978  472 
103  34   448 
104  14   858 
105  876  900 
106  880  570 
107  419  134 
108  26   710 
109  924  614 
110  281  169 
111  985  624 
112  491  744 
113  935  539 
114  274  581 
115  398  755 
116  580  653 
117  245  521 
118  907  58  
119  284  372 
120  486  599 
121  983  442 
122  326  428 
123  346  941 
124  552  102 
125  366  424 
126  168  676 
127  186  530 
128  81   133 
129  9    59  
130  890  219 
131  335  568 
132  800  794 
133  584  673 
134  363  610 
135  736  717 
136  2    970 
137  75   640 
138  645  441 
139  147  600 
140  206  346 
141  885  714 
142  617  529 
143  524  75  
144  617  447 
145  210  105 
146  301  521 
147  756  298 
148  449  93  
149  234  99  
150  969  774 
151  285  388 
152  342  693 
153  236  917 
154  277  975 
155  723  934 
156  799  517 
157  343  905 
158  159  524 
159  218  389 
160  329  75  
161  38   983 
162  369  492 
163  793  724 
164  741  156 
165  393  76  
166  601  252 
167  231  739 
168  677  740 
169  345  331 
170  308  694 
171  368  799 
172  773  876 
173  777  361 
174  744  724 
175  942  102 
176  407  745 
177  548  438 
178  531  342 
179  253  877 
180  863  835 
181  38   177 
182  239  430 
183  517  343 
184  352  2   
185  384  520 
186  43   781 
187  500  954 
188  561  712 
189  48   336 
190  897  867 
191  33   953 
192  213  992 
193  915  433 
194  202  115 
195  184  730 
196  934  896 
197  94   360 
198  723  482 
199  226  365 
200  893  345 
201  586  477 
202  368  588 
203  807  724 
204  917  14  
205  165  734 
206  261  618 
207  78   944 
208  902  744 
209  210  130 
210  887  426 
211  888  146 
212  544  591 
213  582  490 
214  873  450 
215  176  62  
216  416  871 
217  952  484 
218  329  394 
219  844  351 
220  475  106 
221  990  945 
222  258  524 
223  225  583 
224  634  135 
225  775  113 
226  985  937 
227  106  137 
228  623  278 
229  273  179 
230  275  230 
231  645  870 
232  206  164 
233  939  319 
234  299  668 
235  617  425 
236  981  968 
237  447  81  
238  340  554 
239  107  154 
240  677  948 
241  583  211 
242  197  276 
243  678  301 
244  516  152 
245  748  18  
246  295  907 
247  920  939 
248  371  148 
249  975  975 
250  996  254 
251  743  265 
252  356  29  
253  7    937 
254  653  993 
255  156  543 
256  321  418 
257  595  619 
258  569  388 
259  231  640 
260  770  328 
261  700  535 
262  495  255 
263  867  62  
264  901  333 
265  461  955 
266  686  332 
267  148  506 
268  999  549 
269  53   433 
270  505  225 
271  103  458 
272  587  431 
273  550  762 
274  684  584 
275  6    169 
276  561  166 
277  282  795 
278  28   752 
279  729  984 
280  16   605 
281  975  214 
282  129  431 
283  737  50  
284  366  300 
285  718  76  
286  57   749 
287  867  284 
288  408  354 
289  713  57  
290  363  486 
291  660  762 
292  457  416 
293  992  96  
294  612  777 
295  555  273 
296  938  561 
297  314  84  
298  618  230 
299  913  290 
300  198  867 
301  566  740 
302  199  5   
303  87   148 
304  384  767 
305  42   954 
306  573  195 
307  829  398 
308  81   848 
309  558  873 
310  246  639 
311  621  673 
312  340  346 
313  655  310 
314  362  843 
315  588  302 
316  589  440 
317  487  469 
318  992  793 
319  749  439 
320  990  622 
321  721  203 
322  540  649 
323  62   93  
324  120  964 
325  691  450 
326  893  727 
327  680  849 
328  807  342 
329  898  558 
330  38   529 
331  646  293 
332  282  728 
333  924  159 
334  407  958 
335  782  862 
336  661  253 
337  611  373 
338  719  385 
339  828  770 
340  722  509 
341  521  394 
342  684  792 
343  561  953 
344  393  580 
345  907  661 
346  230  781 
347  138  858 
348  67   381 
349  436  923 
350  808  68  
351  588  552 
352  979  816 
353  295  782 
354  259  441 
355  5    138 
356  225  505 
357  867  950 
358  775  512 
359  428  186 
360  374  721 
361  910  850 
362  765  298 
363  432  360 
364  491  791 
365  292  311 
366  534  233 
367  555  52  
368  495  967 
369  665  532 
370  867  189 
371  885  203 
372  262  492 
373  686  457 
374  80   537 
375  428  329 
376  963  795 
377  11   812 
378  692  816 
379  360  868 
380  380  946 
381  679  538 
382  370  559 
383  496  297 
384  336  611 
385  903  678 
386  173  826 
387  118  912 
388  776  331 
389  27   364 
390  153  51  
391  635  294 
392  412  623 
393  108  836 
394  507  868 
395  195  562 
396  565  228 
397  252  878 
398  220  493 
399  955  98  
400  686  246 
401  118  771 
402  799  486 
403  766  623 
404  235  670 
405  548  648 
406  915  720 
407  625  992 
408  935  557 
409  257  398 
410  93   650 
411  20   353 
412  348  329 
413  795  784 
414  617  363 
415  959  525 
416  265  94  
417  819  150 
418  106  858 
419  820  776 
420  88   599 
421  103  497 
422  503  617 
423  241  79  
424  276  954 
425  188  511 
426  480  672 
427  873  79  
428  393  815 
429  547  375 
430  785  107 
431  658  251 
432  767  144 
433  183  692 
434  96   75  
435  424  712 
436  349  172 
437  408  642 
438  495  646 
439  421  212 
440  943  549 
441  416  609 
442  456  654 
443  661  271 
444  437  431 
445  934  18  
446  257  22  
447  866  530 
448  615  742 
449  155  473 
450  389  460 
451  299  521 
452  301  752 
453  321  548 
454  910  91  
455  359  36  
456  472  67  
457  27   857 
458  110  463 
459  809  836 
460  331  719 
461  443  9   
462  427  294 
463  708  480 
464  619  557 
465  620  258 
466  417  662 
467  72   973 
468  109  440 
469  736  783 
470  826  119 
471  826  989 
472  59   652 
473  81   212 
474  27   461 
475  266  46  
476  231  304 
477  859  424 
478  71   662 
479  419  241 
480  165  898 
481  516  212 
482  172  495 
483  979  905 
484  728  82  
485  853  928 
486  621  430 
487  754  730 
488  591  902 
489  832  48  
490  962  684 
491  562  489 
492  157  462 
493  892  391 
494  30   313 
495  472  533 
496  641  385 
497  109  875 
498  400  625 
499  419  866 
500  477  711 
501  496  517 
502  663  101 
503  62   884 
504  542  404 
505  411  249 
506  17   543 
507  380  277 
508  414  555 
509  365  71  
510  717  359 
511  2    588 
512  807  639 
513  483  625 
514  248  21  
515  525  469 
516  637  517 
517  195  69  
518  286  774 
519  140  949 
520  658  237 
521  107  881 
522  350  739 
523  591  798 
524  960  536 
525  301  315 
526  619  765 
527  800  524 
528  948  915 
529  454  790 
530  364  349 
531  73   946 
532  368  467 
533  861  462 
534  184  342 
535  452  482 
536  741  648 
537  689  914 
538  338  320 
539  781  439 
540  621  749 
541  514  351 
542  17   458 
543  181  631 
544  18   622 
545  554  588 
546  642  702 
547  186  41  
548  564  752 
549  886  164 
550  166  702 
551  580  716 
552  635  945 
553  372  348 
554  249  852 
555  547  413 
556  323  112 
557  584  806 
558  359  171 
559  603  869 
560  926  421 
561  469  871 
562  341  651 
563  409  4   
564  543  420 
565  232  182 
566  144  669 
567  969  649 
568  434  593 
569  773  431 
570  369  150 
571  668  667 
572  321  43  
573  174  375 
574  545  574 
575  783  620 
576  454  777 
577  679  655 
578  596  223 
579  995  714 
580  79   318 
581  963  395 
582  726  933 
583  195  360 
584  468  925 
585  289  840 
586  911  797 
587  271  584 
588  913  835 
589  168  134 
590  153  246 
591  500  656 
592  194  583 
593  634  946 
594  321  885 
595  712  429 
596  490  580 
597  485  938 
598  983  368 
599  753  842 
600  788  469 
601  382  3   
602  718  18  
603  483  936 
604  744  94  
605  870  377 
606  726  210 
607  230  87  
608  875  315 
609  929  956 
610  544  817 
611  896  521 
612  299  794 
613  933  924 
614  626  981 
615  681  6   
616  440  298 
617  918  341 
618  497  783 
619  4    509 
620  337  275 
621  284  80  
622  838  523 
623  195  535 
624  638  884 
625  640  115 
626  454  469 
627  592  860 
628  366  998 
629  551  434 
630  115  162 
631  849  67  
632  294  610 
633  868  310 
634  501  299 
635  781  798 
636  62   670 
637  892  428 
638  233  678 
639  986  108 
640  516  487 
641  976  74  
642  61   616 
643  922  577 
644  689  416 
645  377  486 
646  394  12  
647  72   446 
648  73   48  
649  572  385 
650  663  481 
651  386  335 
652  723  535 
653  406  449 
654  153  565 
655  722  757 
656  962  4   
657  121  855 
658  857  362 
659  514  115 
660  58   311 
661  259  791 
662  496  190 
663  941  731 
664  265  138 
665  301  294 
666  998  67  
667  401  141 
668  476  711 
669  898  654 
670  648  581 
671  495  207 
672  974  232 
673  719  943 
674  863  676 
675  135  931 
676  155  631 
677  710  29  
678  233  687 
679  882  4   
680  845  837 
681  313  263 
682  795  647 
683  262  696 
684  160  323 
685  913  123 
686  469  882 
687  751  367 
688  217  278 
689  74   393 
690  20   506 
691  847  534 
692  439  94  
693  169  411 
694  956  831 
695  172  315 
696  920  211 
697  484  178 
698  966  798 
699  142  454 
700  555  449 
701  974  655 
702  792  951 
703  702  69  
704  371  736 
705  295  74  
706  45   84  
707  652  439 
708  466  756 
709  654  349 
710  33   628 
711  216  276 
712  583  137 
713  473  304 
714  179  895 
715  329  174 
716  644  787 
717  442  407 
718  741  785 
719  498  280 
720  225  891 
721  318  631 
722  190  776 
723  139  790 
724  728  932 
725  212  253 
726  138  473 
727  800  647 
728  621  721 
729  65   974 
730  864  542 
731  811  121 
732  334  855 
733  243  587 
734  61   634 
735  376  947 
736  838  850 
737  748  724 
738  178  268 
739  162  50  
740  986  602 
741  628  895 
742  702  680 
743  80   737 
744  391  671 
745  322  674 
746  201  819 
747  400  685 
748  236  937 
749  735  383 
750  224  418 
751  729  728 
752  252  60  
753  397  943 
754  881  660 
755  609  613 
756  439  885 
757  116  230 
758  248  684 
759  246  459 
760  523  309 
761  655  677 
762  269  843 
763  676  832 
764  199  963 
765  471  830 
766  143  667 
767  224  218 
768  973  664 
769  336  329 
770  761  37  
771  195  572 
772  868  434 
773  85   706 
774  657  290 
775  394  911 
776  714  469 
777  566  809 
778  948  807 
779  75   315 
780  556  714 
781  3    775 
782  431  923 
783  361  941 
784  931  537 
785  290  914 
786  457  981 
787  973  431 
788  593  331 
789  612  676 
790  576  269 
791  29   577 
792  375  782 
793  673  808 
794  51   748 
795  161  679 
796  733  676 
797  2    795 
798  919  807 
799  370  449 
800  147  884 
801  25   170 
802  118  153 
803  615  814 
804  11   75  
805  528  362 
806  981  21  
807  486  299 
808  399  95  
809  403  408 
810  77   785 
811  649  400 
812  405  831 
813  902  834 
814  409  692 
815  618  442 
816  391  892 
817  263  764 
818  837  791 
819  713  454 
820  22   834 
821  331  868 
822  478  128 
823  43   798 
824  928  755 
825  1000 896 
826  88   250 
827  486  192 
828  659  389 
829  474  520 
830  861  961 
831  241  771 
832  720  373 
833  918  264 
834  473  512 
835  424  220 
836  316  941 
837  721  633 
838  199  147 
839  871  247 
840  191  906 
841  306  557 
842  35   418 
843  405  284 
844  78   498 
845  542  93  
846  856  313 
847  892  2   
848  728  953 
849  691  376 
850  145  695 
851  77   255 
852  298  764 
853  355  335 
854  468  54  
855  983  298 
856  838  221 
857  988  234 
858  129  782 
859  944  827 
860  407  494 
861  689  342 
862  950  415 
863  381  869 
864  117  527 
865  995  652 
866  248  263 
867  176  612 
868  46   190 
869  781  57  
870  909  68  
871  213  599 
872  596  595 
873  685  104 
874  794  369 
875  101  353 
876  887  539 
877  194  206 
878  175  80  
879  545  811 
880  251  604 
881  379  988 
882  438  738 
883  76   545 
884  574  885 
885  722  901 
886  597  674 
887  157  757 
888  358  94  
889  413  619 
890  620  722 
891  322  960 
892  288  848 
893  696  280 
894  913  675 
895  271  231 
896  359  292 
897  241  58  
898  682  218 
899  757  428 
900  972  619 
901  934  365 
902  974  489 
903  232  569 
904  214  290 
905  787  560 
906  76   263 
907  371  142 
908  278  165 
909  504  707 
910  545  742 
911  638  645 
912  417  330 
913  515  519 
914  718  759 
915  989  805 
916  719  346 
917  131  965 
918  264  792 
919  764  235 
920  857  447 
921  674  223 
922  572  451 
923  493  59  
924  793  845 
925  60   303 
926  242  816 
927  833  422 
928  651  757 
929  160  515 
930  341  306 
931  160  381 
932  911  762 
933  586  585 
934  662  121 
935  628  204 
936  424  34  
937  116  35  
938  957  563 
939  870  683 
940  320  985 
941  122  118 
942  66   190 
943  268  934 
944  608  971 
945  424  380 
946  689  635 
947  870  79  
948  543  191 
949  851  161 
950  176  492 
951  800  578 
952  617  659 
953  470  601 
954  236  129 
955  697  369 
956  308  835 
957  662  790 
958  588  571 
959  223  883 
960  918  396 
961  885  87  
962  480  248 
963  290  179 
964  761  89  
965  797  107 
966  780  485 
967  193  517 
968  802  685 
969  766  714 
970  305  963 
971  659  707 
972  675  220 
973  768  810 
974  843  56  
975  564  861 
976  275  714 
977  777  199 
978  633  23  
979  686  444 
980  317  262 
981  299  263 
982  230  391 
983  490  647 
984  624  382 
985  971  706 
986  826  195 
987  183  680 
988  458  428 
989  555  828 
990  900  336 
991  831  667 
992  280  227 
993  192  592 
994  833  296 
995  501  927 
996  708  163 
997  212  72  
998  599  257 
999  928  543 
1000 760  142 
1001 786  158 
1002 616  72  
1003 623  399 
1004 736  578 
1005 510  230 
1006 968  379 
1007 398  232 
1008 424  184 
1009 995  675 
1010 119  369 
1011 834  178 
1012 727  118 
1013 874  13  
1014 161  580 
1015 932  208 
1016 237  699 
1017 346  31  
1018 958  371 
1019 6    347 
1020 851  279 
1021 78   899 
1022 819  821 
1023 548  746 
1024 787  434 
1025 381  551 
1026 143  22  
1027 239  599 
1028 662  461 
1029 805  831 
1030 976  964 
1031 170  80  
1032 722  216 
1033 272  139 
1034 372  862 
1035 840  478 
1036 677  980 
1037 567  789 
1038 142  271 
1039 896  133 
1040 823  890 
1041 73   516 
1042 571  350 
1043 75   687 
1044 515  787 
1045 901  87  
1046 572  320 
1047 353  833 
1048 264  559 
1049 573  879 
1050 870  307 
1051 526  892 
1052 385  384 
1053 583  192 
1054 452  582 
1055 987  398 
1056 681  72  
1057 534  634 
1058 534  49  
1059 496  642 
1060 590  729 
1061 865  880 
1062 977  514 
1063 301  359 
1064 674  546 
1065 839  412 
1066 897  414 
1067 348  774 
1068 916  987 
1069 41   487 
1070 520  985 
1071 207  534 
1072 85   768 
1073 67   950 
1074 411  686 
1075 981  59  
1076 17   555 
1077 894  919 
1078 92   982 
1079 434  142 
1080 308  651 
1081 165  14  
1082 774  697 
1083 632  173 
1084 633  33  
1085 886  519 
1086 616  508 
1087 190  595 
1088 486  15  
1089 144  690 
1090 568  948 
1091 899  546 
1092 292  391 
1093 330  491 
1094 978  610 
1095 82   709 
1096 486  853 
1097 603  493 
1098 857  172 
1099 566  580 
1100 469  932 
1101 881  707 
1102 697  974 
1103 169  146 
1104 4    418 
1105 79   293 
1106 651  364 
1107 870  559 
1108 686  680 
1109 854  286 
1110 287  872 
1111 435  115 
1112 308  739 
1113 573  628 
1114 987  690 
1115 974  50  
1116 668  598 
1117 5    333 
1118 575  826 
1119 959  524 
1120 775  402 
1121 982  359 
1122 582  471 
1123 766  767 
1124 217  303 
1125 0    425 
1126 404  910 
1127 663  626 
1128 264  590 
1129 245  879 
1130 469  86  
1131 881  619 
1132 570  118 
1133 74   550 
1134 369  226 
1135 353  168 
1136 408  376 
1137 541  226 
1138 317  760 
1139 299  846 
1140 981  294 
1141 212  101 
1142 433  336 
1143 966  58  
1144 319  756 
1145 469  941 
1146 599  300 
1147 71   809 
1148 371  115 
1149 78   432 
1150 528  862 
1151 781  388 
1152 265  245 
1153 125  416 
1154 677  371 
1155 144  28  
1156 0    870 
1157 515  63  
1158 129  83  
1159 847  903 
1160 918  424 
1161 559  430 
1162 858  530 
1163 14   444 
1164 252  927 
1165 695  229 
1166 755  902 
1167 701  222 
1168 24   38  
1169 250  168 
1170 124  930 
1171 105  528 
1172 144  885 
1173 624  410 
1174 202  55  
1175 789  977 
1176 521  595 
1177 497  430 
1178 23   39  
1179 188  102 
1180 355  645 
1181 154  879 
1182 335  667 
1183 47   886 
1184 80   338 
1185 810  771 
1186 920  725 
1187 107  126 
1188 513  919 
1189 641  218 
1190 184  645 
1191 629  840 
1192 478  491 
1193 371  687 
1194 136  467 
1195 446  191 
1196 50   210 
1197 527  612 
1198 414  452 
1199 396  631 
1200 568  54  
1201 930  248 
1202 87   742 
1203 627  414 
1204 987  863 
1205 611  504 
1206 678  15  
1207 868  489 
1208 463  919 
1209 423  736 
1210 194  626 
1211 782  420 
1212 177  352 
1213 893  511 
1214 947  401 
1215 865  613 
1216 40   339 
1217 607  918 
1218 828  961 
1219 896  964 
1220 460  619 
1221 43   974 
1222 261  448 
1223 46   457 
1224 840  805 
1225 713  391 
1226 841  602 
1227 769  405 
1228 163  111 
1229 402  662 
1230 471  574 
1231 938  49  
1232 131  717 
1233 558  100 
1234 577  525 
1235 618  179 
1236 504  645 
1237 324  58  
1238 549  20  
1239 179  729 
1240 289  435 
1241 950  904 
1242 660  105 
1243 732  276 
1244 684  151 
1245 79   304 
1246 850  683 
1247 388  417 
1248 266  255 
1249 856  190 
1250 178  845 
1251 763  608 
1252 716  891 
1253 863  691 
1254 133  56  
1255 705  100 
1256 227  488 
1257 652  242 
1258 116  811 
1259 1000 552 
1260 13   157 
1261 88   98  
1262 512  362 
1263 549  374 
1264 69   64  
1265 551  86  
1266 37   23  
1267 240  109 
1268 773  232 
1269 539  694 
1270 5    126 
1271 133  73  
1272 351  843 
1273 445  871 
1274 134  999 
1275 559  246 
1276 851  114 
1277 927  457 
1278 51   464 
1279 232  738 
1280 321  748 
1281 789  296 
1282 404  778 
1283 761  763 
1284 172  478 
1285 84   392 
1286 28   858 
1287 33   608 
1288 674  37  
1289 804  897 
1290 842  418 
1291 400  12  
1292 534  468 
1293 993  822 
1294 848  650 
1295 441  625 
1296 462  435 
1297 429  708 
1298 708  772 
1299 48   744 
1300 104  587 
1301 11   508 
1302 399  125 
1303 219  369 
1304 788  156 
1305 791  161 
1306 632  534 
1307 979  65  
1308 375  519 
1309 47   90  
1310 964  573 
1311 231  547 
1312 532  153 
1313 201  193 
1314 257  748 
1315 238  261 
1316 477  841 
1317 367  542 
1318 978  942 
1319 903  877 
1320 890  956 
1321 941  795 
1322 689  319 
1323 338  90  
1324 485  212 
1325 547  274 
1326 526  955 
1327 934  881 
1328 609  736 
1329 42   675 
1330 77   597 
1331 331  396 
1332 937  472 
1333 375  766 
1334 212  791 
1335 945  742 
1336 447  104 
1337 283  916 
1338 548  581 
1339 201  1000
1340 680  971 
1341 437  386 
1342 145  320 
1343 665  794 
1344 332  357 
1345 405  612 
1346 225  872 
1347 579  105 
1348 528  954 
1349 139  430 
1350 543  706 
1351 267  184 
1352 152  963 
1353 513  160 
1354 34   846 
1355 927  547 
1356 891  549 
1357 145  804 
1358 784  921 
1359 849  837 
1360 558  746 
1361 170  804 
1362 246  685 
1363 577  825 
1364 353  601 
1365 194  8   
1366 466  984 
1367 799  339 
1368 231  600 
1369 178  283 
1370 490  25  
1371 551  68  
1372 237  102 
1373 899  178 
1374 864  262 
1375 519  592 
1376 518  984 
1377 315  94  
1378 560  84  
1379 631  865 
1380 542  281 
1381 175  143 
1382 140  278 
1383 966  142 
1384 472  777 
1385 397  758 
1386 677  574 
1387 715  977 
1388 111  696 
1389 898  211 
1390 754  620 
1391 494  414 
1392 189  713 
1393 445  575 
1394 852  225 
1395 856  687 
1396 801  677 
1397 200  29  
1398 553  830 
1399 790  742 
1400 976  622 
1401 558  642 
1402 408  533 
1403 170  924 
1404 279  274 
1405 559  474 
1406 448  417 
1407 781  108 
1408 675  761 
1409 622  208 
1410 270  752 
1411 114  411 
1412 723  686 
1413 776  905 
1414 335  235 
1415 796  162 
1416 634  965 
1417 764  33  
1418 946  371 
1419 12   587 
1420 925  23  
1421 551  125 
1422 311  423 
1423 41   71  
1424 991  924 
1425 315  87  
1426 831  262 
1427 101  991 
1428 577  53  
1429 738  314 
1430 980  355 
1431 302  158 
1432 433  842 
1433 359  411 
1434 142  914 
1435 489  854 
1436 127  730 
1437 682  562 
1438 510  214 
1439 148  768 
1440 41   285 
1441 149  996 
1442 188  590 
1443 777  401 
1444 282  202 
1445 362  284 
1446 714  201 
1447 56   777 
1448 57   48  
1449 383  486 
1450 131  300 
1451 80   452 
1452 100  114 
1453 579  938 
1454 599  439 
1455 673  305 
1456 52   253 
1457 751  262 
1458 240  719 
1459 403  397 
1460 996  511 
1461 886  330 
1462 134  816 
1463 300  438 
1464 301  907 
1465 892  530 
1466 858  504 
1467 605  551 
1468 714  427 
1469 698  564 
1470 272  202 
1471 991  901 
1472 5    557 
1473 501  936 
1474 374  452 
1475 376  547 
1476 565  170 
1477 514  940 
1478 358  599 
1479 783  905 
1480 148  783 
1481 829  826 
1482 320  475 
1483 581  479 
1484 249  491 
1485 910  549 
1486 748  64  
1487 967  588 
1488 306  568 
1489 327  248 
1490 257  913 
1491 254  663 
1492 8    40  
1493 209  278 
1494 321  935 
1495 589  480 
1496 532  944 
1497 535  676 
1498 809  365 
1499 441  144 
1500 370  342 
1501 756  620 
1502 280  18  
1503 23   746 
1504 136  332 
1505 651  712 
1506 690  472 
1507 49   416 
1508 85   705 
1509 176  862 
1510 450  628 
1511 141  859 
1512 74   440 
1513 131  51  
1514 150  747 
1515 667  968 
1516 227  849 
1517 121  873 
1518 176  370 
1519 213  979 
1520 343  772 
1521 469  14  
1522 880  517 
1523 753  710 
1524 535  394 
1525 497  743 
1526 422  747 
1527 934  925 
1528 868  783 
1529 900  200 
1530 537  484 
1531 155  275 
1532 830  9   
1533 263  473 
1534 447  140 
1535 247  137 
1536 267  538 
1537 605  791 
1538 824  429 
1539 164  950 
1540 199  42  
1541 53   939 
1542 57   66  
1543 590  212 
1544 646  721 
1545 791  109 
1546 827  127 
1547 371  500 
1548 266  584 
1549 232  483 
1550 728  382 
1551 359  789 
1552 12   84  
1553 72   951 
1554 767  114 
1555 288  724 
1556 753  925 
1557 165  690 
1558 352  594 
1559 224  775 
1560 497  20  
1561 246  649 
1562 374  423 
1563 909  766 
1564 417  605 
1565 438  318 
1566 187  640 
1567 928  756 
1568 839  301 
1569 41   670 
1570 903  735 
1571 425  676 
1572 305  846 
1573 583  375 
1574 125  496 
1575 931  37  
1576 179  853 
1577 1    629 
1578 468  270 
1579 555  753 
1580 97   569 
1581 793  4   
1582 578  818 
1583 832  121 
1584 315  149 
1585 463  990 
1586 779  489 
1587 243  432 
1588 727  407 
1589 729  44  
1590 216  548 
1591 466  804 
1592 107  471 
1593 859  202 
1594 378  393 
1595 147  387 
1596 57   623 
1597 295  764 
1598 774  300 
1599 424  422 
1600 878  24  
1601 385  266 
1602 49   527 
1603 854  451 
1604 784  582 
1605 711  462 
1606 563  872 
1607 267  753 
1608 693  404 
1609 697  388 
1610 430  817 
1611 384  409 
1612 123  762 
1613 385  443 
1614 557  656 
1615 851  37  
1616 338  922 
1617 263  446 
1618 927  408 
1619 51   844 
1620 966  237 
1621 111  741 
1622 934  506 
1623 936  400 
1624 919  626 
1625 609  107 
1626 353  226 
1627 815  333 
1628 637  882 
1629 690  300 
1630 999  672 
1631 654  318 
1632 599  959 
1633 356  105 
1634 215  267 
1635 914  475 
1636 327  664 
1637 916  395 
1638 258  87  
1639 426  981 
1640 78   943 
1641 852  966 
1642 500  851 
1643 999  561 
1644 620  247 
1645 748  316 
1646 397  501 
1647 182  885 
1648 508  358 
1649 718  540 
1650 664  798 
1651 458  552 
1652 519  480 
1653 437  281 
1654 775  449 
1655 393  776 
1656 798  866 
1657 639  848 
1658 378  259 
1659 51   78  
1660 605  523 
1661 395  374 
1662 105  246 
1663 93   471 
1664 809  465 
1665 333  617 
1666 100  641 
1667 871  151 
1668 32   508 
1669 840  868 
1670 52   442 
1671 884  629 
1672 811  191 
1673 314  509 
1674 119  823 
1675 706  545 
1676 946  922 
1677 891  48  
1678 67   223 
1679 565  836 
1680 413  908 
1681 436  595 
1682 769  156 
1683 308  837 
1684 718  169 
1685 720  243 
1686 631  633 
1687 651  871 
1688 356  231 
1689 910  895 
1690 712  525 
1691 251  462 
1692 70   203 
1693 753  381 
1694 201  8   
1695 493  495 
1696 384  45  
1697 789  765 
1698 862  226 
1699 702  310 
1700 223  337 
1701 382  564 
1702 62   81  
1703 462  282 
1704 535  797 
1705 157  312 
1706 341  587 
1707 195  125 
1708 161  352 
1709 252  295 
1710 951  568 
1711 845  672 
1712 682  649 
1713 536  713 
1714 612  7   
1715 902  114 
1716 705  214 
1717 495  470 
1718 121  466 
1719 72   757 
1720 180  382 
1721 126  392 
1722 494  591 
1723 370  403 
1724 596  755 
1725 466  309 
1726 985  585 
1727 948  749 
1728 326  201 
1729 626  877 
1730 3    589 
1731 477  83  
1732 116  194 
1733 575  782 
1734 501  695 
1735 977  266 
1736 709  973 
1737 925  640 
1738 656  156 
1739 305  575 
1740 750  442 
1741 143  8   
1742 715  699 
1743 862  229 
1744 863  802 
1745 991  387 
1746 742  229 
1747 392  623 
1748 284  517 
1749 892  159 
1750 107  331 
1751 931  310 
1752 198  221 
1753 236  621 
1754 863  947 
1755 498  927 
1756 918  528 
1757 480  455 
1758 373  542 
1759 464  129 
1760 778  821 
1761 263  880 
1762 601  494 
1763 178  105 
1764 144  724 
1765 624  462 
1766 164  543 
1767 949  369 
1768 458  867 
1769 790  352 
1770 20   689 
1771 24   308 
1772 259  248 
1773 128  424 
1774 399  558 
1775 110  585 
1776 62   719 
1777 319  553 
1778 875  136 
1779 503  843 
1780 587  898 
1781 414  489 
1782 751  127 
1783 510  374 
1784 956  642 
1785 830  362 
1786 447  355 
1787 948  667 
1788 0    476 
1789 91   832 
1790 272  140 
1791 787  872 
1792 495  952 
1793 811  75  
1794 187  507 
1795 5    747 
1796 280  124 
1797 663  432 
1798 463  414 
1799 403  444 
1800 375  8   
1801 88   762 
1802 35   981 
1803 273  163 
1804 718  815 
1805 147  963 
1806 879  477 
1807 60   608 
1808 42   23  
1809 170  480 
1810 129  422 
1811 389  439 
1812 337  315 
1813 902  108 
1814 173  394 
1815 672  988 
1816 321  703 
1817 765  454 
1818 288  123 
1819 51   287 
1820 545  212 
1821 818  266 
1822 57   946 
1823 921  901 
1824 260  590 
1825 565  863 
1826 782  719 
1827 604  398 
1828 729  782 
1829 712  872 
1830 92   365 
1831 551  363 
1832 700  551 
1833 554  598 
1834 699  553 
1835 574  216 
1836 297  12  
1837 131  827 
1838 653  727 
1839 68   83  
1840 948  866 
1841 607  16  
1842 510  925 
1843 903  478 
1844 906  468 
1845 48   564 
1846 234  502 
1847 549  919 
1848 932  446 
1849 785  782 
1850 677  162 
1851 385  408 
1852 385  835 
1853 207  311 
1854 373  406 
1855 962  95  
1856 123  473 
1857 747  361 
1858 696  570 
1859 570  223 
1860 474  40  
1861 71   819 
1862 609  392 
1863 459  436 
1864 491  567 
1865 537  608 
1866 547  174 
1867 655  401 
1868 452  170 
1869 199  576 
1870 562  125 
1871 833  941 
1872 761  568 
1873 153  339 
1874 707  491 
1875 376  463 
1876 963  885 
1877 689  385 
1878 752  149 
1879 491  443 
1880 236  126 
1881 440  673 
1882 331  274 
1883 495  389 
1884 611  529 
1885 208  333 
1886 596  817 
1887 173  54  
1888 31   605 
1889 622  464 
1890 841  20  
1891 142  624 
1892 217  996 
1893 589  313 
1894 952  934 
1895 613  153 
1896 370  923 
1897 350  840 
1898 973  816 
1899 741  563 
1900 260  941 
1901 997  84  
1902 599  992 
1903 908  446 
1904 231  138 
1905 654  686 
1906 345  802 
1907 932  961 
1908 44   180 
1909 154  916 
1910 10   356 
1911 730  992 
1912 31   883 
1913 344  400 
1914 382  342 
1915 972  869 
1916 271  481 
1917 167  702 
1918 81   268 
1919 830  741 
1920 523  824 
1921 669  718 
1922 581  892 
1923 264  369 
1924 905  818 
1925 525  532 
1926 325  936 
1927 959  564 
1928 364  757 
1929 931  782 
1930 773  688 
1931 758  406 
1932 849  188 
1933 903  460 
1934 704  148 
1935 727  648 
1936 1000 586 
1937 215  468 
1938 786  880 
1939 513  552 
1940 641  168 
1941 54   135 
1942 364  772 
1943 681  740 
1944 52   615 
1945 699  427 
1946 269  540 
1947 243  330 
1948 481  491 
1949 526  395 
1950 159  253 
1951 345  81  
1952 880  191 
1953 72   354 
1954 609  410 
1955 55   444 
1956 935  411 
1957 476  765 
1958 716  64  
1959 778  466 
1960 653  625 
1961 156  911 
1962 12   465 
1963 414  926 
1964 933  193 
1965 165  738 
1966 242  756 
1967 459  717 
1968 705  575 
1969 44   501 
1970 118  642 
1971 445  423 
1972 619  107 
1973 987  719 
1974 109  431 
1975 787  900 
1976 992  754 
1977 257  271 
1978 500  393 
1979 669  13  
1980 852  275 
1981 615  560 
1982 526  483 
1983 303  371 
1984 484  152 
1985 585  184 
1986 749  298 
1987 268  311 
1988 474  402 
1989 864  790 
1990 629  372 
1991 922  788 
1992 336  586 
1993 245  694 
1994 377  837 
1995 508  117 
1996 787  610 
1997 883  761 
1998 862  575 
1999 60   846 
2000 757  613 
2001 591  905 
2002 704  393 
2003 922  368 
2004 671  512 
2005 837  958 
2006 839  387 
2007 897  54  
2008 532  918 
2009 294  363 
2010 594  527 
2011 562  548 
2012 248  175 
2013 302  283 
2014 303  395 
2015 747  55  
2016 470  424 
2017 807  412 
2018 294  655 
2019 192  540 
2020 585  161 
2021 289  620 
2022 614  218 
2023 215  604 
2024 200  342 
2025 822  845 
2026 865  827 
2027 77   453 
2028 853  261 
2029 925  920 
2030 47   434 
2031 550  154 
2032 60   837 
2033 520  878 
2034 97   181 
2035 206  10  
2036 406  738 
2037 45   813 
2038 10   708 
2039 709  326 
2040 543  708 
2041 489  502 
2042 788  352 
2043 806  67  
2044 628  682 
2045 735  758 
2046 811  577 
2047 37   473 
2048 163  648 
2049 834  943 
2050 928  867 
2051 527  368 
2052 765  154 
2053 729  553 
2054 658  535 
2055 590  618 
2056 827  705 
2057 203  804 
2058 845  802 
2059 644  444 
2060 500  84  
2061 172  729 
2062 7    205 
2063 641  179 
2064 164  729 
2065 804  140 
2066 71   895 
2067 752  0   
2068 41   229 
2069 663  347 
2070 974  297 
2071 461  170 
2072 46   150 
2073 945  741 
2074 582  265 
2075 785  553 
2076 346  481 
2077 917  545 
2078 130  437 
2079 538  995 
2080 370  100 
2081 95   112 
2082 260  528 
2083 499  718 
2084 139  417 
2085 375  213 
2086 892  859 
2087 269  147 
2088 659  320 
2089 915  759 
2090 73   165 
2091 842  573 
2092 475  60  
2093 529  556 
2094 86   349 
2095 843  441 
2096 600  711 
2097 525  568 
2098 231  908 
2099 584  854 
2100 203  221 
2101 168  286 
2102 261  314 
2103 498  915 
2104 653  894 
2105 374  956 
2106 503  166 
2107 468  132 
2108 876  9   
2109 855  390 
2110 998  315 
2111 256  539 
2112 683  273 
2113 684  852 
2114 205  887 
2115 557  376 
2116 759  554 
2117 261  331 
2118 872  342 
2119 349  829 
2120 410  502 
2121 585  60  
2122 859  653 
2123 716  735 
2124 716  100 
2125 240  181 
2126 19   300 
2127 186  81  
2128 331  533 
2129 390  431 
2130 247  487 
2131 174  61  
2132 337  878 
2133 319  287 
2134 840  206 
2135 416  155 
2136 9    838 
2137 364  475 
2138 202  266 
2139 38   459 
2140 811  959 
2141 827  472 
2142 993  13  
2143 810  368 
2144 137  668 
2145 947  578 
2146 486  66  
2147 807  982 
2148 934  785 
2149 816  619 
2150 653  887 
2151 306  431 
2152 57   889 
2153 919  617 
2154 922  293 
2155 9    299 
2156 156  398 
2157 339  918 
2158 108  348 
2159 833  153 
2160 836  549 
2161 546  456 
2162 728  369 
2163 468  353 
2164 416  146 
2165 589  486 
2166 993  6   
2167 994  396 
2168 225  124 
2169 298  90  
2170 461  446 
2171 797  761 
2172 869  257 
2173 261  411 
2174 759  794 
2175 929  417 
2176 970  357 
2177 790  919 
2178 717  845 
2179 94   480 
2180 276  56  
2181 97   442 
2182 187  629 
2183 888  998 
2184 64   248 
2185 407  904 
2186 979  401 
2187 992  271 
2188 955  824 
2189 434  38  
2190 215  608 
2191 471  431 
2192 470  882 
2193 737  711 
2194 662  203 
2195 720  820 
2196 899  637 
2197 42   669 
2198 259  730 
2199 704  802 
2200 63   554 
2201 242  552 
2202 466  343 
2203 504  681 
2204 144  522 
2205 436  632 
2206 661  316 
2207 702  887 
2208 335  75  
2209 232  808 
2210 503  111 
2211 175  809 
2212 52   197 
2213 179  0   
2214 364  124 
2215 950  799 
2216 111  943 
2217 439  57  
2218 738  346 
2219 903  963 
2220 975  726 
2221 117  143 
2222 351  774 
2223 151  357 
2224 283  494 
2225 981  832 
2226 134  808 
2227 840  438 
2228 270  626 
2229 588  358 
2230 883  901 
2231 554  696 
2232 131  50  
2233 993  563 
2234 226  675 
2235 863  251 
2236 373  560 
2237 444  27  
2238 688  921 
2239 155  357 
2240 709  92  
2241 88   640 
2242 782  887 
2243 748  41  
2244 177  123 
2245 444  909 
2246 59   558 
2247 650  522 
2248 974  261 
2249 885  886 
2250 120  123 
2251 798  87  
2252 249  601 
2253 986  479 
2254 35   872 
2255 254  202 
2256 843  468 
2257 418  982 
2258 534  573 
2259 39   113 
2260 534  392 
2261 116  306 
2262 609  636 
2263 596  4   
2264 115  128 
2265 445  101 
2266 613  92  
2267 818  10  
2268 393  71  
2269 212  336 
2270 431  844 
2271 162  550 
2272 475  414 
2273 109  493 
2274 219  571 
2275 254  384 
2276 588  270 
2277 40   406 
2278 850  529 
2279 156  162 
2280 302  321 
2281 88   536 
2282 177  694 
2283 378  939 
2284 783  434 
2285 30   671 
2286 750  725 
2287 716  426 
2288 989  527 
2289 168  847 
2290 868  672 
2291 885  718 
2292 795  64  
2293 389  804 
2294 318  780 
2295 266  939 
2296 981  373 
2297 468  739 
2298 815  13  
2299 487  806 
2300 829  843 
2301 314  959 
2302 224  614 
2303 539  528 
2304 279  192 
2305 673  764 
2306 670  478 
2307 156  525 
2308 85   102 
2309 806  944 
2310 971  518 
2311 493  769 
2312 979  253 
2313 870  43  
2314 47   611 
2315 501  278 
2316 64   404 
2317 123  268 
2318 857  729 
2319 507  102 
2320 512  888 
2321 691  378 
2322 851  688 
2323 274  189 
2324 735  13  
2325 718  929 
2326 518  472 
2327 685  307 
2328 558  195 
2329 649  415 
2330 725  748 
2331 781  650 
2332 636  25  
2333 653  778 
2334 123  765 
2335 550  402 
2336 755  531 
2337 555  414 
2338 884  354 
2339 336  899 
2340 776  171 
2341 335  895 
2342 301  518 
2343 505  45  
2344 857  768 
2345 502  275 
2346 487  197 
2347 768  426 
2348 361  925 
2349 236  912 
2350 731  676 
2351 936  998 
2352 789  785 
2353 349  228 
2354 421  727 
2355 80   274 
2356 3    561 
2357 738  590 
2358 724  909 
2359 392  345 
2360 84   119 
2361 409  874 
2362 103  320 
2363 585  449 
2364 395  395 
2365 986  794 
2366 669  870 
2367 931  662 
2368 791  98  
2369 975  875 
2370 69   571 
2371 512  676 
2372 86   395 
2373 931  871 
2374 364  668 
2375 898  465 
2376 438  414 
2377 810  351 
2378 647  757 
2379 431  382 
2380 931  267 
2381 329  279 
2382 471  521 
2383 937  413 
2384 832  799 
2385 120  620 
2386 816  526 
2387 230  26  
2388 565  722 
2389 896  508 
2390 144  369 
2391 996  677 
2392 596  162 
2393 891  51  
2394 393  444 
2395 322  823 
2396 179  495 
2397 513  424 
2398 418  428 
2399 862  421 
2400 628  627 
2401 962  740 
2402 834  209 
2403 409  796 
2404 752  677 
2405 17   393 
2406 713  673 
2407 698  154 
2408 61   661 
2409 832  999 
2410 562  858 
2411 280  698 
2412 613  269 
2413 156  143 
2414 767  564 
2415 125  558 
2416 401  304 
2417 519  674 
2418 849  239 
2419 958  987 
2420 425  781 
2421 940  194 
2422 373  442 
2423 513  944 
2424 713  584 
2425 787  132 
2426 789  360 
2427 165  883 
2428 862  598 
2429 864  423 
2430 295  30  
2431 321  423 
2432 267  114 
2433 106  406 
2434 305  315 
2435 90   108 
2436 434  267 
2437 571  637 
2438 823  516 
2439 862  428 
2440 347  375 
2441 296  312 
2442 772  103 
2443 911  368 
2444 388  787 
2445 848  432 
2446 167  661 
2447 155  111 
2448 501  225 
2449 980  628 
2450 780  812 
2451 781  495 
2452 107  445 
2453 695  131 
2454 473  832 
2455 772  876 
2456 37   410 
2457 720  122 
2458 956  160 
2459 868  757 
2460 318  857 
2461 600  330 
2462 857  605 
2463 605  199 
2464 969  59  
2465 532  662 
2466 623  280 
2467 471  464 
2468 350  852 
2469 99   468 
2470 81   126 
2471 998  788 
2472 584  403 
2473 323  201 
2474 899  583 
2475 574  562 
2476 59   924 
2477 684  182 
2478 176  80  
2479 341  949 
2480 659  861 
2481 273  459 
2482 664  965 
2483 41   951 
2484 171  768 
2485 243  399 
2486 776  446 
2487 403  517 
2488 447  983 
2489 708  502 
2490 655  649 
2491 232  882 
2492 547  583 
2493 303  489 
2494 343  77  
2495 711  540 
2496 323  605 
2497 511  586 
2498 368  775 
2499 41   13  
2500 905  468 
2501 562  34  
2502 798  852 
2503 234  396 
2504 329  759 
2505 971  765 
2506 40   264 
2507 168  786 
2508 667  126 
2509 767  289 
2510 288  124 
2511 663  657 
2512 243  858 
2513 871  786 
2514 638  235 
2515 33   562 
2516 786  605 
2517 16   475 
2518 362  814 
2519 986  389 
2520 547  767 
2521 113  823 
2522 662  363 
2523 701  345 
2524 739  26  
2525 511  825 
2526 873  781 
2527 945  997 
2528 356  554 
2529 711  96  
2530 609  795 
2531 60   649 
2532 771  673 
2533 95   207 
2534 725  649 
2535 501  100 
2536 763  369 
2537 945  886 
2538 48   480 
2539 485  181 
2540 489  306 
2541 821  593 
2542 552  475 
2543 823  134 
2544 883  884 
2545 992  130 
2546 278  793 
2547 333  524 
2548 838  508 
2549 785  0   
2550 804  292 
2551 17   158 
2552 471  343 
2553 509  640 
2554 475  173 
2555 76   664 
2556 938  408 
2557 79   1000
2558 461  285 
2559 939  891 
2560 483  317 
2561 335  969 
2562 446  793 
2563 963  570 
2564 602  358 
2565 767  447 
2566 30   903 
2567 218  623 
2568 551  355 
2569 237  321 
2570 73   877 
2571 149  730 
2572 576  629 
2573 740  296 
2574 978  642 
2575 775  961 
2576 248  155 
2577 172  26  
2578 527  287 
2579 585  375 
2580 32   684 
2581 567  419 
2582 309  996 
2583 163  402 
2584 697  64  
2585 878  698 
2586 330  571 
2587 976  948 
2588 290  77  
2589 367  516 
2590 298  29  
2591 988  303 
2592 856  607 
2593 232  324 
2594 124  933 
2595 819  767 
2596 325  740 
2597 966  370 
2598 622  703 
2599 946  737 
2600 576  787 
2601 773  711 
2602 994  62  
2603 701  52  
2604 870  597 
2605 617  764 
2606 390  131 
2607 850  804 
2608 780  242 
2609 431  605 
2610 213  95  
2611 361  619 
2612 342  829 
2613 658  777 
2614 626  831 
2615 453  801 
2616 827  898 
2617 972  220 
2618 497  686 
2619 494  616 
2620 629  696 
2621 261  547 
2622 481  66  
2623 956  403 
2624 28   68  
2625 653  2   
2626 48   778 
2627 215  316 
2628 182  945 
2629 256  274 
2630 37   888 
2631 666  962 
2632 918  430 
2633 956  680 
2634 776  595 
2635 590  856 
2636 338  659 
2637 282  388 
2638 341  817 
2639 966  474 
2640 717  363 
2641 76   936 
2642 113  453 
2643 130  240 
2644 223  189 
2645 352  539 
2646 98   700 
2647 544  815 
2648 425  961 
2649 45   430 
2650 699  663 
2651 947  68  
2652 51   452 
2653 622  582 
2654 310  818 
2655 296  50  
2656 42   1   
2657 297  287 
2658 27   383 
2659 391  445 
2660 428  457 
2661 987  800 
2662 343  371 
2663 936  98  
2664 882  857 
2665 167  545 
2666 663  700 
2667 350  276 
2668 5    300 
2669 79   309 
2670 542  8   
2671 982  260 
2672 747  826 
2673 12   799 
2674 966  66  
2675 401  921 
2676 105  816 
2677 569  430 
2678 771  176 
2679 148  242 
2680 386  645 
2681 370  885 
2682 795  227 
2683 982  375 
2684 412  798 
2685 783  825 
2686 440  891 
2687 19   497 
2688 989  906 
2689 60   662 
2690 739  414 
2691 349  928 
2692 280  89  
2693 870  756 
2694 834  512 
2695 689  693 
2696 739  971 
2697 428  894 
2698 673  457 
2699 693  784 
2700 87   108 
2701 413  131 
2702 555  486 
2703 721  559 
2704 132  573 
2705 133  772 
2706 79   854 
2707 888  488 
2708 979  915 
2709 156  733 
2710 33   621 
2711 582  284 
2712 752  776 
2713 720  737 
2714 475  871 
2715 883  303 
2716 701  610 
2717 760  34  
2718 962  674 
2719 541  355 
2720 764  364 
2721 451  612 
2722 527  623 
2723 289  692 
2724 822  917 
2725 932  253 
2726 717  215 
2727 807  736 
2728 81   743 
2729 335  597 
2730 62   866 
2731 389  519 
2732 47   544 
2733 176  701 
2734 837  846 
2735 986  8   
2736 174  152 
2737 471  21  
2738 970  334 
2739 419  19  
2740 182  359 
2741 185  884 
2742 950  615 
2743 295  203 
2744 539  255 
2745 668  871 
2746 686  488 
2747 463  378 
2748 840  814 
2749 178  173 
2750 767  136 
2751 362  548 
2752 90   372 
2753 253  349 
2754 640  890 
2755 625  679 
2756 594  741 
2757 415  680 
2758 259  180 
2759 388  27  
2760 1000 968 
2761 896  420 
2762 788  47  
2763 990  167 
2764 703  331 
2765 190  193 
2766 905  731 
2767 874  971 
2768 905  256 
2769 543  711 
2770 651  849 
2771 858  634 
2772 786  5   
2773 308  148 
2774 53   514 
2775 201  393 
2776 608  568 
2777 536  612 
2778 847  924 
2779 370  304 
2780 260  279 
2781 933  679 
2782 940  433 
2783 851  451 
2784 304  820 
2785 175  19  
2786 31   309 
2787 949  978 
2788 972  994 
2789 699  247 
2790 810  875 
2791 647  111 
2792 705  697 
2793 190  35  
2794 672  920 
2795 857  985 
2796 640  199 
2797 914  829 
2798 863  909 
2799 823  686 
2800 128  491 
2801 385  508 
2802 992  165 
2803 349  347 
2804 795  31  
2805 906  765 
2806 208  782 
2807 263  503 
2808 657  975 
2809 213  115 
2810 306  192 
2811 515  569 
2812 164  230 
2813 256  335 
2814 994  181 
2815 702  41  
2816 226  299 
2817 848  643 
2818 446  747 
2819 104  9   
2820 802  813 
2821 158  362 
2822 736  484 
2823 901  567 
2824 243  11  
2825 189  400 
2826 647  873 
2827 869  286 
2828 815  588 
2829 658  66  
2830 217  274 
2831 126  750 
2832 609  817 
2833 313  364 
2834 222  598 
2835 499  952 
2836 958  92  
2837 978  496 
2838 498  912 
2839 997  442 
2840 706  342 
2841 785  987 
2842 732  332 
2843 532  846 
2844 437  24  
2845 168  430 
2846 223  619 
2847 351  125 
2848 278  130 
2849 544  954 
2850 743  506 
2851 248  818 
2852 938  40  
2853 653  409 
2854 161  110 
2855 381  445 
2856 510  316 
2857 935  627 
2858 940  971 
2859 174  649 
2860 853  818 
2861 892  422 
2862 322  881 
2863 417  735 
2864 841  794 
2865 56   702 
2866 621  32  
2867 529  548 
2868 915  767 
2869 241  137 
2870 574  853 
2871 115  93  
2872 6    651 
2873 779  92  
2874 671  655 
2875 122  41  
2876 13   134 
2877 268  325 
2878 34   13  
2879 309  970 
2880 291  115 
2881 40   252 
2882 664  172 
2883 187  639 
2884 277  753 
2885 740  52  
2886 939  217 
2887 991  451 
2888 281  412 
2889 869  803 
2890 448  65  
2891 908  450 
2892 299  243 
2893 930  51  
2894 107  196 
2895 606  174 
2896 825  274 
2897 181  694 
2898 790  433 
2899 242  558 
2900 442  547 
2901 95   431 
2902 387  510 
2903 79   353 
2904 734  558 
2905 524  50  
2906 945  440 
2907 818  902 
2908 526  367 
2909 650  537 
2910 322  729 
2911 362  282 
2912 948  517 
2913 751  403 
2914 843  914 
2915 104  531 
2916 935  616 
2917 865  353 
2918 59   278 
2919 996  167 
2920 409  830 
2921 394  816 
2922 306  325 
2923 16   1000
2924 808  885 
2925 110  504 
2926 199  967 
2927 38   830 
2928 627  952 
2929 865  210 
2930 662  275 
2931 207  925 
2932 885  586 
2933 996  940 
2934 46   387 
2935 763  767 
2936 547  442 
2937 603  265 
2938 908  106 
2939 507  195 
2940 487  930 
2941 715  45  
2942 457  667 
2943 350  448 
2944 300  250 
2945 908  940 
2946 619  476 
2947 911  92  
2948 434  624 
2949 911  523 
2950 806  761 
2951 148  777 
2952 611  688 
2953 957  473 
2954 794  941 
2955 833  701 
2956 102  590 
2957 983  51  
2958 805  133 
2959 606  32  
2960 757  577 
2961 3    618 
2962 739  567 
2963 940  262 
2964 81   449 
2965 652  312 
2966 979  805 
2967 265  733 
2968 855  334 
2969 837  335 
2970 162  556 
2971 434  777 
2972 915  525 
2973 553  197 
2974 716  234 
2975 384  648 
2976 368  691 
2977 187  540 
2978 849  686 
2979 522  994 
2980 575  892 
2981 816  70  
2982 411  212 
2983 654  16  
2984 250  545 
2985 60   554 
2986 986  544 
2987 382  617 
2988 436  212 
2989 914  197 
2990 440  346 
2991 113  574 
2992 790  5   
2993 134  34  
2994 979  972 
2995 617  126 
2996 690  425 
2997 963  134 
2998 355  585 
2999 818  809 
3000 992  540 
3001 438  574 
3002 536  500 
3003 138  359 
3004 247  348 
3005 265  373 
3006 729  371 
3007 283  882 
3008 836  303 
3009 417  420 
3010 107  662 
3011 75   26  
3012 165  815 
3013 993  422 
3014 991  24  
3015 577  252 
3016 536  99  
3017 776  977 
3018 166  802 
3019 941  596 
3020 618  22  
3021 136  571 
3022 799  853 
3023 840  228 
3024 569  554 
3025 784  332 
3026 950  674 
3027 552  696 
3028 292  166 
3029 458  241 
3030 596  447 
3031 544  82  
3032 871  985 
3033 639  940 
3034 70   375 
3035 182  744 
3036 143  530 
3037 293  827 
3038 863  227 
3039 113  397 
3040 668  857 
3041 99   443 
3042 885  717 
3043 373  430 
3044 155  160 
3045 396  142 
3046 418  895 
3047 555  866 
3048 534  602 
3049 77   410 
3050 774  512 
3051 442  105 
3052 333  443 
3053 334  59  
3054 317  908 
3055 910  565 
3056 178  466 
3057 605  878 
3058 454  657 
3059 914  21  
3060 182  127 
3061 475  227 
3062 326  687 
3063 511  170 
3064 421  702 
3065 297  45  
3066 82   524 
3067 598  173 
3068 377  287 
3069 31   740 
3070 378  407 
3071 362  851 
3072 182  880 
3073 456  906 
3074 276  103 
3075 829  471 
3076 479  247 
3077 941  990 
3078 690  533 
3079 340  4   
3080 675  356 
3081 50   692 
3082 469  787 
3083 146  384 
3084 310  281 
3085 510  97  
3086 578  978 
3087 830  430 
3088 872  854 
3089 819  78  
3090 565  712 
3091 910  454 
3092 343  323 
3093 948  935 
3094 199  133 
3095 988  705 
3096 438  125 
3097 39   145 
3098 756  677 
3099 645  123 
3100 43   210 
3101 282  627 
3102 820  954 
3103 730  373 
3104 18   89  
3105 733  200 
3106 934  540 
3107 331  226 
3108 847  990 
3109 277  828 
3110 494  562 
3111 904  607 
3112 615  857 
3113 648  619 
3114 359  720 
3115 286  48  
3116 180  595 
3117 272  622 
3118 78   182 
3119 152  745 
3120 298  63  
3121 262  73  
3122 905  416 
3123 66   51  
3124 672  405 
3125 193  697 
3126 430  389 
3127 747  904 
3128 537  332 
3129 59   711 
3130 170  501 
3131 775  133 
3132 98   461 
3133 796  782 
3134 282  369 
3135 227  838 
3136 602  589 
3137 361  472 
3138 547  890 
3139 111  748 
3140 883  776 
3141 701  562 
3142 322  820 
3143 859  742 
3144 731  557 
3145 436  906 
3146 532  426 
3147 0    715 
3148 863  621 
3149 646  696 
3150 296  903 
3151 80   84  
3152 291  370 
3153 831  3   
3154 860  386 
3155 483  145 
3156 946  875 
3157 546  484 
3158 286  941 
3159 688  275 
3160 965  616 
3161 345  669 
3162 681  161 
3163 57   273 
3164 311  959 
3165 466  90  
3166 690  506 
3167 728  196 
3168 855  782 
3169 431  189 
3170 998  382 
3171 288  421 
3172 843  846 
3173 271  233 
3174 258  334 
3175 739  452 
3176 629  199 
3177 278  885 
3178 762  47  
3179 814  604 
3180 7    788 
3181 601  491 
3182 657  73  
3183 822  781 
3184 742  568 
3185 475  780 
3186 404  256 
3187 633  826 
3188 520  660 
3189 172  415 
3190 738  906 
3191 502  40  
3192 948  178 
3193 587  466 
3194 254  231 
3195 114  87  
3196 481  824 
3197 443  993 
3198 261  42  
3199 906  772 
3200 245  992 
3201 869  912 
3202 321  922 
3203 466  450 
3204 512  846 
3205 778  977 
3206 548  337 
3207 875  34  
3208 872  610 
3209 878  678 
3210 943  820 
3211 926  323 
3212 772  247 
3213 849  643 
3214 59   177 
3215 499  963 
3216 522  897 
3217 717  732 
3218 385  275 
3219 688  814 
3220 729  182 
3221 858  428 
3222 140  918 
3223 859  925 
3224 234  386 
3225 221  935 
3226 883  476 
3227 80   361 
3228 759  636 
3229 27   402 
3230 616  512 
3231 561  766 
3232 446  328 
3233 705  173 
3234 941  196 
3235 261  678 
3236 233  842 
3237 397  199 
3238 749  807 
3239 458  314 
3240 542  45  
3241 135  34  
3242 356  605 
3243 196  583 
3244 503  837 
3245 752  266 
3246 287  871 
3247 71   385 
3248 751  121 
3249 453  395 
3250 665  51  
3251 24   421 
3252 478  413 
3253 170  281 
3254 501  702 
3255 94   978 
3256 58   659 
3257 58   204 
3258 779  778 
3259 134  434 
3260 483  601 
3261 463  758 
3262 928  367 
3263 193  652 
3264 63   646 
3265 749  324 
3266 587  41  
3267 513  16  
3268 643  363 
3269 516  251 
3270 735  588 
3271 645  409 
3272 920  707 
3273 991  982 
3274 461  146 
3275 740  460 
3276 501  464 
3277 559  809 
3278 502  907 
3279 690  904 
3280 431  590 
3281 305  219 
3282 324  193 
3283 676  958 
3284 709  726 
3285 69   764 
3286 662  249 
3287 846  831 
3288 281  146 
3289 356  580 
3290 161  594 
3291 932  812 
3292 608  496 
3293 331  142 
3294 741  854 
3295 830  164 
3296 486  622 
3297 984  265 
3298 710  398 
3299 696  787 
3300 217  299 
3301 809  532 
3302 39   777 
3303 260  785 
3304 577  91  
3305 579  190 
3306 135  882 
3307 500  544 
3308 1000 606 
3309 303  358 
3310 853  553 
3311 191  763 
3312 713  401 
3313 768  287 
3314 126  592 
3315 471  556 
3316 129  445 
3317 592  51  
3318 37   193 
3319 149  946 
3320 497  433 
3321 346  775 
3322 777  71  
3323 327  593 
3324 326  987 
3325 448  629 
3326 12   667 
3327 14   772 
3328 718  280 
3329 609  561 
3330 994  362 
3331 350  299 
3332 42   175 
3333 630  398 
3334 813  689 
3335 245  586 
3336 725  490 
3337 122  740 
3338 919  425 
3339 728  556 
3340 871  721 
3341 658  926 
3342 36   577 
3343 533  141 
3344 643  443 
3345 293  547 
3346 916  432 
3347 275  629 
3348 846  508 
3349 277  857 
3350 764  605 
3351 467  784 
3352 503  413 
3353 658  561 
3354 734  950 
3355 453  526 
3356 291  533 
3357 419  434 
3358 679  115 
3359 114  924 
3360 387  6   
3361 959  670 
3362 341  152 
3363 750  854 
3364 470  500 
3365 861  924 
3366 735  296 
3367 534  664 
3368 282  566 
3369 851  516 
3370 301  144 
3371 32   17  
3372 930  566 
3373 750  175 
3374 640  773 
3375 736  159 
3376 930  995 
3377 803  828 
3378 811  146 
3379 703  351 
3380 64   87  
3381 463  81  
3382 356  61  
3383 671  107 
3384 709  164 
3385 381  19  
3386 552  737 
3387 952  646 
3388 989  799 
3389 650  793 
3390 78   109 
3391 888  185 
3392 834  832 
3393 337  213 
3394 581  303 
3395 619  545 
3396 875  443 
3397 103  490 
3398 230  898 
3399 285  301 
3400 52   754 
3401 102  855 
3402 433  620 
3403 703  102 
3404 319  210 
3405 748  218 
3406 803  257 
3407 700  277 
3408 334  448 
3409 874  512 
3410 853  940 
3411 857  131 
3412 160  93  
3413 393  376 
3414 534  473 
3415 461  270 
3416 154  32  
3417 357  743 
3418 599  573 
3419 374  880 
3420 590  928 
3421 21   107 
3422 480  158 
3423 631  443 
3424 170  160 
3425 706  475 
3426 464  397 
3427 101  189 
3428 904  528 
3429 198  722 
3430 652  771 
3431 36   147 
3432 720  964 
3433 204  71  
3434 277  151 
3435 41   547 
3436 8    917 
3437 961  324 
3438 612  68  
3439 687  476 
3440 10   79  
3441 743  4   
3442 512  976 
3443 858  862 
3444 305  118 
3445 653  284 
3446 269  531 
3447 786  668 
3448 915  119 
3449 596  688 
3450 957  443 
3451 995  165 
3452 63   198 
3453 987  824 
3454 380  74  
3455 862  488 
3456 701  267 
3457 62   351 
3458 427  251 
3459 653  51  
3460 249  546 
3461 584  262 
3462 141  682 
3463 1    436 
3464 865  514 
3465 356  719 
3466 845  668 
3467 849  729 
3468 791  282 
3469 244  37  
3470 887  219 
3471 7    214 
3472 890  621 
3473 104  869 
3474 836  993 
3475 65   768 
3476 177  751 
3477 362  415 
3478 530  458 
3479 838  334 
3480 327  565 
3481 552  440 
3482 879  504 
3483 963  763 
3484 332  640 
3485 719  52  
3486 332  282 
3487 539  111 
3488 702  515 
3489 407  296 
3490 617  41  
3491 673  708 
3492 122  511 
3493 875  215 
3494 965  148 
3495 342  402 
3496 859  100 
3497 124  546 
3498 37   374 
3499 476  314 
3500 39   86  
3501 792  608 
3502 276  463 
3503 940  982 
3504 261  232 
3505 283  151 
3506 910  48  
3507 252  395 
3508 567  17  
3509 897  602 
3510 36   50  
3511 698  285 
3512 75   201 
3513 92   797 
3514 821  923 
3515 396  475 
3516 298  530 
3517 385  644 
3518 336  796 
3519 816  91  
3520 398  697 
3521 229  506 
3522 339  684 
3523 213  272 
3524 985  303 
3525 485  539 
3526 340  648 
3527 620  765 
3528 533  615 
3529 932  116 
3530 737  577 
3531 311  999 
3532 373  917 
3533 929  269 
3534 982  76  
3535 909  473 
3536 125  170 
3537 713  438 
3538 991  150 
3539 169  318 
3540 978  572 
3541 298  129 
3542 850  777 
3543 672  158 
3544 446  281 
3545 448  227 
3546 638  167 
3547 584  634 
3548 911  314 
3549 269  971 
3550 770  743 
3551 673  331 
3552 938  522 
3553 244  789 
3554 44   154 
3555 154  61  
3556 104  10  
3557 376  751 
3558 546  436 
3559 982  979 
3560 622  769 
3561 786  125 
3562 935  714 
3563 130  34  
3564 864  223 
3565 535  65  
3566 719  228 
3567 644  99  
3568 425  915 
3569 176  241 
3570 712  590 
3571 527  379 
3572 931  812 
3573 215  767 
3574 381  168 
3575 1    311 
3576 489  961 
3577 296  128 
3578 630  143 
3579 499  955 
3580 498  913 
3581 483  981 
3582 889  263 
3583 819  108 
3584 729  238 
3585 13   29  
3586 604  717 
3587 380  429 
3588 128  483 
3589 882  350 
3590 77   501 
3591 630  629 
3592 867  751 
3593 166  892 
3594 262  914 
3595 467  70  
3596 620  0   
3597 802  127 
3598 549  753 
3599 217  120 
3600 273  619 
3601 804  335 
3602 938  952 
3603 61   524 
3604 886  455 
3605 281  692 
3606 946  40  
3607 340  303 
3608 609  984 
3609 991  520 
3610 261  107 
3611 282  480 
3612 653  175 
3613 177  254 
3614 216  506 
3615 954  971 
3616 679  927 
3617 645  320 
3618 956  352 
3619 958  563 
3620 370  178 
3621 445  708 
3622 796  812 
3623 872  304 
3624 494  309 
3625 216  820 
3626 472  734 
3627 605  604 
3628 362  542 
3629 308  441 
3630 125  188 
3631 537  932 
3632 440  903 
3633 313  50  
3634 646  587 
3635 276  373 
3636 773  556 
3637 315  908 
3638 795  492 
3639 389  856 
3640 599  617 
3641 375  820 
3642 691  175 
3643 265  330 
3644 394  277 
3645 659  812 
3646 713  254 
3647 329  964 
3648 708  698 
3649 114  62  
3650 277  807 
3651 168  549 
3652 775  329 
3653 136  526 
3654 197  934 
3655 812  637 
3656 572  105 
3657 222  950 
3658 740  173 
3659 741  313 
3660 958  683 
3661 796  180 
3662 462  314 
3663 84   134 
3664 305  631 
3665 731  290 
3666 967  886 
3667 683  522 
3668 939  209 
3669 27   597 
3670 966  255 
3671 589  699 
3672 131  393 
3673 576  266 
3674 248  502 
3675 1000 155 
3676 357  887 
3677 836  671 
3678 432  18  
3679 158  888 
3680 751  525 
3681 863  455 
3682 93   861 
3683 539  437 
3684 386  713 
3685 577  250 
3686 760  763 
3687 754  748 
3688 595  570 
3689 319  271 
3690 504  207 
3691 89   384 
3692 789  43  
3693 293  54  
3694 186  464 
3695 439  998 
3696 26   76  
3697 740  830 
3698 677  581 
3699 515  128 
3700 38   764 
3701 420  143 
3702 22   847 
3703 133  728 
3704 890  991 
3705 392  478 
3706 27   554 
3707 444  911 
3708 764  417 
3709 374  903 
3710 321  147 
3711 768  548 
3712 658  831 
3713 107  847 
3714 346  141 
3715 434  616 
3716 52   997 
3717 55   551 
3718 167  610 
3719 95   522 
3720 314  946 
3721 495  881 
3722 630  3   
3723 21   814 
3724 890  507 
3725 869  746 
3726 427  68  
3727 247  753 
3728 782  179 
3729 568  688 
3730 571  940 
3731 327  856 
3732 950  869 
3733 882  218 
3734 536  985 
3735 702  433 
3736 60   431 
3737 685  573 
3738 779  558 
3739 524  176 
3740 265  50  
3741 746  663 
3742 748  695 
3743 601  245 
3744 985  86  
3745 142  840 
3746 729  854 
3747 952  777 
3748 645  298 
3749 204  974 
3750 538  884 
3751 245  321 
3752 67   609 
3753 301  47  
3754 671  869 
3755 728  805 
3756 530  964 
3757 895  844 
3758 201  848 
3759 612  728 
3760 521  543 
3761 97   775 
3762 280  726 
3763 227  241 
3764 445  154 
3765 64   866 
3766 247  18  
3767 136  709 
3768 875  272 
3769 461  244 
3770 732  703 
3771 785  627 
3772 107  753 
3773 110  688 
3774 734  512 
3775 145  988 
3776 894  193 
3777 136  31  
3778 264  212 
3779 413  482 
3780 876  587 
3781 914  936 
3782 847  976 
3783 650  841 
3784 315  349 
3785 831  28  
3786 890  373 
3787 924  95  
3788 10   293 
3789 488  460 
3790 16   9   
3791 549  177 
3792 711  129 
3793 771  308 
3794 55   168 
3795 741  340 
3796 540  111 
3797 904  552 
3798 333  668 
3799 546  665 
3800 619  53  
3801 374  445 
3802 322  536 
3803 730  743 
3804 542  799 
3805 324  993 
3806 600  684 
3807 878  637 
3808 458  994 
3809 627  712 
3810 103  555 
3811 421  324 
3812 294  722 
3813 82   153 
3814 377  709 
3815 249  760 
3816 251  697 
3817 526  473 
3818 624  476 
3819 436  797 
3820 290  503 
3821 697  941 
3822 789  799 
3823 862  17  
3824 204  798 
3825 242  425 
3826 956  78  
3827 853  877 
3828 231  649 
3829 180  282 
3830 308  268 
3831 71   992 
3832 510  320 
3833 370  802 
3834 918  502 
3835 828  701 
3836 573  638 
3837 685  559 
3838 81   299 
3839 179  58  
3840 538  282 
3841 528  348 
3842 929  466 
3843 545  815 
3844 415  589 
3845 143  7   
3846 950  72  
3847 457  351 
3848 643  486 
3849 757  7   
3850 5    34  
3851 939  172 
3852 350  944 
3853 62   486 
3854 706  967 
3855 745  154 
3856 214  120 
3857 235  990 
3858 360  706 
3859 0    121 
3860 515  800 
3861 917  892 
3862 863  261 
3863 332  467 
3864 316  117 
3865 613  814 
3866 779  314 
3867 501  452 
3868 66   163 
3869 141  521 
3870 306  917 
3871 586  733 
3872 401  206 
3873 364  265 
3874 553  6   
3875 22   670 
3876 311  306 
3877 22   372 
3878 150  313 
3879 795  922 
3880 371  713 
3881 176  932 
3882 926  131 
3883 430  100 
3884 907  357 
3885 84   120 
3886 513  814 
3887 198  319 
3888 272  924 
3889 19   344 
3890 831  952 
3891 886  647 
3892 740  835 
3893 872  49  
3894 598  609 
3895 50   382 
3896 250  38  
3897 361  249 
3898 964  958 
3899 344  916 
3900 2    509 
3901 934  615 
3902 496  426 
3903 406  982 
3904 371  381 
3905 651  415 
3906 959  174 
3907 46   423 
3908 138  115 
3909 174  216 
3910 323  53  
3911 69   14  
3912 912  508 
3913 641  72  
3914 911  11  
3915 53   746 
3916 2    514 
3917 737  487 
3918 419  957 
3919 501  914 
3920 745  473 
3921 561  708 
3922 7    738 
3923 176  273 
3924 819  95  
3925 720  350 
3926 494  25  
3927 220  586 
3928 494  903 
3929 193  616 
3930 428  639 
3931 124  609 
3932 840  178 
3933 49   163 
3934 606  4   
3935 226  935 
3936 23   659 
3937 851  274 
3938 836  521 
3939 322  9   
3940 603  184 
3941 15   611 
3942 345  344 
3943 54   730 
3944 348  630 
3945 989  939 
3946 496  417 
3947 63   664 
3948 543  473 
3949 191  756 
3950 732  857 
3951 605  197 
3952 165  350 
3953 438  611 
3954 917  244 
3955 311  804 
3956 114  963 
3957 759  639 
3958 993  598 
3959 667  123 
3960 248  433 
3961 192  596 
3962 672  275 
3963 981  279 
3964 707  279 
3965 559  185 
3966 968  383 
3967 470  174 
3968 781  516 
3969 272  891 
3970 954  318 
3971 592  213 
3972 699  932 
3973 919  410 
3974 369  663 
3975 758  540 
3976 318  953 
3977 194  164 
3978 657  911 
3979 270  828 
3980 950  162 
3981 971  107 
3982 370  847 
3983 539  824 
3984 558  697 
3985 260  335 
3986 353  558 
3987 667  338 
3988 353  432 
3989 907  736 
3990 548  790 
3991 769  711 
3992 476  973 
3993 679  395 
3994 310  188 
3995 609  349 
3996 589  435 
3997 848  56  
3998 578  369 
3999 759  306 
4000 279  25  
4001 213  474 
4002 196  358 
4003 657  169 
4004 882  987 
4005 239  448 
4006 954  899 
4007 22   430 
4008 957  406 
4009 366  312 
4010 669  983 
4011 429  797 
4012 410  881 
4013 656  633 
4014 507  319 
4015 824  491 
4016 897  353 
4017 254  600 
4018 518  809 
4019 172  987 
4020 907  197 
4021 873  866 
4022 763  600 
4023 488  384 
4024 839  999 
4025 935  563 
4026 916  426 
4027 938  891 
4028 321  288 
4029 564  356 
4030 216  522 
4031 842  168 
4032 492  463 
4033 83   858 
4034 394  242 
4035 507  138 
4036 803  937 
4037 532  361 
4038 309  522 
4039 239  457 
4040 166  881 
4041 608  144 
4042 282  338 
4043 380  625 
4044 803  739 
4045 15   194 
4046 398  254 
4047 570  535 
4048 258  158 
4049 665  710 
4050 494  920 
4051 829  298 
4052 11   1   
4053 530  572 
4054 605  270 
4055 290  846 
4056 972  873 
4057 846  950 
4058 78   107 
4059 479  262 
4060 686  799 
4061 985  133 
4062 324  495 
4063 397  15  
4064 198  737 
4065 112  897 
4066 167  350 
4067 794  715 
4068 948  113 
4069 307  478 
4070 682  165 
4071 534  665 
4072 791  517 
4073 739  665 
4074 557  280 
4075 687  724 
4076 482  479 
4077 228  146 
4078 128  843 
4079 181  767 
4080 54   306 
4081 112  730 
4082 777  773 
4083 689  46  
4084 780  648 
4085 931  674 
4086 715  798 
4087 240  228 
4088 956  215 
4089 479  176 
4090 498  795 
4091 597  168 
4092 134  862 
4093 409  711 
4094 897  743 
4095 346  298 
4096 240  430 
4097 809  984 
4098 807  637 
4099 554  157 
4100 955  771 
4101 607  3   
4102 153  151 
4103 392  526 
4104 172  162 
4105 709  394 
4106 304  293 
4107 880  1000
4108 365  218 
4109 555  483 
4110 593  180 
4111 421  216 
4112 866  695 
4113 326  970 
4114 904  254 
4115 762  75  
4116 907  155 
4117 48   367 
4118 263  849 
4119 323  167 
4120 324  756 
4121 531  65  
4122 269  991 
4123 661  275 
4124 95   6   
4125 869  400 
4126 266  679 
4127 144  578 
4128 418  618 
4129 789  4   
4130 115  67  
4131 903  124 
4132 962  133 
4133 214  960 
4134 395  301 
4135 142  779 
4136 125  38  
4137 969  77  
4138 860  740 
4139 455  192 
4140 199  302 
4141 848  36  
4142 477  318 
4143 868  658 
4144 557  580 
4145 101  935 
4146 634  355 
4147 941  805 
4148 449  548 
4149 338  539 
4150 497  903 
4151 316  522 
4152 514  566 
4153 517  539 
4154 293  310 
4155 496  142 
4156 441  72  
4157 60   519 
4158 538  432 
4159 349  356 
4160 941  32  
4161 193  98  
4162 908  866 
4163 467  178 
4164 969  961 
4165 785  572 
4166 110  627 
4167 149  61  
4168 836  716 
4169 691  268 
4170 874  84  
4171 731  543 
4172 933  700 
4173 860  7   
4174 474  179 
4175 537  92  
4176 976  524 
4177 441  375 
4178 522  542 
4179 636  491 
4180 547  983 
4181 432  739 
4182 289  827 
4183 306  891 
4184 715  3   
4185 586  563 
4186 30   777 
4187 734  936 
4188 592  470 
4189 458  56  
4190 684  100 
4191 776  157 
4192 243  739 
4193 473  940 
4194 474  489 
4195 377  72  
4196 31   128 
4197 751  204 
4198 402  653 
4199 990  705 
4200 593  361 
4201 918  717 
4202 977  7   
4203 885  662 
4204 243  349 
4205 210  37  
4206 976  383 
4207 66   235 
4208 908  793 
4209 858  713 
4210 907  995 
4211 398  218 
4212 93   141 
4213 954  785 
4214 442  842 
4215 702  862 
4216 596  559 
4217 280  907 
4218 282  108 
4219 743  343 
4220 798  902 
4221 211  190 
4222 488  814 
4223 909  588 
4224 785  371 
4225 55   316 
4226 457  533 
4227 332  615 
4228 403  122 
4229 96   760 
4230 166  682 
4231 975  810 
4232 595  292 
4233 464  961 
4234 23   706 
4235 579  584 
4236 152  698 
4237 199  284 
4238 148  911 
4239 699  700 
4240 663  914 
4241 78   246 
4242 585  532 
4243 584  748 
4244 35   992 
4245 640  217 
4246 94   840 
4247 972  678 
4248 276  352 
4249 991  145 
4250 762  100 
4251 230  845 
4252 964  258 
4253 506  493 
4254 804  948 
4255 927  67  
4256 589  981 
4257 680  975 
4258 716  790 
4259 224  896 
4260 848  816 
4261 795  398 
4262 10   714 
4263 237  209 
4264 897  456 
4265 347  868 
4266 610  387 
4267 368  85  
4268 81   365 
4269 353  605 
4270 959  158 
4271 869  983 
4272 943  432 
4273 395  710 
4274 712  473 
4275 731  922 
4276 327  917 
4277 511  519 
4278 292  680 
4279 611  96  
4280 203  357 
4281 153  115 
4282 427  406 
4283 745  92  
4284 943  604 
4285 529  437 
4286 139  765 
4287 986  350 
4288 569  827 
4289 785  985 
4290 769  508 
4291 533  976 
4292 310  796 
4293 350  729 
4294 867  750 
4295 601  701 
4296 711  704 
4297 307  253 
4298 346  503 
4299 237  750 
4300 733  596 
4301 75   105 
4302 813  646 
4303 210  861 
4304 138  475 
4305 194  236 
4306 963  947 
4307 929  103 
4308 308  721 
4309 994  496 
4310 960  256 
4311 226  403 
4312 8    376 
4313 389  624 
4314 852  451 
4315 483  214 
4316 46   563 
4317 160  147 
4318 762  321 
4319 605  554 
4320 881  948 
4321 352  101 
4322 116  454 
4323 834  47  
4324 389  641 
4325 229  124 
4326 378  339 
4327 566  414 
4328 362  543 
4329 734  97  
4330 96   980 
4331 194  651 
4332 874  620 
4333 466  347 
4334 985  474 
4335 253  609 
4336 272  954 
4337 718  661 
4338 959  970 
4339 393  647 
4340 673  130 
4341 466  640 
4342 156  997 
4343 490  555 
4344 87   671 
4345 453  240 
4346 548  265 
4347 972  954 
4348 827  466 
4349 38   828 
4350 210  304 
4351 687  267 
4352 636  948 
4353 135  568 
4354 584  839 
4355 587  24  
4356 288  841 
4357 169  839 
4358 927  497 
4359 511  64  
4360 37   578 
4361 866  177 
4362 955  829 
4363 635  193 
4364 227  812 
4365 65   342 
4366 429  408 
4367 931  535 
4368 731  239 
4369 90   797 
4370 550  511 
4371 325  689 
4372 149  420 
4373 131  530 
4374 23   512 
4375 905  209 
4376 63   599 
4377 211  237 
4378 66   258 
4379 126  807 
4380 398  747 
4381 458  680 
4382 590  209 
4383 182  99  
4384 938  939 
4385 867  3   
4386 679  355 
4387 903  193 
4388 228  50  
4389 873  488 
4390 323  628 
4391 964  398 
4392 693  200 
4393 198  670 
4394 968  52  
4395 145  771 
4396 366  416 
4397 534  936 
4398 884  232 
4399 760  950 
4400 559  357 
4401 579  548 
4402 544  93  
4403 764  51  
4404 13   747 
4405 503  580 
4406 569  656 
4407 660  886 
4408 554  273 
4409 257  378 
4410 114  280 
4411 132  207 
4412 423  429 
4413 9    924 
4414 997  467 
4415 85   702 
4416 672  934 
4417 781  177 
4418 969  118 
4419 640  863 
4420 989  249 
4421 635  512 
4422 616  590 
4423 726  98  
4424 583  815 
4425 508  816 
4426 696  764 
4427 950  204 
4428 40   949 
4429 38   991 
4430 976  599 
4431 518  85  
4432 315  144 
4433 206  443 
4434 614  532 
4435 649  221 
4436 44   127 
4437 260  186 
4438 122  209 
4439 888  131 
4440 431  644 
4441 485  865 
4442 948  335 
4443 625  206 
4444 735  732 
4445 521  653 
4446 901  553 
4447 958  239 
4448 316  241 
4449 120  935 
4450 906  266 
4451 373  315 
4452 779  69  
4453 428  698 
4454 88   539 
4455 710  607 
4456 586  601 
4457 805  83  
4458 715  608 
4459 455  147 
4460 296  690 
4461 318  819 
4462 890  400 
4463 779  271 
4464 457  862 
4465 654  765 
4466 714  159 
4467 56   488 
4468 493  290 
4469 609  86  
4470 296  439 
4471 332  864 
4472 77   35  
4473 66   276 
4474 691  718 
4475 195  424 
4476 432  598 
4477 967  574 
4478 678  397 
4479 918  508 
4480 560  760 
4481 544  567 
4482 176  753 
4483 637  273 
4484 914  162 
4485 129  301 
4486 534  369 
4487 534  954 
4488 554  368 
4489 807  685 
4490 189  459 
4491 357  90  
4492 431  967 
4493 983  591 
4494 584  679 
4495 565  459 
4496 272  307 
4497 769  619 
4498 272  760 
4499 700  147 
4500 629  558 
4501 25   413 
4502 775  707 
4503 634  238 
4504 48   351 
4505 545  204 
4506 583  652 
4507 180  831 
4508 803  705 
4509 566  943 
4510 953  172 
4511 402  730 
4512 422  852 
4513 21   831 
4514 477  407 
4515 99   51  
4516 938  590 
4517 672  201 
4518 943  179 
4519 156  519 
4520 321  29  
4521 430  535 
4522 324  126 
4523 328  121 
4524 424  973 
4525 152  135 
4526 578  191 
4527 815  643 
4528 778  400 
4529 357  551 
4530 375  605 
4531 214  912 
4532 286  54  
4533 198  643 
4534 987  327 
4535 366  719 
4536 662  583 
4537 183  346 
4538 738  354 
4539 494  675 
4540 42   407 
4541 740  671 
4542 851  65  
4543 656  646 
4544 285  849 
4545 624  944 
4546 751  151 
4547 825  785 
4548 738  798 
4549 902  127 
4550 629  58  
4551 10   953 
4552 335  266 
4553 926  700 
4554 853  900 
4555 800  331 
4556 782  847 
4557 105  734 
4558 968  775 
4559 193  485 
4560 533  774 
4561 567  719 
4562 451  777 
4563 1    157 
4564 993  769 
4565 846  669 
4566 315  509 
4567 9    333 
4568 653  994 
4569 672  826 
4570 178  953 
4571 735  239 
4572 717  5   
4573 465  630 
4574 137  17  
4575 321  348 
4576 449  263 
4577 450  399 
4578 660  923 
4579 494  369 
4580 976  971 
4581 332  943 
4582 228  421 
4583 30   764 
4584 286  72  
4585 237  49  
4586 662  713 
4587 203  225 
4588 663  986 
4589 961  285 
4590 528  685 
4591 193  801 
4592 674  497 
4593 657  79  
4594 34   487 
4595 802  625 
4596 986  693 
4597 253  284 
4598 284  102 
4599 628  982 
4600 251  694 
4601 388  600 
4602 326  178 
4603 539  47  
4604 630  108 
4605 152  912 
4606 279  232 
4607 4    434 
4608 331  584 
4609 174  443 
4610 376  697 
4611 322  781 
4612 864  41  
4613 10   26  
4614 480  290 
4615 117  248 
4616 763  247 
4617 528  902 
4618 822  557 
4619 843  744 
4620 517  306 
4621 744  712 
4622 500  732 
4623 672  421 
4624 359  906 
4625 433  471 
4626 1    382 
4627 510  998 
4628 313  426 
4629 759  638 
4630 761  267 
4631 375  881 
4632 102  651 
4633 818  271 
4634 844  101 
4635 612  823 
4636 424  360 
4637 973  914 
4638 460  414 
4639 849  118 
4640 427  152 
4641 543  163 
4642 266  221 
4643 447  213 
4644 636  775 
4645 855  615 
4646 809  302 
4647 114  76  
4648 630  301 
4649 186  20  
4650 665  49  
4651 618  115 
4652 964  27  
4653 927  748 
4654 109  455 
4655 55   801 
4656 956  186 
4657 23   422 
4658 478  217 
4659 617  614 
4660 297  152 
4661 429  907 
4662 251  727 
4663 490  830 
4664 235  267 
4665 520  565 
4666 41   598 
4667 408  367 
4668 244  107 
4669 562  359 
4670 778  824 
4671 124  513 
4672 481  14  
4673 549  123 
4674 571  543 
4675 880  142 
4676 589  148 
4677 662  842 
4678 738  36  
4679 350  664 
4680 994  804 
4681 207  620 
4682 614  228 
4683 869  100 
4684 501  335 
4685 615  181 
4686 937  262 
4687 958  492 
4688 466  291 
4689 583  332 
4690 273  555 
4691 36   17  
4692 737  868 
4693 112  375 
4694 900  45  
4695 538  383 
4696 740  151 
4697 366  486 
4698 8    253 
4699 137  625 
4700 409  756 
4701 25   718 
4702 174  131 
4703 105  69  
4704 603  137 
4705 824  661 
4706 589  427 
4707 57   221 
4708 147  530 
4709 535  723 
4710 4    137 
4711 939  606 
4712 316  171 
4713 688  393 
4714 796  304 
4715 377  632 
4716 262  636 
4717 160  557 
4718 782  952 
4719 582  608 
4720 35   533 
4721 930  458 
4722 269  742 
4723 397  731 
4724 309  452 
4725 161  271 
4726 55   53  
4727 629  523 
4728 977  26  
4729 226  879 
4730 559  816 
4731 835  475 
4732 801  642 
4733 605  412 
4734 324  860 
4735 548  551 
4736 715  907 
4737 74   651 
4738 573  126 
4739 296  982 
4740 459  514 
4741 977  171 
4742 900  133 
4743 9    828 
4744 778  633 
4745 265  650 
4746 410  575 
4747 653  635 
4748 636  360 
4749 551  209 
4750 112  366 
4751 493  724 
4752 944  561 
4753 906  831 
4754 488  834 
4755 875  606 
4756 125  19  
4757 164  850 
4758 20   929 
4759 725  671 
4760 652  516 
4761 299  353 
4762 447  482 
4763 528  634 
4764 858  391 
4765 767  158 
4766 161  843 
4767 416  520 
4768 109  74  
4769 418  228 
4770 19   597 
4771 19   158 
4772 95   907 
4773 974  465 
4774 703  200 
4775 101  773 
4776 284  669 
4777 926  643 
4778 583  870 
4779 582  746 
4780 466  536 
4781 269  624 
4782 971  128 
4783 241  725 
4784 519  272 
4785 519  223 
4786 64   425 
4787 941  446 
4788 564  911 
4789 819  926 
4790 507  445 
4791 548  224 
4792 18   630 
4793 170  167 
4794 655  267 
4795 569  608 
4796 804  631 
4797 455  202 
4798 203  821 
4799 221  142 
4800 591  307 
4801 993  93  
4802 76   939 
4803 334  343 
4804 37   443 
4805 94   542 
4806 317  667 
4807 640  879 
4808 73   546 
4809 424  864 
4810 719  32  
4811 204  614 
4812 958  54  
4813 318  971 
4814 246  947 
4815 619  762 
4816 728  88  
4817 707  191 
4818 122  645 
4819 374  967 
4820 142  750 
4821 15   211 
4822 805  567 
4823 921  924 
4824 847  140 
4825 448  346 
4826 798  448 
4827 485  849 
4828 452  719 
4829 731  537 
4830 805  306 
4831 893  265 
4832 915  334 
4833 201  412 
4834 203  480 
4835 24   387 
4836 43   481 
4837 558  730 
4838 613  597 
4839 171  251 
4840 869  955 
4841 355  317 
4842 389  539 
4843 139  888 
4844 226  67  
4845 450  539 
4846 949  973 
4847 788  461 
4848 898  80  
4849 75   170 
4850 918  23  
4851 114  451 
4852 830  405 
4853 405  891 
4854 208  900 
4855 652  570 
4856 227  778 
4857 356  260 
4858 928  141 
4859 484  721 
4860 498  866 
4861 548  461 
4862 821  681 
4863 52   618 
4864 438  136 
4865 671  970 
4866 709  712 
4867 899  941 
4868 938  368 
4869 884  31  
4870 994  190 
4871 408  517 
4872 522  652 
4873 702  489 
4874 871  356 
4875 232  969 
4876 946  61  
4877 553  229 
4878 312  75  
4879 163  647 
4880 97   638 
4881 975  186 
4882 478  614 
4883 499  830 
4884 190  737 
4885 251  539 
4886 603  891 
4887 949  385 
4888 533  604 
4889 203  668 
4890 607  922 
4891 755  462 
4892 810  879 
4893 281  91  
4894 427  980 
4895 617  926 
4896 48   399 
4897 877  927 
4898 754  170 
4899 60   978 
4900 848  358 
4901 592  318 
4902 172  800 
4903 943  340 
4904 871  219 
4905 47   771 
4906 233  195 
4907 69   274 
4908 363  867 
4909 694  933 
4910 432  957 
4911 123  556 
4912 592  859 
4913 793  750 
4914 349  34  
4915 442  49  
4916 798  903 
4917 836  350 
4918 691  203 
4919 272  75  
4920 990  992 
4921 57   145 
4922 740  719 
4923 499  177 
4924 482  628 
4925 564  779 
4926 158  60  
4927 983  195 
4928 513  211 
4929 159  269 
4930 159  856 
4931 201  196 
4932 539  642 
4933 739  433 
4934 26   883 
4935 497  507 
4936 80   173 
4937 317  251 
4938 974  969 
4939 732  368 
4940 587  197 
4941 986  762 
4942 937  451 
4943 829  810 
4944 811  867 
4945 661  631 
4946 403  347 
4947 976  375 
4948 189  374 
4949 331  124 
4950 728  504 
4951 284  820 
4952 502  424 
4953 357  277 
4954 765  547 
4955 670  511 
4956 399  942 
4957 365  341 
4958 510  717 
4959 519  937 
4960 537  444 
4961 974  348 
4962 996  615 
4963 99   121 
4964 577  899 
4965 169  333 
4966 636  395 
4967 104  12  
4968 339  432 
4969 360  150 
4970 485  844 
4971 931  833 
4972 566  687 
4973 951  855 
4974 126  642 
4975 254  758 
4976 169  944 
4977 424  456 
4978 169  11  
4979 500  741 
4980 999  54  
4981 447  446 
4982 804  619 
4983 434  746 
4984 821  531 
4985 643  303 
4986 458  414 
4987 789  911 
4988 440  328 
4989 192  622 
4990 45   399 
4991 214  837 
4992 14   219 
4993 469  425 
4994 822  201 
4995 307  258 
4996 515  316 
4997 551  901 
4998 388  500 
4999 561  430 
5000 445  229 
5001 446  205 
DEMAND_SECTION
1    0   
2    9   
3    1   
4    67  
5    10  
6    7   
7    10  
8    9   
9    9   
10   5   
11   6   
12   6   
13   9   
14   3   
15   84  
16   55  
17   77  
18   8   
19   6   
20   4   
21   8   
22   1   
23   6   
24   1   
25   5   
26   10  
27   3   
28   4   
29   8   
30   62  
31   7   
32   73  
33   4   
34   10  
35   6   
36   10  
37   8   
38   3   
39   72  
40   2   
41   1   
42   8   
43   5   
44   9   
45   1   
46   82  
47   4   
48   2   
49   7   
50   1   
51   5   
52   72  
53   58  
54   4   
55   3   
56   9   
57   10  
58   7   
59   3   
60   10  
61   4   
62   5   
63   10  
64   66  
65   8   
66   5   
67   9   
68   10  
69   9   
70   2   
71   10  
72   10  
73   3   
74   5   
75   71  
76   60  
77   3   
78   9   
79   6   
80   7   
81   10  
82   3   
83   3   
84   62  
85   6   
86   2   
87   3   
88   1   
89   10  
90   8   
91   7   
92   98  
93   4   
94   2   
95   8   
96   4   
97   6   
98   8   
99   95  
100  3   
101  1   
102  5   
103  78  
104  5   
105  3   
106  7   
107  9   
108  9   
109  2   
110  7   
111  57  
112  4   
113  3   
114  7   
115  7   
116  81  
117  10  
118  2   
119  1   
120  74  
121  9   
122  5   
123  8   
124  5   
125  7   
126  56  
127  5   
128  7   
129  93  
130  3   
131  1   
132  2   
133  10  
134  10  
135  4   
136  10  
137  6   
138  10  
139  3   
140  4   
141  5   
142  7   
143  8   
144  9   
145  3   
146  4   
147  6   
148  2   
149  2   
150  1   
151  3   
152  5   
153  2   
154  3   
155  6   
156  10  
157  7   
158  51  
159  6   
160  4   
161  7   
162  10  
163  95  
164  4   
165  5   
166  1   
167  2   
168  2   
169  10  
170  9   
171  2   
172  10  
173  7   
174  9   
175  5   
176  99  
177  52  
178  10  
179  8   
180  4   
181  7   
182  4   
183  4   
184  96  
185  9   
186  1   
187  52  
188  6   
189  3   
190  7   
191  8   
192  70  
193  3   
194  10  
195  70  
196  5   
197  3   
198  8   
199  9   
200  1   
201  2   
202  10  
203  5   
204  8   
205  10  
206  7   
207  9   
208  2   
209  9   
210  8   
211  7   
212  5   
213  2   
214  7   
215  10  
216  7   
217  2   
218  9   
219  2   
220  4   
221  8   
222  8   
223  2   
224  4   
225  90  
226  4   
227  2   
228  10  
229  10  
230  8   
231  8   
232  78  
233  6   
234  93  
235  1   
236  68  
237  10  
238  76  
239  6   
240  1   
241  8   
242  68  
243  9   
244  6   
245  9   
246  89  
247  5   
248  6   
249  7   
250  5   
251  10  
252  77  
253  7   
254  1   
255  6   
256  62  
257  3   
258  9   
259  5   
260  54  
261  8   
262  2   
263  2   
264  67  
265  7   
266  6   
267  1   
268  6   
269  75  
270  1   
271  10  
272  5   
273  2   
274  5   
275  10  
276  66  
277  2   
278  9   
279  94  
280  5   
281  8   
282  9   
283  4   
284  4   
285  9   
286  3   
287  8   
288  9   
289  6   
290  9   
291  62  
292  9   
293  7   
294  7   
295  6   
296  3   
297  96  
298  6   
299  4   
300  71  
301  10  
302  96  
303  50  
304  6   
305  5   
306  1   
307  8   
308  1   
309  4   
310  7   
311  4   
312  1   
313  3   
314  2   
315  3   
316  2   
317  7   
318  5   
319  9   
320  1   
321  8   
322  9   
323  78  
324  3   
325  10  
326  2   
327  8   
328  90  
329  9   
330  4   
331  8   
332  4   
333  7   
334  8   
335  1   
336  9   
337  7   
338  90  
339  6   
340  86  
341  8   
342  9   
343  3   
344  75  
345  2   
346  1   
347  72  
348  5   
349  8   
350  10  
351  7   
352  5   
353  2   
354  1   
355  6   
356  9   
357  7   
358  6   
359  5   
360  4   
361  9   
362  99  
363  5   
364  9   
365  6   
366  4   
367  7   
368  5   
369  10  
370  2   
371  9   
372  10  
373  6   
374  7   
375  6   
376  9   
377  3   
378  6   
379  8   
380  1   
381  10  
382  55  
383  3   
384  7   
385  7   
386  5   
387  8   
388  5   
389  7   
390  8   
391  10  
392  7   
393  5   
394  4   
395  7   
396  1   
397  73  
398  2   
399  1   
400  4   
401  5   
402  5   
403  1   
404  60  
405  1   
406  6   
407  1   
408  3   
409  3   
410  3   
411  7   
412  9   
413  1   
414  10  
415  62  
416  8   
417  4   
418  1   
419  6   
420  3   
421  3   
422  7   
423  4   
424  70  
425  9   
426  9   
427  9   
428  1   
429  6   
430  6   
431  10  
432  2   
433  86  
434  2   
435  4   
436  10  
437  7   
438  60  
439  4   
440  5   
441  6   
442  9   
443  2   
444  4   
445  4   
446  8   
447  10  
448  6   
449  2   
450  5   
451  5   
452  10  
453  6   
454  54  
455  9   
456  8   
457  72  
458  5   
459  8   
460  4   
461  2   
462  9   
463  5   
464  6   
465  6   
466  5   
467  1   
468  2   
469  57  
470  10  
471  1   
472  2   
473  9   
474  87  
475  5   
476  9   
477  7   
478  5   
479  1   
480  1   
481  4   
482  1   
483  10  
484  9   
485  6   
486  2   
487  88  
488  8   
489  75  
490  80  
491  5   
492  3   
493  6   
494  4   
495  68  
496  6   
497  82  
498  7   
499  9   
500  2   
501  3   
502  3   
503  6   
504  4   
505  2   
506  62  
507  5   
508  10  
509  7   
510  8   
511  4   
512  53  
513  4   
514  5   
515  5   
516  7   
517  4   
518  3   
519  8   
520  9   
521  8   
522  3   
523  1   
524  76  
525  67  
526  8   
527  79  
528  5   
529  9   
530  3   
531  9   
532  6   
533  7   
534  6   
535  85  
536  55  
537  9   
538  6   
539  9   
540  71  
541  51  
542  9   
543  5   
544  3   
545  4   
546  9   
547  88  
548  77  
549  4   
550  9   
551  7   
552  7   
553  2   
554  2   
555  10  
556  2   
557  5   
558  5   
559  53  
560  5   
561  3   
562  1   
563  4   
564  9   
565  10  
566  6   
567  1   
568  1   
569  4   
570  8   
571  2   
572  4   
573  3   
574  6   
575  9   
576  10  
577  2   
578  5   
579  5   
580  9   
581  59  
582  10  
583  6   
584  7   
585  4   
586  3   
587  1   
588  96  
589  7   
590  7   
591  5   
592  1   
593  2   
594  7   
595  9   
596  10  
597  84  
598  51  
599  2   
600  96  
601  8   
602  10  
603  10  
604  1   
605  5   
606  5   
607  7   
608  5   
609  4   
610  5   
611  7   
612  9   
613  8   
614  4   
615  7   
616  99  
617  3   
618  8   
619  10  
620  61  
621  10  
622  2   
623  4   
624  58  
625  4   
626  9   
627  1   
628  68  
629  84  
630  3   
631  2   
632  63  
633  1   
634  2   
635  8   
636  5   
637  51  
638  6   
639  99  
640  9   
641  7   
642  5   
643  4   
644  9   
645  3   
646  10  
647  6   
648  5   
649  8   
650  4   
651  5   
652  1   
653  10  
654  6   
655  5   
656  2   
657  3   
658  10  
659  4   
660  4   
661  6   
662  2   
663  9   
664  63  
665  3   
666  8   
667  94  
668  5   
669  53  
670  6   
671  2   
672  100 
673  56  
674  9   
675  97  
676  9   
677  8   
678  10  
679  7   
680  4   
681  79  
682  5   
683  7   
684  90  
685  7   
686  4   
687  9   
688  8   
689  5   
690  74  
691  4   
692  8   
693  10  
694  10  
695  68  
696  10  
697  6   
698  8   
699  2   
700  10  
701  79  
702  4   
703  2   
704  5   
705  3   
706  10  
707  5   
708  5   
709  9   
710  3   
711  5   
712  3   
713  75  
714  4   
715  2   
716  3   
717  76  
718  98  
719  10  
720  5   
721  7   
722  94  
723  87  
724  71  
725  6   
726  2   
727  10  
728  4   
729  9   
730  2   
731  10  
732  6   
733  8   
734  3   
735  2   
736  10  
737  84  
738  6   
739  9   
740  6   
741  2   
742  56  
743  1   
744  1   
745  5   
746  1   
747  9   
748  86  
749  95  
750  2   
751  54  
752  56  
753  7   
754  10  
755  62  
756  5   
757  3   
758  7   
759  63  
760  8   
761  9   
762  8   
763  5   
764  4   
765  5   
766  10  
767  1   
768  8   
769  85  
770  2   
771  53  
772  8   
773  5   
774  5   
775  80  
776  5   
777  91  
778  8   
779  3   
780  1   
781  2   
782  68  
783  1   
784  5   
785  8   
786  80  
787  1   
788  1   
789  85  
790  2   
791  10  
792  8   
793  3   
794  3   
795  92  
796  3   
797  1   
798  1   
799  10  
800  7   
801  5   
802  8   
803  7   
804  1   
805  4   
806  5   
807  91  
808  3   
809  3   
810  10  
811  88  
812  6   
813  4   
814  84  
815  8   
816  2   
817  94  
818  8   
819  94  
820  3   
821  5   
822  6   
823  1   
824  7   
825  9   
826  2   
827  72  
828  3   
829  92  
830  100 
831  71  
832  1   
833  10  
834  2   
835  2   
836  10  
837  9   
838  3   
839  1   
840  66  
841  7   
842  9   
843  8   
844  10  
845  1   
846  7   
847  60  
848  5   
849  6   
850  7   
851  9   
852  8   
853  2   
854  4   
855  53  
856  2   
857  10  
858  91  
859  4   
860  93  
861  1   
862  7   
863  8   
864  91  
865  2   
866  6   
867  2   
868  3   
869  8   
870  7   
871  8   
872  6   
873  4   
874  1   
875  5   
876  75  
877  5   
878  10  
879  7   
880  6   
881  10  
882  8   
883  8   
884  5   
885  9   
886  10  
887  3   
888  6   
889  3   
890  3   
891  10  
892  10  
893  61  
894  5   
895  61  
896  2   
897  1   
898  87  
899  8   
900  8   
901  8   
902  10  
903  4   
904  6   
905  10  
906  51  
907  7   
908  10  
909  6   
910  1   
911  8   
912  4   
913  7   
914  3   
915  8   
916  6   
917  9   
918  3   
919  2   
920  1   
921  55  
922  10  
923  61  
924  10  
925  10  
926  2   
927  90  
928  9   
929  8   
930  3   
931  1   
932  2   
933  9   
934  98  
935  83  
936  1   
937  2   
938  6   
939  1   
940  6   
941  3   
942  5   
943  1   
944  3   
945  77  
946  74  
947  8   
948  1   
949  7   
950  10  
951  8   
952  1   
953  5   
954  5   
955  10  
956  9   
957  5   
958  3   
959  61  
960  6   
961  75  
962  98  
963  6   
964  7   
965  10  
966  91  
967  53  
968  2   
969  63  
970  9   
971  8   
972  9   
973  53  
974  89  
975  6   
976  1   
977  5   
978  4   
979  6   
980  8   
981  3   
982  4   
983  10  
984  2   
985  3   
986  4   
987  89  
988  5   
989  5   
990  10  
991  6   
992  7   
993  7   
994  3   
995  5   
996  5   
997  9   
998  99  
999  76  
1000 7   
1001 5   
1002 1   
1003 3   
1004 2   
1005 8   
1006 76  
1007 4   
1008 9   
1009 50  
1010 5   
1011 88  
1012 9   
1013 4   
1014 3   
1015 3   
1016 7   
1017 7   
1018 56  
1019 7   
1020 2   
1021 1   
1022 9   
1023 62  
1024 7   
1025 5   
1026 67  
1027 2   
1028 5   
1029 9   
1030 7   
1031 3   
1032 91  
1033 6   
1034 10  
1035 2   
1036 92  
1037 10  
1038 4   
1039 4   
1040 2   
1041 9   
1042 10  
1043 1   
1044 8   
1045 5   
1046 10  
1047 2   
1048 8   
1049 7   
1050 61  
1051 90  
1052 8   
1053 6   
1054 7   
1055 4   
1056 7   
1057 97  
1058 3   
1059 10  
1060 7   
1061 69  
1062 10  
1063 6   
1064 81  
1065 5   
1066 3   
1067 3   
1068 7   
1069 80  
1070 1   
1071 5   
1072 3   
1073 2   
1074 7   
1075 9   
1076 83  
1077 3   
1078 4   
1079 7   
1080 9   
1081 5   
1082 61  
1083 1   
1084 75  
1085 82  
1086 3   
1087 97  
1088 10  
1089 5   
1090 10  
1091 3   
1092 3   
1093 9   
1094 4   
1095 6   
1096 5   
1097 7   
1098 4   
1099 7   
1100 10  
1101 10  
1102 96  
1103 3   
1104 4   
1105 6   
1106 6   
1107 97  
1108 6   
1109 2   
1110 10  
1111 9   
1112 5   
1113 72  
1114 9   
1115 10  
1116 1   
1117 4   
1118 3   
1119 3   
1120 8   
1121 97  
1122 1   
1123 72  
1124 8   
1125 90  
1126 57  
1127 1   
1128 3   
1129 1   
1130 4   
1131 2   
1132 6   
1133 2   
1134 85  
1135 8   
1136 87  
1137 5   
1138 9   
1139 85  
1140 10  
1141 8   
1142 6   
1143 3   
1144 7   
1145 8   
1146 2   
1147 3   
1148 3   
1149 4   
1150 5   
1151 7   
1152 10  
1153 9   
1154 6   
1155 64  
1156 8   
1157 2   
1158 98  
1159 1   
1160 56  
1161 10  
1162 2   
1163 90  
1164 4   
1165 5   
1166 4   
1167 4   
1168 66  
1169 9   
1170 10  
1171 9   
1172 95  
1173 2   
1174 7   
1175 3   
1176 7   
1177 2   
1178 8   
1179 94  
1180 10  
1181 7   
1182 4   
1183 4   
1184 82  
1185 7   
1186 3   
1187 8   
1188 9   
1189 3   
1190 4   
1191 5   
1192 7   
1193 10  
1194 2   
1195 9   
1196 9   
1197 3   
1198 5   
1199 10  
1200 7   
1201 5   
1202 73  
1203 1   
1204 72  
1205 3   
1206 3   
1207 82  
1208 5   
1209 1   
1210 10  
1211 63  
1212 3   
1213 7   
1214 7   
1215 2   
1216 2   
1217 4   
1218 93  
1219 7   
1220 10  
1221 60  
1222 7   
1223 1   
1224 10  
1225 78  
1226 7   
1227 9   
1228 5   
1229 10  
1230 9   
1231 10  
1232 5   
1233 5   
1234 5   
1235 9   
1236 9   
1237 4   
1238 10  
1239 10  
1240 2   
1241 7   
1242 6   
1243 2   
1244 5   
1245 9   
1246 6   
1247 7   
1248 10  
1249 1   
1250 3   
1251 1   
1252 77  
1253 97  
1254 1   
1255 4   
1256 67  
1257 7   
1258 7   
1259 93  
1260 4   
1261 6   
1262 78  
1263 6   
1264 69  
1265 2   
1266 7   
1267 1   
1268 5   
1269 9   
1270 74  
1271 1   
1272 6   
1273 77  
1274 1   
1275 99  
1276 3   
1277 10  
1278 64  
1279 56  
1280 73  
1281 3   
1282 1   
1283 9   
1284 55  
1285 7   
1286 8   
1287 55  
1288 7   
1289 8   
1290 5   
1291 8   
1292 94  
1293 2   
1294 4   
1295 5   
1296 7   
1297 5   
1298 5   
1299 10  
1300 7   
1301 50  
1302 3   
1303 9   
1304 4   
1305 10  
1306 9   
1307 5   
1308 2   
1309 74  
1310 8   
1311 3   
1312 10  
1313 7   
1314 64  
1315 1   
1316 4   
1317 2   
1318 87  
1319 3   
1320 2   
1321 9   
1322 3   
1323 65  
1324 6   
1325 9   
1326 5   
1327 53  
1328 4   
1329 1   
1330 3   
1331 8   
1332 7   
1333 6   
1334 2   
1335 3   
1336 81  
1337 4   
1338 7   
1339 77  
1340 2   
1341 4   
1342 92  
1343 10  
1344 5   
1345 5   
1346 10  
1347 5   
1348 4   
1349 9   
1350 1   
1351 91  
1352 7   
1353 2   
1354 5   
1355 1   
1356 4   
1357 8   
1358 7   
1359 4   
1360 6   
1361 7   
1362 69  
1363 56  
1364 5   
1365 3   
1366 5   
1367 10  
1368 7   
1369 3   
1370 7   
1371 9   
1372 63  
1373 4   
1374 6   
1375 4   
1376 6   
1377 1   
1378 4   
1379 9   
1380 8   
1381 5   
1382 2   
1383 9   
1384 2   
1385 4   
1386 6   
1387 2   
1388 9   
1389 7   
1390 9   
1391 4   
1392 8   
1393 9   
1394 4   
1395 7   
1396 5   
1397 51  
1398 5   
1399 4   
1400 9   
1401 2   
1402 9   
1403 64  
1404 6   
1405 1   
1406 10  
1407 61  
1408 90  
1409 4   
1410 90  
1411 7   
1412 9   
1413 5   
1414 2   
1415 7   
1416 68  
1417 6   
1418 9   
1419 3   
1420 5   
1421 10  
1422 84  
1423 1   
1424 7   
1425 10  
1426 9   
1427 57  
1428 5   
1429 5   
1430 5   
1431 78  
1432 10  
1433 92  
1434 3   
1435 6   
1436 7   
1437 3   
1438 9   
1439 66  
1440 8   
1441 3   
1442 98  
1443 5   
1444 4   
1445 7   
1446 8   
1447 10  
1448 3   
1449 5   
1450 4   
1451 4   
1452 3   
1453 6   
1454 10  
1455 1   
1456 2   
1457 2   
1458 4   
1459 6   
1460 5   
1461 3   
1462 2   
1463 4   
1464 9   
1465 4   
1466 6   
1467 9   
1468 10  
1469 9   
1470 7   
1471 4   
1472 1   
1473 5   
1474 7   
1475 84  
1476 5   
1477 6   
1478 4   
1479 4   
1480 10  
1481 4   
1482 2   
1483 4   
1484 10  
1485 4   
1486 53  
1487 10  
1488 3   
1489 5   
1490 6   
1491 6   
1492 74  
1493 3   
1494 8   
1495 5   
1496 9   
1497 4   
1498 3   
1499 2   
1500 6   
1501 56  
1502 9   
1503 62  
1504 65  
1505 3   
1506 10  
1507 3   
1508 1   
1509 5   
1510 66  
1511 9   
1512 8   
1513 9   
1514 2   
1515 7   
1516 10  
1517 7   
1518 4   
1519 8   
1520 52  
1521 9   
1522 2   
1523 2   
1524 3   
1525 1   
1526 8   
1527 2   
1528 6   
1529 5   
1530 2   
1531 8   
1532 5   
1533 9   
1534 87  
1535 85  
1536 1   
1537 76  
1538 89  
1539 6   
1540 5   
1541 64  
1542 7   
1543 9   
1544 75  
1545 7   
1546 4   
1547 80  
1548 4   
1549 3   
1550 8   
1551 5   
1552 6   
1553 5   
1554 6   
1555 2   
1556 6   
1557 5   
1558 8   
1559 96  
1560 1   
1561 9   
1562 8   
1563 1   
1564 7   
1565 5   
1566 83  
1567 8   
1568 3   
1569 5   
1570 6   
1571 71  
1572 84  
1573 7   
1574 4   
1575 7   
1576 9   
1577 10  
1578 10  
1579 7   
1580 4   
1581 4   
1582 1   
1583 59  
1584 10  
1585 70  
1586 6   
1587 4   
1588 10  
1589 63  
1590 96  
1591 8   
1592 6   
1593 55  
1594 3   
1595 6   
1596 95  
1597 9   
1598 4   
1599 98  
1600 8   
1601 4   
1602 5   
1603 10  
1604 3   
1605 7   
1606 5   
1607 55  
1608 5   
1609 9   
1610 10  
1611 3   
1612 59  
1613 4   
1614 5   
1615 9   
1616 4   
1617 3   
1618 9   
1619 2   
1620 10  
1621 7   
1622 5   
1623 3   
1624 98  
1625 95  
1626 2   
1627 4   
1628 2   
1629 4   
1630 5   
1631 3   
1632 8   
1633 81  
1634 2   
1635 9   
1636 7   
1637 60  
1638 7   
1639 52  
1640 2   
1641 4   
1642 3   
1643 10  
1644 4   
1645 7   
1646 77  
1647 2   
1648 79  
1649 9   
1650 10  
1651 1   
1652 86  
1653 6   
1654 8   
1655 2   
1656 80  
1657 55  
1658 1   
1659 2   
1660 2   
1661 4   
1662 7   
1663 2   
1664 6   
1665 7   
1666 10  
1667 2   
1668 1   
1669 8   
1670 8   
1671 1   
1672 5   
1673 7   
1674 6   
1675 6   
1676 54  
1677 3   
1678 6   
1679 93  
1680 72  
1681 1   
1682 6   
1683 3   
1684 5   
1685 6   
1686 9   
1687 67  
1688 9   
1689 1   
1690 6   
1691 4   
1692 89  
1693 6   
1694 8   
1695 10  
1696 8   
1697 6   
1698 9   
1699 9   
1700 94  
1701 2   
1702 1   
1703 2   
1704 2   
1705 1   
1706 9   
1707 7   
1708 9   
1709 7   
1710 2   
1711 9   
1712 60  
1713 8   
1714 8   
1715 1   
1716 4   
1717 8   
1718 4   
1719 2   
1720 6   
1721 10  
1722 2   
1723 4   
1724 64  
1725 6   
1726 8   
1727 7   
1728 91  
1729 3   
1730 2   
1731 10  
1732 66  
1733 8   
1734 7   
1735 4   
1736 1   
1737 97  
1738 7   
1739 6   
1740 5   
1741 1   
1742 4   
1743 9   
1744 9   
1745 3   
1746 99  
1747 6   
1748 63  
1749 6   
1750 1   
1751 7   
1752 7   
1753 65  
1754 2   
1755 1   
1756 2   
1757 2   
1758 6   
1759 92  
1760 2   
1761 5   
1762 9   
1763 10  
1764 2   
1765 8   
1766 95  
1767 9   
1768 8   
1769 70  
1770 1   
1771 2   
1772 2   
1773 3   
1774 6   
1775 10  
1776 8   
1777 4   
1778 8   
1779 7   
1780 7   
1781 4   
1782 6   
1783 5   
1784 9   
1785 4   
1786 1   
1787 4   
1788 76  
1789 10  
1790 5   
1791 10  
1792 7   
1793 51  
1794 85  
1795 6   
1796 6   
1797 5   
1798 8   
1799 7   
1800 7   
1801 6   
1802 5   
1803 94  
1804 2   
1805 1   
1806 61  
1807 1   
1808 8   
1809 9   
1810 4   
1811 6   
1812 66  
1813 7   
1814 2   
1815 3   
1816 8   
1817 8   
1818 4   
1819 3   
1820 1   
1821 4   
1822 3   
1823 8   
1824 5   
1825 3   
1826 9   
1827 4   
1828 9   
1829 2   
1830 6   
1831 4   
1832 77  
1833 4   
1834 9   
1835 88  
1836 73  
1837 7   
1838 8   
1839 7   
1840 1   
1841 7   
1842 5   
1843 59  
1844 6   
1845 6   
1846 3   
1847 3   
1848 10  
1849 4   
1850 1   
1851 8   
1852 5   
1853 10  
1854 1   
1855 6   
1856 62  
1857 3   
1858 62  
1859 8   
1860 1   
1861 9   
1862 4   
1863 8   
1864 10  
1865 73  
1866 9   
1867 7   
1868 4   
1869 3   
1870 5   
1871 62  
1872 5   
1873 2   
1874 9   
1875 3   
1876 8   
1877 94  
1878 4   
1879 9   
1880 9   
1881 9   
1882 10  
1883 10  
1884 84  
1885 10  
1886 10  
1887 9   
1888 95  
1889 7   
1890 6   
1891 7   
1892 92  
1893 1   
1894 4   
1895 1   
1896 5   
1897 84  
1898 7   
1899 9   
1900 6   
1901 53  
1902 1   
1903 10  
1904 10  
1905 8   
1906 58  
1907 3   
1908 6   
1909 1   
1910 97  
1911 2   
1912 2   
1913 67  
1914 7   
1915 57  
1916 86  
1917 7   
1918 79  
1919 69  
1920 6   
1921 7   
1922 1   
1923 52  
1924 8   
1925 99  
1926 86  
1927 5   
1928 2   
1929 5   
1930 9   
1931 67  
1932 4   
1933 2   
1934 9   
1935 8   
1936 81  
1937 74  
1938 10  
1939 79  
1940 1   
1941 8   
1942 2   
1943 3   
1944 2   
1945 3   
1946 2   
1947 100 
1948 9   
1949 90  
1950 5   
1951 72  
1952 4   
1953 3   
1954 2   
1955 2   
1956 57  
1957 8   
1958 8   
1959 78  
1960 9   
1961 6   
1962 5   
1963 9   
1964 6   
1965 8   
1966 50  
1967 1   
1968 6   
1969 58  
1970 2   
1971 69  
1972 8   
1973 1   
1974 8   
1975 2   
1976 89  
1977 3   
1978 3   
1979 3   
1980 3   
1981 4   
1982 3   
1983 7   
1984 5   
1985 10  
1986 76  
1987 10  
1988 9   
1989 55  
1990 6   
1991 10  
1992 3   
1993 63  
1994 9   
1995 6   
1996 9   
1997 80  
1998 10  
1999 83  
2000 83  
2001 3   
2002 3   
2003 4   
2004 1   
2005 8   
2006 2   
2007 4   
2008 7   
2009 9   
2010 1   
2011 8   
2012 8   
2013 7   
2014 3   
2015 51  
2016 3   
2017 10  
2018 4   
2019 2   
2020 6   
2021 9   
2022 4   
2023 63  
2024 7   
2025 7   
2026 97  
2027 6   
2028 6   
2029 6   
2030 7   
2031 4   
2032 7   
2033 3   
2034 6   
2035 2   
2036 1   
2037 3   
2038 2   
2039 5   
2040 8   
2041 6   
2042 8   
2043 72  
2044 89  
2045 6   
2046 3   
2047 7   
2048 83  
2049 6   
2050 7   
2051 8   
2052 6   
2053 4   
2054 8   
2055 7   
2056 6   
2057 8   
2058 1   
2059 8   
2060 3   
2061 52  
2062 67  
2063 3   
2064 4   
2065 1   
2066 2   
2067 7   
2068 2   
2069 55  
2070 7   
2071 9   
2072 5   
2073 6   
2074 6   
2075 3   
2076 9   
2077 52  
2078 7   
2079 2   
2080 2   
2081 6   
2082 3   
2083 1   
2084 1   
2085 9   
2086 79  
2087 5   
2088 53  
2089 6   
2090 56  
2091 3   
2092 6   
2093 7   
2094 4   
2095 6   
2096 89  
2097 6   
2098 2   
2099 3   
2100 8   
2101 1   
2102 6   
2103 53  
2104 4   
2105 8   
2106 7   
2107 60  
2108 2   
2109 73  
2110 3   
2111 1   
2112 10  
2113 76  
2114 9   
2115 10  
2116 88  
2117 69  
2118 3   
2119 75  
2120 3   
2121 86  
2122 6   
2123 10  
2124 2   
2125 9   
2126 2   
2127 6   
2128 88  
2129 7   
2130 4   
2131 73  
2132 5   
2133 91  
2134 9   
2135 3   
2136 9   
2137 10  
2138 2   
2139 4   
2140 7   
2141 4   
2142 71  
2143 5   
2144 2   
2145 9   
2146 2   
2147 4   
2148 1   
2149 73  
2150 7   
2151 3   
2152 2   
2153 7   
2154 7   
2155 3   
2156 3   
2157 4   
2158 3   
2159 2   
2160 8   
2161 8   
2162 10  
2163 1   
2164 8   
2165 69  
2166 5   
2167 10  
2168 10  
2169 9   
2170 5   
2171 85  
2172 8   
2173 1   
2174 1   
2175 1   
2176 6   
2177 93  
2178 10  
2179 56  
2180 4   
2181 2   
2182 54  
2183 4   
2184 6   
2185 8   
2186 3   
2187 50  
2188 4   
2189 85  
2190 9   
2191 53  
2192 9   
2193 2   
2194 7   
2195 9   
2196 4   
2197 6   
2198 88  
2199 9   
2200 7   
2201 7   
2202 9   
2203 71  
2204 54  
2205 4   
2206 4   
2207 58  
2208 91  
2209 8   
2210 95  
2211 10  
2212 5   
2213 5   
2214 72  
2215 8   
2216 8   
2217 10  
2218 3   
2219 6   
2220 6   
2221 1   
2222 2   
2223 4   
2224 75  
2225 10  
2226 10  
2227 7   
2228 5   
2229 10  
2230 2   
2231 10  
2232 8   
2233 7   
2234 4   
2235 10  
2236 2   
2237 1   
2238 8   
2239 5   
2240 6   
2241 91  
2242 1   
2243 6   
2244 2   
2245 7   
2246 95  
2247 8   
2248 8   
2249 4   
2250 8   
2251 2   
2252 5   
2253 61  
2254 5   
2255 6   
2256 79  
2257 9   
2258 76  
2259 1   
2260 4   
2261 2   
2262 3   
2263 3   
2264 3   
2265 1   
2266 9   
2267 58  
2268 6   
2269 4   
2270 10  
2271 2   
2272 2   
2273 7   
2274 83  
2275 62  
2276 10  
2277 1   
2278 4   
2279 4   
2280 3   
2281 1   
2282 2   
2283 57  
2284 98  
2285 4   
2286 7   
2287 95  
2288 3   
2289 7   
2290 10  
2291 54  
2292 10  
2293 68  
2294 4   
2295 1   
2296 2   
2297 9   
2298 69  
2299 4   
2300 1   
2301 51  
2302 7   
2303 1   
2304 7   
2305 1   
2306 7   
2307 3   
2308 9   
2309 5   
2310 7   
2311 92  
2312 9   
2313 94  
2314 10  
2315 72  
2316 3   
2317 1   
2318 8   
2319 3   
2320 6   
2321 10  
2322 3   
2323 8   
2324 8   
2325 4   
2326 53  
2327 4   
2328 8   
2329 6   
2330 9   
2331 7   
2332 67  
2333 9   
2334 88  
2335 7   
2336 10  
2337 99  
2338 7   
2339 4   
2340 2   
2341 5   
2342 6   
2343 3   
2344 5   
2345 5   
2346 5   
2347 81  
2348 6   
2349 2   
2350 10  
2351 5   
2352 10  
2353 85  
2354 86  
2355 8   
2356 3   
2357 66  
2358 4   
2359 5   
2360 83  
2361 95  
2362 6   
2363 1   
2364 9   
2365 6   
2366 5   
2367 85  
2368 10  
2369 3   
2370 4   
2371 1   
2372 3   
2373 2   
2374 96  
2375 88  
2376 1   
2377 8   
2378 90  
2379 3   
2380 8   
2381 3   
2382 5   
2383 2   
2384 7   
2385 5   
2386 9   
2387 5   
2388 2   
2389 5   
2390 73  
2391 87  
2392 4   
2393 3   
2394 52  
2395 74  
2396 1   
2397 4   
2398 5   
2399 10  
2400 7   
2401 3   
2402 50  
2403 6   
2404 2   
2405 8   
2406 6   
2407 70  
2408 4   
2409 3   
2410 10  
2411 8   
2412 6   
2413 10  
2414 8   
2415 1   
2416 8   
2417 9   
2418 90  
2419 77  
2420 1   
2421 5   
2422 8   
2423 3   
2424 54  
2425 10  
2426 1   
2427 4   
2428 2   
2429 6   
2430 10  
2431 8   
2432 3   
2433 7   
2434 90  
2435 2   
2436 53  
2437 7   
2438 4   
2439 7   
2440 4   
2441 3   
2442 6   
2443 78  
2444 70  
2445 1   
2446 10  
2447 10  
2448 3   
2449 58  
2450 75  
2451 6   
2452 9   
2453 9   
2454 9   
2455 8   
2456 4   
2457 10  
2458 4   
2459 73  
2460 10  
2461 7   
2462 52  
2463 9   
2464 4   
2465 10  
2466 7   
2467 1   
2468 76  
2469 9   
2470 5   
2471 4   
2472 8   
2473 1   
2474 5   
2475 1   
2476 2   
2477 2   
2478 6   
2479 6   
2480 1   
2481 86  
2482 3   
2483 80  
2484 8   
2485 10  
2486 2   
2487 5   
2488 1   
2489 8   
2490 10  
2491 2   
2492 87  
2493 87  
2494 71  
2495 2   
2496 10  
2497 5   
2498 3   
2499 2   
2500 2   
2501 5   
2502 8   
2503 7   
2504 64  
2505 8   
2506 9   
2507 97  
2508 4   
2509 6   
2510 2   
2511 7   
2512 58  
2513 10  
2514 9   
2515 1   
2516 10  
2517 6   
2518 5   
2519 1   
2520 6   
2521 8   
2522 2   
2523 74  
2524 7   
2525 3   
2526 7   
2527 7   
2528 5   
2529 79  
2530 2   
2531 79  
2532 7   
2533 6   
2534 4   
2535 77  
2536 5   
2537 3   
2538 6   
2539 10  
2540 1   
2541 87  
2542 57  
2543 6   
2544 77  
2545 2   
2546 10  
2547 2   
2548 3   
2549 2   
2550 70  
2551 6   
2552 1   
2553 9   
2554 4   
2555 57  
2556 88  
2557 2   
2558 2   
2559 10  
2560 82  
2561 3   
2562 10  
2563 85  
2564 8   
2565 3   
2566 7   
2567 8   
2568 77  
2569 3   
2570 2   
2571 9   
2572 2   
2573 9   
2574 4   
2575 1   
2576 7   
2577 9   
2578 7   
2579 1   
2580 1   
2581 3   
2582 7   
2583 4   
2584 9   
2585 5   
2586 8   
2587 2   
2588 7   
2589 4   
2590 4   
2591 4   
2592 2   
2593 8   
2594 3   
2595 9   
2596 4   
2597 8   
2598 5   
2599 5   
2600 8   
2601 10  
2602 6   
2603 2   
2604 3   
2605 7   
2606 5   
2607 6   
2608 5   
2609 58  
2610 4   
2611 3   
2612 9   
2613 8   
2614 1   
2615 6   
2616 8   
2617 50  
2618 1   
2619 10  
2620 67  
2621 6   
2622 2   
2623 2   
2624 80  
2625 7   
2626 1   
2627 1   
2628 9   
2629 1   
2630 7   
2631 56  
2632 10  
2633 1   
2634 1   
2635 5   
2636 9   
2637 1   
2638 10  
2639 3   
2640 3   
2641 99  
2642 4   
2643 3   
2644 9   
2645 10  
2646 4   
2647 3   
2648 9   
2649 8   
2650 8   
2651 7   
2652 73  
2653 8   
2654 98  
2655 3   
2656 10  
2657 4   
2658 9   
2659 3   
2660 9   
2661 2   
2662 69  
2663 4   
2664 8   
2665 2   
2666 2   
2667 7   
2668 3   
2669 5   
2670 9   
2671 8   
2672 80  
2673 3   
2674 4   
2675 1   
2676 5   
2677 62  
2678 64  
2679 10  
2680 4   
2681 77  
2682 67  
2683 4   
2684 57  
2685 7   
2686 5   
2687 2   
2688 7   
2689 51  
2690 8   
2691 2   
2692 53  
2693 51  
2694 57  
2695 99  
2696 8   
2697 9   
2698 3   
2699 90  
2700 4   
2701 65  
2702 5   
2703 2   
2704 83  
2705 53  
2706 68  
2707 5   
2708 57  
2709 9   
2710 10  
2711 69  
2712 9   
2713 5   
2714 10  
2715 10  
2716 4   
2717 8   
2718 4   
2719 5   
2720 100 
2721 10  
2722 8   
2723 4   
2724 5   
2725 3   
2726 3   
2727 8   
2728 7   
2729 1   
2730 5   
2731 1   
2732 4   
2733 3   
2734 8   
2735 10  
2736 7   
2737 7   
2738 10  
2739 9   
2740 6   
2741 5   
2742 7   
2743 9   
2744 6   
2745 3   
2746 8   
2747 6   
2748 4   
2749 8   
2750 6   
2751 9   
2752 73  
2753 5   
2754 5   
2755 7   
2756 71  
2757 5   
2758 9   
2759 5   
2760 71  
2761 10  
2762 8   
2763 1   
2764 6   
2765 50  
2766 7   
2767 3   
2768 5   
2769 86  
2770 91  
2771 8   
2772 6   
2773 74  
2774 5   
2775 58  
2776 2   
2777 3   
2778 2   
2779 10  
2780 8   
2781 80  
2782 2   
2783 6   
2784 4   
2785 4   
2786 10  
2787 9   
2788 57  
2789 4   
2790 71  
2791 77  
2792 8   
2793 55  
2794 7   
2795 2   
2796 10  
2797 10  
2798 5   
2799 10  
2800 5   
2801 6   
2802 2   
2803 5   
2804 2   
2805 99  
2806 8   
2807 6   
2808 10  
2809 5   
2810 10  
2811 8   
2812 72  
2813 4   
2814 9   
2815 7   
2816 5   
2817 2   
2818 52  
2819 8   
2820 8   
2821 1   
2822 10  
2823 4   
2824 9   
2825 4   
2826 6   
2827 3   
2828 4   
2829 1   
2830 10  
2831 4   
2832 9   
2833 7   
2834 4   
2835 4   
2836 10  
2837 6   
2838 7   
2839 5   
2840 3   
2841 5   
2842 2   
2843 6   
2844 7   
2845 5   
2846 1   
2847 88  
2848 8   
2849 6   
2850 7   
2851 8   
2852 3   
2853 95  
2854 7   
2855 73  
2856 4   
2857 66  
2858 1   
2859 6   
2860 7   
2861 6   
2862 9   
2863 7   
2864 7   
2865 1   
2866 8   
2867 5   
2868 3   
2869 92  
2870 3   
2871 7   
2872 58  
2873 10  
2874 1   
2875 4   
2876 54  
2877 88  
2878 1   
2879 7   
2880 8   
2881 9   
2882 4   
2883 10  
2884 68  
2885 9   
2886 7   
2887 2   
2888 1   
2889 3   
2890 10  
2891 8   
2892 4   
2893 1   
2894 8   
2895 9   
2896 9   
2897 10  
2898 9   
2899 3   
2900 60  
2901 6   
2902 7   
2903 95  
2904 7   
2905 5   
2906 4   
2907 4   
2908 10  
2909 82  
2910 80  
2911 10  
2912 10  
2913 3   
2914 67  
2915 3   
2916 6   
2917 1   
2918 9   
2919 1   
2920 8   
2921 5   
2922 88  
2923 5   
2924 9   
2925 7   
2926 1   
2927 10  
2928 6   
2929 2   
2930 8   
2931 10  
2932 8   
2933 1   
2934 4   
2935 9   
2936 8   
2937 6   
2938 1   
2939 7   
2940 5   
2941 52  
2942 9   
2943 82  
2944 4   
2945 5   
2946 6   
2947 8   
2948 9   
2949 6   
2950 2   
2951 1   
2952 4   
2953 6   
2954 7   
2955 2   
2956 4   
2957 98  
2958 1   
2959 3   
2960 97  
2961 2   
2962 1   
2963 4   
2964 56  
2965 1   
2966 1   
2967 10  
2968 10  
2969 63  
2970 9   
2971 91  
2972 1   
2973 5   
2974 5   
2975 70  
2976 9   
2977 2   
2978 4   
2979 10  
2980 54  
2981 55  
2982 5   
2983 2   
2984 10  
2985 51  
2986 3   
2987 5   
2988 10  
2989 1   
2990 1   
2991 8   
2992 1   
2993 7   
2994 58  
2995 9   
2996 57  
2997 71  
2998 3   
2999 6   
3000 6   
3001 7   
3002 8   
3003 8   
3004 59  
3005 9   
3006 8   
3007 6   
3008 8   
3009 6   
3010 6   
3011 97  
3012 8   
3013 94  
3014 77  
3015 6   
3016 52  
3017 2   
3018 9   
3019 5   
3020 82  
3021 10  
3022 71  
3023 5   
3024 6   
3025 4   
3026 1   
3027 8   
3028 60  
3029 2   
3030 4   
3031 6   
3032 7   
3033 1   
3034 2   
3035 1   
3036 83  
3037 85  
3038 9   
3039 96  
3040 4   
3041 1   
3042 63  
3043 90  
3044 3   
3045 9   
3046 88  
3047 7   
3048 2   
3049 9   
3050 10  
3051 6   
3052 1   
3053 88  
3054 54  
3055 57  
3056 5   
3057 10  
3058 2   
3059 4   
3060 7   
3061 1   
3062 1   
3063 5   
3064 10  
3065 8   
3066 5   
3067 6   
3068 53  
3069 4   
3070 3   
3071 8   
3072 4   
3073 6   
3074 7   
3075 10  
3076 94  
3077 5   
3078 3   
3079 1   
3080 10  
3081 3   
3082 2   
3083 8   
3084 53  
3085 3   
3086 4   
3087 1   
3088 9   
3089 1   
3090 8   
3091 71  
3092 1   
3093 5   
3094 58  
3095 84  
3096 61  
3097 5   
3098 2   
3099 2   
3100 3   
3101 3   
3102 1   
3103 8   
3104 5   
3105 1   
3106 58  
3107 6   
3108 1   
3109 5   
3110 4   
3111 1   
3112 1   
3113 1   
3114 67  
3115 2   
3116 1   
3117 10  
3118 8   
3119 1   
3120 6   
3121 9   
3122 2   
3123 1   
3124 85  
3125 8   
3126 10  
3127 9   
3128 54  
3129 8   
3130 5   
3131 2   
3132 74  
3133 79  
3134 8   
3135 3   
3136 10  
3137 7   
3138 1   
3139 1   
3140 6   
3141 10  
3142 2   
3143 1   
3144 78  
3145 5   
3146 7   
3147 58  
3148 1   
3149 50  
3150 9   
3151 1   
3152 9   
3153 8   
3154 8   
3155 7   
3156 7   
3157 2   
3158 8   
3159 9   
3160 91  
3161 4   
3162 10  
3163 78  
3164 3   
3165 6   
3166 79  
3167 6   
3168 3   
3169 7   
3170 4   
3171 7   
3172 9   
3173 5   
3174 73  
3175 7   
3176 6   
3177 99  
3178 8   
3179 4   
3180 3   
3181 1   
3182 9   
3183 55  
3184 10  
3185 6   
3186 7   
3187 72  
3188 8   
3189 8   
3190 8   
3191 7   
3192 8   
3193 7   
3194 67  
3195 1   
3196 1   
3197 1   
3198 5   
3199 9   
3200 8   
3201 10  
3202 87  
3203 8   
3204 9   
3205 10  
3206 6   
3207 7   
3208 70  
3209 5   
3210 4   
3211 1   
3212 3   
3213 5   
3214 5   
3215 9   
3216 10  
3217 3   
3218 90  
3219 4   
3220 4   
3221 56  
3222 7   
3223 6   
3224 7   
3225 7   
3226 5   
3227 7   
3228 8   
3229 53  
3230 6   
3231 9   
3232 4   
3233 2   
3234 2   
3235 3   
3236 1   
3237 85  
3238 2   
3239 9   
3240 7   
3241 78  
3242 2   
3243 5   
3244 66  
3245 7   
3246 6   
3247 7   
3248 57  
3249 7   
3250 10  
3251 8   
3252 10  
3253 8   
3254 3   
3255 7   
3256 4   
3257 100 
3258 99  
3259 3   
3260 2   
3261 6   
3262 6   
3263 97  
3264 9   
3265 5   
3266 5   
3267 10  
3268 2   
3269 2   
3270 4   
3271 1   
3272 9   
3273 7   
3274 3   
3275 8   
3276 1   
3277 8   
3278 10  
3279 5   
3280 3   
3281 1   
3282 61  
3283 4   
3284 2   
3285 52  
3286 4   
3287 6   
3288 68  
3289 5   
3290 5   
3291 64  
3292 4   
3293 2   
3294 64  
3295 95  
3296 8   
3297 88  
3298 10  
3299 1   
3300 2   
3301 5   
3302 70  
3303 2   
3304 4   
3305 9   
3306 83  
3307 7   
3308 7   
3309 8   
3310 8   
3311 5   
3312 8   
3313 2   
3314 10  
3315 98  
3316 2   
3317 73  
3318 4   
3319 6   
3320 95  
3321 5   
3322 9   
3323 3   
3324 69  
3325 10  
3326 10  
3327 2   
3328 51  
3329 7   
3330 5   
3331 2   
3332 76  
3333 7   
3334 94  
3335 3   
3336 1   
3337 10  
3338 9   
3339 10  
3340 2   
3341 54  
3342 7   
3343 3   
3344 4   
3345 9   
3346 6   
3347 4   
3348 9   
3349 3   
3350 57  
3351 4   
3352 6   
3353 52  
3354 6   
3355 10  
3356 9   
3357 2   
3358 1   
3359 79  
3360 6   
3361 88  
3362 10  
3363 6   
3364 10  
3365 2   
3366 92  
3367 4   
3368 74  
3369 8   
3370 3   
3371 9   
3372 1   
3373 10  
3374 5   
3375 4   
3376 3   
3377 10  
3378 6   
3379 93  
3380 6   
3381 9   
3382 10  
3383 4   
3384 9   
3385 55  
3386 62  
3387 7   
3388 6   
3389 5   
3390 8   
3391 4   
3392 2   
3393 2   
3394 6   
3395 10  
3396 10  
3397 3   
3398 53  
3399 7   
3400 9   
3401 2   
3402 69  
3403 1   
3404 6   
3405 55  
3406 8   
3407 3   
3408 81  
3409 1   
3410 1   
3411 3   
3412 58  
3413 60  
3414 3   
3415 2   
3416 55  
3417 2   
3418 9   
3419 2   
3420 2   
3421 8   
3422 1   
3423 5   
3424 7   
3425 2   
3426 8   
3427 4   
3428 6   
3429 1   
3430 52  
3431 2   
3432 4   
3433 8   
3434 9   
3435 7   
3436 6   
3437 6   
3438 82  
3439 72  
3440 3   
3441 10  
3442 8   
3443 82  
3444 6   
3445 2   
3446 95  
3447 4   
3448 1   
3449 9   
3450 89  
3451 9   
3452 8   
3453 10  
3454 8   
3455 4   
3456 7   
3457 7   
3458 10  
3459 9   
3460 8   
3461 9   
3462 3   
3463 9   
3464 8   
3465 9   
3466 1   
3467 8   
3468 4   
3469 10  
3470 3   
3471 1   
3472 5   
3473 7   
3474 4   
3475 7   
3476 9   
3477 9   
3478 5   
3479 5   
3480 10  
3481 1   
3482 2   
3483 7   
3484 10  
3485 8   
3486 8   
3487 2   
3488 5   
3489 4   
3490 2   
3491 92  
3492 1   
3493 3   
3494 7   
3495 1   
3496 97  
3497 6   
3498 6   
3499 5   
3500 88  
3501 8   
3502 5   
3503 1   
3504 10  
3505 60  
3506 3   
3507 5   
3508 97  
3509 5   
3510 10  
3511 8   
3512 5   
3513 8   
3514 6   
3515 4   
3516 8   
3517 8   
3518 3   
3519 7   
3520 5   
3521 6   
3522 63  
3523 5   
3524 5   
3525 3   
3526 3   
3527 4   
3528 9   
3529 89  
3530 4   
3531 2   
3532 70  
3533 5   
3534 8   
3535 57  
3536 5   
3537 8   
3538 86  
3539 59  
3540 7   
3541 9   
3542 4   
3543 10  
3544 1   
3545 4   
3546 6   
3547 4   
3548 85  
3549 6   
3550 9   
3551 5   
3552 65  
3553 1   
3554 10  
3555 9   
3556 2   
3557 7   
3558 4   
3559 2   
3560 1   
3561 1   
3562 9   
3563 8   
3564 10  
3565 6   
3566 10  
3567 7   
3568 6   
3569 3   
3570 63  
3571 5   
3572 1   
3573 5   
3574 8   
3575 5   
3576 1   
3577 1   
3578 4   
3579 10  
3580 9   
3581 9   
3582 2   
3583 3   
3584 10  
3585 3   
3586 6   
3587 7   
3588 1   
3589 5   
3590 8   
3591 10  
3592 4   
3593 66  
3594 5   
3595 6   
3596 8   
3597 7   
3598 7   
3599 10  
3600 3   
3601 5   
3602 4   
3603 5   
3604 10  
3605 7   
3606 2   
3607 1   
3608 5   
3609 1   
3610 8   
3611 10  
3612 4   
3613 7   
3614 72  
3615 1   
3616 4   
3617 8   
3618 6   
3619 51  
3620 54  
3621 88  
3622 6   
3623 10  
3624 1   
3625 10  
3626 78  
3627 4   
3628 6   
3629 1   
3630 7   
3631 6   
3632 8   
3633 2   
3634 2   
3635 2   
3636 5   
3637 3   
3638 97  
3639 84  
3640 9   
3641 6   
3642 8   
3643 9   
3644 57  
3645 7   
3646 5   
3647 7   
3648 10  
3649 88  
3650 7   
3651 8   
3652 5   
3653 2   
3654 6   
3655 10  
3656 2   
3657 7   
3658 6   
3659 2   
3660 8   
3661 5   
3662 4   
3663 6   
3664 3   
3665 91  
3666 3   
3667 6   
3668 97  
3669 66  
3670 10  
3671 80  
3672 1   
3673 65  
3674 6   
3675 4   
3676 5   
3677 10  
3678 5   
3679 89  
3680 1   
3681 4   
3682 9   
3683 6   
3684 70  
3685 96  
3686 6   
3687 7   
3688 10  
3689 7   
3690 6   
3691 4   
3692 3   
3693 7   
3694 6   
3695 6   
3696 4   
3697 86  
3698 5   
3699 67  
3700 84  
3701 87  
3702 7   
3703 4   
3704 2   
3705 4   
3706 4   
3707 2   
3708 7   
3709 9   
3710 8   
3711 50  
3712 97  
3713 89  
3714 4   
3715 5   
3716 3   
3717 10  
3718 3   
3719 8   
3720 64  
3721 7   
3722 3   
3723 4   
3724 2   
3725 7   
3726 3   
3727 8   
3728 9   
3729 10  
3730 99  
3731 3   
3732 88  
3733 1   
3734 63  
3735 7   
3736 4   
3737 60  
3738 9   
3739 2   
3740 92  
3741 82  
3742 7   
3743 3   
3744 80  
3745 7   
3746 5   
3747 1   
3748 6   
3749 3   
3750 2   
3751 2   
3752 3   
3753 7   
3754 78  
3755 5   
3756 7   
3757 1   
3758 57  
3759 5   
3760 72  
3761 56  
3762 88  
3763 9   
3764 6   
3765 10  
3766 52  
3767 3   
3768 4   
3769 1   
3770 92  
3771 69  
3772 62  
3773 96  
3774 10  
3775 4   
3776 5   
3777 2   
3778 81  
3779 10  
3780 5   
3781 10  
3782 95  
3783 62  
3784 1   
3785 1   
3786 4   
3787 8   
3788 84  
3789 2   
3790 9   
3791 5   
3792 1   
3793 7   
3794 3   
3795 2   
3796 4   
3797 5   
3798 3   
3799 8   
3800 6   
3801 8   
3802 9   
3803 57  
3804 2   
3805 6   
3806 6   
3807 2   
3808 7   
3809 64  
3810 1   
3811 1   
3812 1   
3813 86  
3814 3   
3815 5   
3816 1   
3817 9   
3818 2   
3819 3   
3820 1   
3821 9   
3822 85  
3823 3   
3824 57  
3825 82  
3826 3   
3827 6   
3828 9   
3829 3   
3830 6   
3831 2   
3832 9   
3833 8   
3834 3   
3835 8   
3836 10  
3837 9   
3838 1   
3839 6   
3840 4   
3841 2   
3842 7   
3843 59  
3844 9   
3845 4   
3846 94  
3847 69  
3848 3   
3849 7   
3850 8   
3851 10  
3852 5   
3853 2   
3854 90  
3855 69  
3856 6   
3857 7   
3858 7   
3859 7   
3860 6   
3861 4   
3862 50  
3863 86  
3864 9   
3865 5   
3866 51  
3867 5   
3868 1   
3869 2   
3870 85  
3871 2   
3872 2   
3873 1   
3874 6   
3875 5   
3876 52  
3877 10  
3878 5   
3879 6   
3880 2   
3881 5   
3882 76  
3883 78  
3884 8   
3885 1   
3886 4   
3887 8   
3888 8   
3889 8   
3890 7   
3891 9   
3892 93  
3893 91  
3894 9   
3895 1   
3896 9   
3897 9   
3898 98  
3899 5   
3900 4   
3901 54  
3902 7   
3903 10  
3904 10  
3905 5   
3906 6   
3907 4   
3908 10  
3909 72  
3910 8   
3911 6   
3912 4   
3913 98  
3914 9   
3915 79  
3916 6   
3917 7   
3918 1   
3919 4   
3920 4   
3921 7   
3922 6   
3923 5   
3924 52  
3925 74  
3926 10  
3927 65  
3928 7   
3929 6   
3930 4   
3931 76  
3932 10  
3933 1   
3934 9   
3935 9   
3936 6   
3937 74  
3938 1   
3939 7   
3940 85  
3941 87  
3942 1   
3943 7   
3944 4   
3945 10  
3946 2   
3947 6   
3948 5   
3949 1   
3950 6   
3951 7   
3952 9   
3953 5   
3954 4   
3955 9   
3956 2   
3957 6   
3958 9   
3959 5   
3960 4   
3961 4   
3962 2   
3963 3   
3964 7   
3965 1   
3966 7   
3967 7   
3968 10  
3969 6   
3970 92  
3971 9   
3972 8   
3973 75  
3974 6   
3975 8   
3976 6   
3977 1   
3978 6   
3979 3   
3980 1   
3981 7   
3982 55  
3983 4   
3984 6   
3985 5   
3986 2   
3987 3   
3988 4   
3989 4   
3990 10  
3991 2   
3992 4   
3993 9   
3994 10  
3995 96  
3996 65  
3997 3   
3998 90  
3999 8   
4000 6   
4001 5   
4002 3   
4003 1   
4004 1   
4005 9   
4006 2   
4007 4   
4008 6   
4009 10  
4010 5   
4011 8   
4012 2   
4013 3   
4014 2   
4015 2   
4016 9   
4017 5   
4018 91  
4019 9   
4020 5   
4021 6   
4022 8   
4023 7   
4024 2   
4025 2   
4026 77  
4027 7   
4028 9   
4029 7   
4030 75  
4031 6   
4032 4   
4033 9   
4034 5   
4035 92  
4036 8   
4037 3   
4038 61  
4039 9   
4040 5   
4041 3   
4042 8   
4043 4   
4044 88  
4045 7   
4046 10  
4047 92  
4048 1   
4049 53  
4050 6   
4051 3   
4052 2   
4053 4   
4054 9   
4055 71  
4056 3   
4057 1   
4058 3   
4059 10  
4060 3   
4061 2   
4062 64  
4063 80  
4064 7   
4065 1   
4066 9   
4067 9   
4068 9   
4069 52  
4070 10  
4071 6   
4072 6   
4073 7   
4074 3   
4075 1   
4076 3   
4077 8   
4078 5   
4079 9   
4080 4   
4081 10  
4082 6   
4083 10  
4084 7   
4085 3   
4086 10  
4087 8   
4088 6   
4089 8   
4090 10  
4091 10  
4092 6   
4093 7   
4094 2   
4095 56  
4096 5   
4097 9   
4098 9   
4099 6   
4100 70  
4101 58  
4102 10  
4103 4   
4104 5   
4105 6   
4106 5   
4107 5   
4108 6   
4109 1   
4110 57  
4111 9   
4112 5   
4113 1   
4114 6   
4115 4   
4116 5   
4117 2   
4118 7   
4119 5   
4120 10  
4121 9   
4122 1   
4123 87  
4124 9   
4125 1   
4126 10  
4127 64  
4128 85  
4129 10  
4130 9   
4131 4   
4132 93  
4133 62  
4134 79  
4135 6   
4136 8   
4137 2   
4138 2   
4139 5   
4140 5   
4141 7   
4142 7   
4143 3   
4144 9   
4145 2   
4146 51  
4147 50  
4148 5   
4149 10  
4150 3   
4151 3   
4152 8   
4153 5   
4154 8   
4155 9   
4156 9   
4157 7   
4158 2   
4159 3   
4160 9   
4161 10  
4162 6   
4163 9   
4164 5   
4165 9   
4166 99  
4167 1   
4168 2   
4169 96  
4170 8   
4171 7   
4172 8   
4173 1   
4174 7   
4175 10  
4176 89  
4177 1   
4178 8   
4179 3   
4180 6   
4181 2   
4182 4   
4183 2   
4184 8   
4185 6   
4186 77  
4187 7   
4188 6   
4189 2   
4190 1   
4191 61  
4192 1   
4193 4   
4194 4   
4195 93  
4196 64  
4197 5   
4198 3   
4199 1   
4200 7   
4201 1   
4202 7   
4203 2   
4204 3   
4205 10  
4206 3   
4207 4   
4208 2   
4209 57  
4210 1   
4211 6   
4212 6   
4213 5   
4214 2   
4215 57  
4216 10  
4217 7   
4218 65  
4219 4   
4220 2   
4221 8   
4222 9   
4223 61  
4224 3   
4225 8   
4226 9   
4227 10  
4228 66  
4229 6   
4230 9   
4231 3   
4232 90  
4233 6   
4234 7   
4235 5   
4236 85  
4237 71  
4238 3   
4239 7   
4240 7   
4241 91  
4242 8   
4243 51  
4244 8   
4245 87  
4246 5   
4247 4   
4248 65  
4249 1   
4250 53  
4251 6   
4252 65  
4253 9   
4254 3   
4255 8   
4256 4   
4257 2   
4258 10  
4259 80  
4260 1   
4261 4   
4262 3   
4263 3   
4264 69  
4265 2   
4266 10  
4267 8   
4268 3   
4269 5   
4270 56  
4271 5   
4272 73  
4273 1   
4274 5   
4275 10  
4276 62  
4277 5   
4278 75  
4279 2   
4280 10  
4281 9   
4282 6   
4283 1   
4284 2   
4285 5   
4286 6   
4287 10  
4288 90  
4289 3   
4290 1   
4291 8   
4292 4   
4293 2   
4294 3   
4295 7   
4296 8   
4297 3   
4298 3   
4299 1   
4300 5   
4301 3   
4302 2   
4303 10  
4304 8   
4305 5   
4306 9   
4307 57  
4308 1   
4309 9   
4310 4   
4311 7   
4312 8   
4313 10  
4314 2   
4315 10  
4316 8   
4317 83  
4318 5   
4319 82  
4320 87  
4321 2   
4322 53  
4323 1   
4324 9   
4325 10  
4326 6   
4327 5   
4328 10  
4329 8   
4330 4   
4331 1   
4332 8   
4333 6   
4334 6   
4335 9   
4336 1   
4337 1   
4338 2   
4339 65  
4340 7   
4341 2   
4342 5   
4343 4   
4344 4   
4345 2   
4346 5   
4347 1   
4348 3   
4349 4   
4350 10  
4351 4   
4352 10  
4353 1   
4354 10  
4355 7   
4356 67  
4357 6   
4358 83  
4359 10  
4360 9   
4361 99  
4362 8   
4363 99  
4364 98  
4365 5   
4366 73  
4367 6   
4368 87  
4369 8   
4370 1   
4371 3   
4372 9   
4373 3   
4374 61  
4375 5   
4376 2   
4377 51  
4378 2   
4379 1   
4380 9   
4381 5   
4382 4   
4383 10  
4384 3   
4385 4   
4386 9   
4387 3   
4388 2   
4389 2   
4390 8   
4391 5   
4392 8   
4393 62  
4394 93  
4395 1   
4396 10  
4397 6   
4398 4   
4399 3   
4400 4   
4401 6   
4402 65  
4403 62  
4404 7   
4405 9   
4406 4   
4407 2   
4408 3   
4409 1   
4410 8   
4411 2   
4412 3   
4413 3   
4414 8   
4415 9   
4416 1   
4417 89  
4418 1   
4419 5   
4420 5   
4421 65  
4422 4   
4423 85  
4424 6   
4425 8   
4426 71  
4427 97  
4428 7   
4429 5   
4430 1   
4431 6   
4432 10  
4433 4   
4434 58  
4435 2   
4436 3   
4437 7   
4438 7   
4439 7   
4440 1   
4441 8   
4442 1   
4443 4   
4444 10  
4445 3   
4446 66  
4447 4   
4448 7   
4449 1   
4450 3   
4451 72  
4452 3   
4453 7   
4454 1   
4455 3   
4456 5   
4457 1   
4458 10  
4459 9   
4460 62  
4461 4   
4462 1   
4463 70  
4464 8   
4465 5   
4466 5   
4467 2   
4468 6   
4469 9   
4470 1   
4471 71  
4472 10  
4473 6   
4474 3   
4475 5   
4476 8   
4477 100 
4478 6   
4479 9   
4480 9   
4481 5   
4482 2   
4483 1   
4484 5   
4485 100 
4486 5   
4487 1   
4488 6   
4489 8   
4490 1   
4491 78  
4492 1   
4493 9   
4494 8   
4495 7   
4496 86  
4497 3   
4498 3   
4499 9   
4500 4   
4501 10  
4502 78  
4503 9   
4504 58  
4505 9   
4506 6   
4507 3   
4508 5   
4509 8   
4510 5   
4511 3   
4512 5   
4513 54  
4514 8   
4515 1   
4516 3   
4517 61  
4518 4   
4519 6   
4520 4   
4521 1   
4522 75  
4523 6   
4524 63  
4525 5   
4526 10  
4527 1   
4528 4   
4529 8   
4530 5   
4531 56  
4532 79  
4533 2   
4534 2   
4535 87  
4536 7   
4537 88  
4538 3   
4539 8   
4540 5   
4541 8   
4542 5   
4543 10  
4544 9   
4545 8   
4546 9   
4547 5   
4548 2   
4549 97  
4550 3   
4551 7   
4552 10  
4553 5   
4554 7   
4555 1   
4556 6   
4557 4   
4558 66  
4559 78  
4560 1   
4561 6   
4562 83  
4563 8   
4564 6   
4565 2   
4566 6   
4567 67  
4568 53  
4569 1   
4570 2   
4571 10  
4572 2   
4573 7   
4574 100 
4575 7   
4576 8   
4577 7   
4578 1   
4579 6   
4580 6   
4581 1   
4582 65  
4583 10  
4584 5   
4585 4   
4586 8   
4587 5   
4588 6   
4589 4   
4590 3   
4591 5   
4592 5   
4593 2   
4594 3   
4595 1   
4596 4   
4597 6   
4598 72  
4599 79  
4600 2   
4601 10  
4602 5   
4603 4   
4604 5   
4605 2   
4606 5   
4607 5   
4608 10  
4609 61  
4610 50  
4611 8   
4612 77  
4613 8   
4614 9   
4615 77  
4616 73  
4617 2   
4618 6   
4619 5   
4620 59  
4621 55  
4622 4   
4623 99  
4624 7   
4625 4   
4626 4   
4627 5   
4628 6   
4629 67  
4630 5   
4631 8   
4632 2   
4633 8   
4634 7   
4635 10  
4636 6   
4637 91  
4638 8   
4639 3   
4640 10  
4641 10  
4642 5   
4643 6   
4644 53  
4645 56  
4646 2   
4647 9   
4648 4   
4649 8   
4650 7   
4651 95  
4652 5   
4653 95  
4654 10  
4655 7   
4656 8   
4657 1   
4658 66  
4659 10  
4660 10  
4661 10  
4662 1   
4663 5   
4664 10  
4665 8   
4666 8   
4667 83  
4668 4   
4669 6   
4670 80  
4671 83  
4672 7   
4673 1   
4674 86  
4675 5   
4676 1   
4677 2   
4678 2   
4679 6   
4680 8   
4681 1   
4682 9   
4683 4   
4684 5   
4685 8   
4686 4   
4687 1   
4688 7   
4689 3   
4690 66  
4691 8   
4692 50  
4693 7   
4694 7   
4695 89  
4696 9   
4697 1   
4698 3   
4699 3   
4700 5   
4701 5   
4702 83  
4703 4   
4704 7   
4705 5   
4706 9   
4707 8   
4708 7   
4709 4   
4710 79  
4711 3   
4712 6   
4713 6   
4714 10  
4715 51  
4716 5   
4717 3   
4718 8   
4719 10  
4720 6   
4721 7   
4722 7   
4723 2   
4724 72  
4725 9   
4726 93  
4727 8   
4728 7   
4729 2   
4730 83  
4731 51  
4732 88  
4733 8   
4734 2   
4735 1   
4736 1   
4737 7   
4738 71  
4739 89  
4740 89  
4741 1   
4742 5   
4743 84  
4744 6   
4745 87  
4746 58  
4747 8   
4748 4   
4749 1   
4750 4   
4751 98  
4752 5   
4753 98  
4754 3   
4755 4   
4756 10  
4757 2   
4758 67  
4759 5   
4760 7   
4761 85  
4762 9   
4763 81  
4764 3   
4765 10  
4766 9   
4767 10  
4768 5   
4769 2   
4770 2   
4771 9   
4772 8   
4773 98  
4774 3   
4775 6   
4776 5   
4777 10  
4778 8   
4779 4   
4780 93  
4781 5   
4782 5   
4783 7   
4784 58  
4785 4   
4786 88  
4787 9   
4788 2   
4789 1   
4790 5   
4791 68  
4792 1   
4793 7   
4794 84  
4795 91  
4796 9   
4797 6   
4798 1   
4799 7   
4800 85  
4801 9   
4802 10  
4803 5   
4804 3   
4805 8   
4806 2   
4807 6   
4808 1   
4809 2   
4810 1   
4811 8   
4812 4   
4813 2   
4814 9   
4815 8   
4816 10  
4817 94  
4818 6   
4819 10  
4820 6   
4821 8   
4822 3   
4823 10  
4824 6   
4825 8   
4826 73  
4827 1   
4828 7   
4829 2   
4830 3   
4831 1   
4832 3   
4833 3   
4834 6   
4835 2   
4836 2   
4837 4   
4838 3   
4839 1   
4840 56  
4841 8   
4842 2   
4843 2   
4844 60  
4845 53  
4846 1   
4847 7   
4848 3   
4849 80  
4850 8   
4851 7   
4852 1   
4853 4   
4854 1   
4855 10  
4856 4   
4857 10  
4858 1   
4859 6   
4860 60  
4861 66  
4862 9   
4863 2   
4864 2   
4865 4   
4866 6   
4867 8   
4868 5   
4869 8   
4870 7   
4871 7   
4872 8   
4873 3   
4874 9   
4875 5   
4876 66  
4877 3   
4878 5   
4879 8   
4880 60  
4881 6   
4882 8   
4883 50  
4884 5   
4885 9   
4886 55  
4887 4   
4888 10  
4889 100 
4890 8   
4891 7   
4892 2   
4893 100 
4894 4   
4895 1   
4896 2   
4897 61  
4898 3   
4899 10  
4900 3   
4901 8   
4902 10  
4903 67  
4904 6   
4905 3   
4906 1   
4907 8   
4908 1   
4909 10  
4910 64  
4911 87  
4912 4   
4913 1   
4914 5   
4915 1   
4916 8   
4917 90  
4918 66  
4919 2   
4920 3   
4921 9   
4922 92  
4923 3   
4924 5   
4925 3   
4926 8   
4927 5   
4928 61  
4929 10  
4930 6   
4931 6   
4932 10  
4933 1   
4934 2   
4935 9   
4936 8   
4937 8   
4938 6   
4939 8   
4940 1   
4941 7   
4942 9   
4943 3   
4944 3   
4945 8   
4946 8   
4947 6   
4948 69  
4949 4   
4950 6   
4951 7   
4952 2   
4953 8   
4954 10  
4955 1   
4956 9   
4957 6   
4958 86  
4959 9   
4960 2   
4961 6   
4962 7   
4963 10  
4964 55  
4965 4   
4966 5   
4967 70  
4968 6   
4969 5   
4970 6   
4971 6   
4972 4   
4973 10  
4974 2   
4975 61  
4976 5   
4977 63  
4978 7   
4979 10  
4980 8   
4981 2   
4982 1   
4983 8   
4984 6   
4985 1   
4986 9   
4987 7   
4988 5   
4989 2   
4990 2   
4991 5   
4992 9   
4993 50  
4994 1   
4995 7   
4996 91  
4997 59  
4998 3   
4999 3   
5000 5   
5001 88  
DEPOT_SECTION
1
-1
EOF
