NAME : XML5000_1173_01
COMMENT : Generated as the XML100 dataset from the CVRPLIB
TYPE : CVRP
DIMENSION : 5001
EDGE_WEIGHT_TYPE : EUC_2D
CAPACITY : 149
NODE_COORD_SECTION
1    494  591 
2    945  530 
3    529  69  
4    818  471 
5    915  659 
6    491  363 
7    682  967 
8    240  894 
9    558  647 
10   723  430 
11   190  246 
12   131  782 
13   278  532 
14   189  81  
15   800  186 
16   892  107 
17   983  284 
18   695  648 
19   475  499 
20   221  885 
21   440  132 
22   205  113 
23   546  738 
24   945  247 
25   177  528 
26   1    191 
27   113  658 
28   936  782 
29   883  415 
30   293  297 
31   42   235 
32   61   861 
33   172  781 
34   635  184 
35   784  893 
36   514  394 
37   53   62  
38   518  685 
39   773  992 
40   794  170 
41   711  585 
42   970  939 
43   878  816 
44   699  174 
45   368  68  
46   187  536 
47   718  254 
48   573  713 
49   577  782 
50   188  681 
51   83   731 
52   498  763 
53   799  753 
54   998  350 
55   524  275 
56   624  917 
57   508  206 
58   987  235 
59   713  785 
60   368  270 
61   129  829 
62   19   535 
63   426  796 
64   776  719 
65   742  270 
66   226  209 
67   997  425 
68   84   247 
69   192  406 
70   784  741 
71   852  314 
72   705  244 
73   856  531 
74   415  196 
75   54   780 
76   35   96  
77   590  754 
78   384  312 
79   348  700 
80   114  826 
81   742  409 
82   227  82  
83   122  273 
84   710  246 
85   677  444 
86   774  420 
87   299  606 
88   231  411 
89   33   59  
90   808  436 
91   879  252 
92   364  453 
93   646  183 
94   975  722 
95   942  675 
96   49   528 
97   359  311 
98   50   884 
99   572  977 
100  609  857 
101  98   63  
102  978  472 
103  34   448 
104  14   858 
105  876  900 
106  880  570 
107  419  134 
108  26   710 
109  924  614 
110  281  169 
111  985  624 
112  491  744 
113  935  539 
114  274  581 
115  398  755 
116  580  653 
117  245  521 
118  907  58  
119  284  372 
120  486  599 
121  983  442 
122  326  428 
123  346  941 
124  552  102 
125  366  424 
126  168  676 
127  186  530 
128  81   133 
129  9    59  
130  890  219 
131  335  568 
132  800  794 
133  584  673 
134  363  610 
135  736  717 
136  2    970 
137  75   640 
138  645  441 
139  147  600 
140  206  346 
141  885  714 
142  617  529 
143  524  75  
144  617  447 
145  210  105 
146  301  521 
147  756  298 
148  449  93  
149  234  99  
150  969  774 
151  285  388 
152  342  693 
153  236  917 
154  277  975 
155  723  934 
156  799  517 
157  343  905 
158  159  524 
159  218  389 
160  329  75  
161  38   983 
162  369  492 
163  793  724 
164  741  156 
165  393  76  
166  601  252 
167  231  739 
168  677  740 
169  345  331 
170  308  694 
171  368  799 
172  773  876 
173  777  361 
174  744  724 
175  942  102 
176  407  745 
177  548  438 
178  531  342 
179  253  877 
180  863  835 
181  38   177 
182  239  430 
183  517  343 
184  352  2   
185  384  520 
186  43   781 
187  500  954 
188  561  712 
189  48   336 
190  897  867 
191  33   953 
192  213  992 
193  915  433 
194  202  115 
195  184  730 
196  934  896 
197  94   360 
198  723  482 
199  226  365 
200  893  345 
201  586  477 
202  368  588 
203  807  724 
204  917  14  
205  165  734 
206  261  618 
207  78   944 
208  902  744 
209  210  130 
210  887  426 
211  888  146 
212  544  591 
213  582  490 
214  873  450 
215  176  62  
216  416  871 
217  952  484 
218  329  394 
219  844  351 
220  475  106 
221  990  945 
222  258  524 
223  225  583 
224  634  135 
225  775  113 
226  985  937 
227  106  137 
228  623  278 
229  273  179 
230  275  230 
231  645  870 
232  206  164 
233  939  319 
234  299  668 
235  617  425 
236  981  968 
237  447  81  
238  340  554 
239  107  154 
240  677  948 
241  583  211 
242  197  276 
243  678  301 
244  516  152 
245  748  18  
246  295  907 
247  920  939 
248  371  148 
249  975  975 
250  996  254 
251  743  265 
252  356  29  
253  7    937 
254  653  993 
255  156  543 
256  321  418 
257  595  619 
258  569  388 
259  231  640 
260  770  328 
261  700  535 
262  495  255 
263  867  62  
264  901  333 
265  461  955 
266  686  332 
267  148  506 
268  999  549 
269  53   433 
270  505  225 
271  103  458 
272  587  431 
273  550  762 
274  684  584 
275  6    169 
276  561  166 
277  282  795 
278  28   752 
279  729  984 
280  16   605 
281  975  214 
282  129  431 
283  737  50  
284  366  300 
285  718  76  
286  57   749 
287  867  284 
288  408  354 
289  713  57  
290  363  486 
291  660  762 
292  457  416 
293  992  96  
294  612  777 
295  555  273 
296  938  561 
297  314  84  
298  618  230 
299  913  290 
300  198  867 
301  566  740 
302  199  5   
303  87   148 
304  384  767 
305  42   954 
306  573  195 
307  829  398 
308  81   848 
309  558  873 
310  246  639 
311  621  673 
312  340  346 
313  655  310 
314  362  843 
315  588  302 
316  589  440 
317  487  469 
318  992  793 
319  749  439 
320  990  622 
321  721  203 
322  540  649 
323  62   93  
324  120  964 
325  691  450 
326  893  727 
327  680  849 
328  807  342 
329  898  558 
330  38   529 
331  646  293 
332  282  728 
333  924  159 
334  407  958 
335  782  862 
336  661  253 
337  611  373 
338  719  385 
339  828  770 
340  722  509 
341  521  394 
342  684  792 
343  561  953 
344  393  580 
345  907  661 
346  230  781 
347  138  858 
348  67   381 
349  436  923 
350  808  68  
351  588  552 
352  979  816 
353  295  782 
354  259  441 
355  5    138 
356  225  505 
357  867  950 
358  775  512 
359  428  186 
360  374  721 
361  910  850 
362  765  298 
363  432  360 
364  491  791 
365  292  311 
366  534  233 
367  555  52  
368  495  967 
369  665  532 
370  867  189 
371  885  203 
372  262  492 
373  686  457 
374  80   537 
375  428  329 
376  963  795 
377  11   812 
378  692  816 
379  360  868 
380  380  946 
381  679  538 
382  370  559 
383  496  297 
384  336  611 
385  903  678 
386  173  826 
387  118  912 
388  776  331 
389  27   364 
390  153  51  
391  635  294 
392  412  623 
393  108  836 
394  507  868 
395  195  562 
396  565  228 
397  252  878 
398  220  493 
399  955  98  
400  686  246 
401  118  771 
402  799  486 
403  766  623 
404  235  670 
405  548  648 
406  915  720 
407  625  992 
408  935  557 
409  257  398 
410  93   650 
411  20   353 
412  348  329 
413  795  784 
414  617  363 
415  959  525 
416  265  94  
417  819  150 
418  106  858 
419  820  776 
420  88   599 
421  103  497 
422  503  617 
423  241  79  
424  276  954 
425  188  511 
426  480  672 
427  873  79  
428  393  815 
429  547  375 
430  785  107 
431  658  251 
432  767  144 
433  183  692 
434  96   75  
435  424  712 
436  349  172 
437  408  642 
438  495  646 
439  421  212 
440  943  549 
441  416  609 
442  456  654 
443  661  271 
444  437  431 
445  934  18  
446  257  22  
447  866  530 
448  615  742 
449  155  473 
450  389  460 
451  299  521 
452  301  752 
453  321  548 
454  910  91  
455  359  36  
456  472  67  
457  27   857 
458  110  463 
459  809  836 
460  331  719 
461  443  9   
462  427  294 
463  708  480 
464  619  557 
465  620  258 
466  417  662 
467  72   973 
468  109  440 
469  736  783 
470  826  119 
471  826  989 
472  59   652 
473  81   212 
474  27   461 
475  266  46  
476  231  304 
477  859  424 
478  71   662 
479  419  241 
480  165  898 
481  516  212 
482  172  495 
483  979  905 
484  728  82  
485  853  928 
486  621  430 
487  754  730 
488  591  902 
489  832  48  
490  962  684 
491  562  489 
492  157  462 
493  892  391 
494  30   313 
495  472  533 
496  641  385 
497  109  875 
498  400  625 
499  419  866 
500  477  711 
501  496  517 
502  663  101 
503  62   884 
504  542  404 
505  411  249 
506  17   543 
507  380  277 
508  414  555 
509  365  71  
510  717  359 
511  2    588 
512  807  639 
513  483  625 
514  248  21  
515  525  469 
516  637  517 
517  195  69  
518  286  774 
519  140  949 
520  658  237 
521  107  881 
522  350  739 
523  591  798 
524  960  536 
525  301  315 
526  619  765 
527  800  524 
528  948  915 
529  454  790 
530  364  349 
531  73   946 
532  368  467 
533  861  462 
534  184  342 
535  452  482 
536  741  648 
537  689  914 
538  338  320 
539  781  439 
540  621  749 
541  514  351 
542  17   458 
543  181  631 
544  18   622 
545  554  588 
546  642  702 
547  186  41  
548  564  752 
549  886  164 
550  166  702 
551  580  716 
552  635  945 
553  372  348 
554  249  852 
555  547  413 
556  323  112 
557  584  806 
558  359  171 
559  603  869 
560  926  421 
561  469  871 
562  341  651 
563  409  4   
564  543  420 
565  232  182 
566  144  669 
567  969  649 
568  434  593 
569  773  431 
570  369  150 
571  668  667 
572  321  43  
573  174  375 
574  545  574 
575  783  620 
576  454  777 
577  679  655 
578  596  223 
579  995  714 
580  79   318 
581  963  395 
582  726  933 
583  195  360 
584  468  925 
585  289  840 
586  911  797 
587  271  584 
588  913  835 
589  168  134 
590  153  246 
591  500  656 
592  194  583 
593  634  946 
594  321  885 
595  712  429 
596  490  580 
597  485  938 
598  983  368 
599  753  842 
600  788  469 
601  382  3   
602  718  18  
603  483  936 
604  744  94  
605  870  377 
606  726  210 
607  230  87  
608  875  315 
609  929  956 
610  544  817 
611  896  521 
612  299  794 
613  933  924 
614  626  981 
615  681  6   
616  440  298 
617  918  341 
618  497  783 
619  4    509 
620  337  275 
621  284  80  
622  838  523 
623  195  535 
624  638  884 
625  640  115 
626  454  469 
627  592  860 
628  366  998 
629  551  434 
630  115  162 
631  849  67  
632  294  610 
633  868  310 
634  501  299 
635  781  798 
636  62   670 
637  892  428 
638  233  678 
639  986  108 
640  516  487 
641  976  74  
642  61   616 
643  922  577 
644  689  416 
645  377  486 
646  394  12  
647  72   446 
648  73   48  
649  572  385 
650  663  481 
651  386  335 
652  723  535 
653  406  449 
654  153  565 
655  722  757 
656  962  4   
657  121  855 
658  857  362 
659  514  115 
660  58   311 
661  259  791 
662  496  190 
663  941  731 
664  265  138 
665  301  294 
666  998  67  
667  401  141 
668  476  711 
669  898  654 
670  648  581 
671  495  207 
672  974  232 
673  719  943 
674  863  676 
675  135  931 
676  155  631 
677  710  29  
678  233  687 
679  882  4   
680  845  837 
681  313  263 
682  795  647 
683  262  696 
684  160  323 
685  913  123 
686  469  882 
687  751  367 
688  217  278 
689  74   393 
690  20   506 
691  847  534 
692  439  94  
693  169  411 
694  956  831 
695  172  315 
696  920  211 
697  484  178 
698  966  798 
699  142  454 
700  555  449 
701  974  655 
702  792  951 
703  702  69  
704  371  736 
705  295  74  
706  45   84  
707  652  439 
708  466  756 
709  654  349 
710  33   628 
711  216  276 
712  583  137 
713  473  304 
714  179  895 
715  329  174 
716  644  787 
717  442  407 
718  741  785 
719  498  280 
720  225  891 
721  318  631 
722  190  776 
723  139  790 
724  728  932 
725  212  253 
726  138  473 
727  800  647 
728  621  721 
729  65   974 
730  864  542 
731  811  121 
732  334  855 
733  243  587 
734  61   634 
735  376  947 
736  838  850 
737  748  724 
738  178  268 
739  162  50  
740  986  602 
741  628  895 
742  702  680 
743  80   737 
744  391  671 
745  322  674 
746  201  819 
747  400  685 
748  236  937 
749  735  383 
750  224  418 
751  729  728 
752  252  60  
753  397  943 
754  881  660 
755  609  613 
756  439  885 
757  116  230 
758  248  684 
759  246  459 
760  523  309 
761  655  677 
762  269  843 
763  676  832 
764  199  963 
765  471  830 
766  143  667 
767  224  218 
768  973  664 
769  336  329 
770  761  37  
771  195  572 
772  868  434 
773  85   706 
774  657  290 
775  394  911 
776  714  469 
777  566  809 
778  948  807 
779  75   315 
780  556  714 
781  3    775 
782  431  923 
783  361  941 
784  931  537 
785  290  914 
786  457  981 
787  973  431 
788  593  331 
789  612  676 
790  576  269 
791  29   577 
792  375  782 
793  673  808 
794  51   748 
795  161  679 
796  733  676 
797  2    795 
798  919  807 
799  370  449 
800  147  884 
801  25   170 
802  118  153 
803  615  814 
804  11   75  
805  528  362 
806  981  21  
807  486  299 
808  399  95  
809  403  408 
810  77   785 
811  649  400 
812  405  831 
813  902  834 
814  409  692 
815  618  442 
816  391  892 
817  263  764 
818  837  791 
819  713  454 
820  22   834 
821  331  868 
822  478  128 
823  43   798 
824  928  755 
825  1000 896 
826  88   250 
827  486  192 
828  659  389 
829  474  520 
830  861  961 
831  241  771 
832  720  373 
833  918  264 
834  473  512 
835  424  220 
836  316  941 
837  721  633 
838  199  147 
839  871  247 
840  191  906 
841  306  557 
842  35   418 
843  405  284 
844  78   498 
845  542  93  
846  856  313 
847  892  2   
848  728  953 
849  691  376 
850  145  695 
851  77   255 
852  298  764 
853  355  335 
854  468  54  
855  983  298 
856  838  221 
857  988  234 
858  129  782 
859  944  827 
860  407  494 
861  689  342 
862  950  415 
863  381  869 
864  117  527 
865  995  652 
866  248  263 
867  176  612 
868  46   190 
869  781  57  
870  909  68  
871  213  599 
872  596  595 
873  685  104 
874  794  369 
875  101  353 
876  887  539 
877  194  206 
878  175  80  
879  545  811 
880  251  604 
881  379  988 
882  438  738 
883  76   545 
884  574  885 
885  722  901 
886  597  674 
887  157  757 
888  358  94  
889  413  619 
890  620  722 
891  322  960 
892  288  848 
893  696  280 
894  913  675 
895  271  231 
896  359  292 
897  241  58  
898  682  218 
899  757  428 
900  972  619 
901  934  365 
902  974  489 
903  232  569 
904  214  290 
905  787  560 
906  76   263 
907  371  142 
908  278  165 
909  504  707 
910  545  742 
911  638  645 
912  417  330 
913  515  519 
914  718  759 
915  989  805 
916  719  346 
917  131  965 
918  264  792 
919  764  235 
920  857  447 
921  674  223 
922  572  451 
923  493  59  
924  793  845 
925  60   303 
926  242  816 
927  833  422 
928  651  757 
929  160  515 
930  341  306 
931  160  381 
932  911  762 
933  586  585 
934  662  121 
935  628  204 
936  424  34  
937  116  35  
938  957  563 
939  870  683 
940  320  985 
941  122  118 
942  66   190 
943  268  934 
944  608  971 
945  424  380 
946  689  635 
947  870  79  
948  543  191 
949  851  161 
950  176  492 
951  800  578 
952  617  659 
953  470  601 
954  236  129 
955  697  369 
956  308  835 
957  662  790 
958  588  571 
959  223  883 
960  918  396 
961  885  87  
962  480  248 
963  290  179 
964  761  89  
965  797  107 
966  780  485 
967  193  517 
968  802  685 
969  766  714 
970  305  963 
971  659  707 
972  675  220 
973  768  810 
974  843  56  
975  564  861 
976  275  714 
977  777  199 
978  633  23  
979  686  444 
980  317  262 
981  299  263 
982  230  391 
983  490  647 
984  624  382 
985  971  706 
986  826  195 
987  183  680 
988  458  428 
989  555  828 
990  900  336 
991  831  667 
992  280  227 
993  192  592 
994  833  296 
995  501  927 
996  708  163 
997  212  72  
998  599  257 
999  928  543 
1000 760  142 
1001 786  158 
1002 616  72  
1003 623  399 
1004 736  578 
1005 510  230 
1006 968  379 
1007 398  232 
1008 424  184 
1009 995  675 
1010 119  369 
1011 834  178 
1012 727  118 
1013 874  13  
1014 161  580 
1015 932  208 
1016 237  699 
1017 346  31  
1018 958  371 
1019 6    347 
1020 851  279 
1021 78   899 
1022 819  821 
1023 548  746 
1024 787  434 
1025 381  551 
1026 143  22  
1027 239  599 
1028 662  461 
1029 805  831 
1030 976  964 
1031 170  80  
1032 722  216 
1033 272  139 
1034 372  862 
1035 840  478 
1036 677  980 
1037 567  789 
1038 142  271 
1039 896  133 
1040 823  890 
1041 73   516 
1042 571  350 
1043 75   687 
1044 515  787 
1045 901  87  
1046 572  320 
1047 353  833 
1048 264  559 
1049 573  879 
1050 870  307 
1051 526  892 
1052 385  384 
1053 583  192 
1054 452  582 
1055 987  398 
1056 681  72  
1057 534  634 
1058 534  49  
1059 496  642 
1060 590  729 
1061 865  880 
1062 977  514 
1063 301  359 
1064 674  546 
1065 839  412 
1066 897  414 
1067 348  774 
1068 916  987 
1069 41   487 
1070 520  985 
1071 207  534 
1072 85   768 
1073 67   950 
1074 411  686 
1075 981  59  
1076 17   555 
1077 894  919 
1078 92   982 
1079 434  142 
1080 308  651 
1081 165  14  
1082 774  697 
1083 632  173 
1084 633  33  
1085 886  519 
1086 616  508 
1087 190  595 
1088 486  15  
1089 144  690 
1090 568  948 
1091 899  546 
1092 292  391 
1093 330  491 
1094 978  610 
1095 82   709 
1096 486  853 
1097 603  493 
1098 857  172 
1099 566  580 
1100 469  932 
1101 881  707 
1102 697  974 
1103 169  146 
1104 4    418 
1105 79   293 
1106 651  364 
1107 870  559 
1108 686  680 
1109 854  286 
1110 287  872 
1111 435  115 
1112 308  739 
1113 573  628 
1114 987  690 
1115 974  50  
1116 668  598 
1117 5    333 
1118 575  826 
1119 959  524 
1120 775  402 
1121 982  359 
1122 582  471 
1123 766  767 
1124 217  303 
1125 0    425 
1126 404  910 
1127 663  626 
1128 264  590 
1129 245  879 
1130 469  86  
1131 881  619 
1132 570  118 
1133 74   550 
1134 369  226 
1135 353  168 
1136 408  376 
1137 541  226 
1138 317  760 
1139 299  846 
1140 981  294 
1141 212  101 
1142 433  336 
1143 966  58  
1144 319  756 
1145 469  941 
1146 599  300 
1147 71   809 
1148 371  115 
1149 78   432 
1150 528  862 
1151 781  388 
1152 265  245 
1153 125  416 
1154 677  371 
1155 144  28  
1156 0    870 
1157 515  63  
1158 129  83  
1159 847  903 
1160 918  424 
1161 559  430 
1162 858  530 
1163 14   444 
1164 252  927 
1165 695  229 
1166 755  902 
1167 701  222 
1168 24   38  
1169 250  168 
1170 124  930 
1171 105  528 
1172 144  885 
1173 624  410 
1174 202  55  
1175 789  977 
1176 521  595 
1177 497  430 
1178 23   39  
1179 188  102 
1180 355  645 
1181 154  879 
1182 335  667 
1183 47   886 
1184 80   338 
1185 810  771 
1186 920  725 
1187 107  126 
1188 513  919 
1189 641  218 
1190 184  645 
1191 629  840 
1192 478  491 
1193 371  687 
1194 136  467 
1195 446  191 
1196 50   210 
1197 527  612 
1198 414  452 
1199 396  631 
1200 568  54  
1201 930  248 
1202 87   742 
1203 627  414 
1204 987  863 
1205 611  504 
1206 678  15  
1207 868  489 
1208 463  919 
1209 423  736 
1210 194  626 
1211 782  420 
1212 177  352 
1213 893  511 
1214 947  401 
1215 865  613 
1216 40   339 
1217 607  918 
1218 828  961 
1219 896  964 
1220 460  619 
1221 43   974 
1222 261  448 
1223 46   457 
1224 840  805 
1225 713  391 
1226 841  602 
1227 769  405 
1228 163  111 
1229 402  662 
1230 471  574 
1231 938  49  
1232 131  717 
1233 558  100 
1234 577  525 
1235 618  179 
1236 504  645 
1237 324  58  
1238 549  20  
1239 179  729 
1240 289  435 
1241 950  904 
1242 660  105 
1243 732  276 
1244 684  151 
1245 79   304 
1246 850  683 
1247 388  417 
1248 266  255 
1249 856  190 
1250 178  845 
1251 763  608 
1252 716  891 
1253 863  691 
1254 133  56  
1255 705  100 
1256 227  488 
1257 652  242 
1258 116  811 
1259 1000 552 
1260 13   157 
1261 88   98  
1262 512  362 
1263 549  374 
1264 69   64  
1265 551  86  
1266 37   23  
1267 240  109 
1268 773  232 
1269 539  694 
1270 5    126 
1271 133  73  
1272 351  843 
1273 445  871 
1274 134  999 
1275 559  246 
1276 851  114 
1277 927  457 
1278 51   464 
1279 232  738 
1280 321  748 
1281 789  296 
1282 404  778 
1283 761  763 
1284 172  478 
1285 84   392 
1286 28   858 
1287 33   608 
1288 674  37  
1289 804  897 
1290 842  418 
1291 400  12  
1292 534  468 
1293 993  822 
1294 848  650 
1295 441  625 
1296 462  435 
1297 429  708 
1298 708  772 
1299 48   744 
1300 104  587 
1301 11   508 
1302 399  125 
1303 219  369 
1304 788  156 
1305 791  161 
1306 632  534 
1307 979  65  
1308 375  519 
1309 47   90  
1310 964  573 
1311 231  547 
1312 532  153 
1313 201  193 
1314 257  748 
1315 238  261 
1316 477  841 
1317 367  542 
1318 978  942 
1319 903  877 
1320 890  956 
1321 941  795 
1322 689  319 
1323 338  90  
1324 485  212 
1325 547  274 
1326 526  955 
1327 934  881 
1328 609  736 
1329 42   675 
1330 77   597 
1331 331  396 
1332 937  472 
1333 375  766 
1334 212  791 
1335 945  742 
1336 447  104 
1337 283  916 
1338 548  581 
1339 201  1000
1340 680  971 
1341 437  386 
1342 145  320 
1343 665  794 
1344 332  357 
1345 405  612 
1346 225  872 
1347 579  105 
1348 528  954 
1349 139  430 
1350 543  706 
1351 267  184 
1352 152  963 
1353 513  160 
1354 34   846 
1355 927  547 
1356 891  549 
1357 145  804 
1358 784  921 
1359 849  837 
1360 558  746 
1361 170  804 
1362 246  685 
1363 577  825 
1364 353  601 
1365 194  8   
1366 466  984 
1367 799  339 
1368 231  600 
1369 178  283 
1370 490  25  
1371 551  68  
1372 237  102 
1373 899  178 
1374 864  262 
1375 519  592 
1376 518  984 
1377 315  94  
1378 560  84  
1379 631  865 
1380 542  281 
1381 175  143 
1382 140  278 
1383 966  142 
1384 472  777 
1385 397  758 
1386 677  574 
1387 715  977 
1388 111  696 
1389 898  211 
1390 754  620 
1391 494  414 
1392 189  713 
1393 445  575 
1394 852  225 
1395 856  687 
1396 801  677 
1397 200  29  
1398 553  830 
1399 790  742 
1400 976  622 
1401 558  642 
1402 408  533 
1403 170  924 
1404 279  274 
1405 559  474 
1406 448  417 
1407 781  108 
1408 675  761 
1409 622  208 
1410 270  752 
1411 114  411 
1412 723  686 
1413 776  905 
1414 335  235 
1415 796  162 
1416 634  965 
1417 764  33  
1418 946  371 
1419 12   587 
1420 925  23  
1421 551  125 
1422 311  423 
1423 41   71  
1424 991  924 
1425 315  87  
1426 831  262 
1427 101  991 
1428 577  53  
1429 738  314 
1430 980  355 
1431 302  158 
1432 433  842 
1433 359  411 
1434 142  914 
1435 489  854 
1436 127  730 
1437 682  562 
1438 510  214 
1439 148  768 
1440 41   285 
1441 149  996 
1442 188  590 
1443 777  401 
1444 282  202 
1445 362  284 
1446 714  201 
1447 56   777 
1448 57   48  
1449 383  486 
1450 131  300 
1451 80   452 
1452 100  114 
1453 579  938 
1454 599  439 
1455 673  305 
1456 52   253 
1457 751  262 
1458 240  719 
1459 403  397 
1460 996  511 
1461 886  330 
1462 134  816 
1463 300  438 
1464 301  907 
1465 892  530 
1466 858  504 
1467 605  551 
1468 714  427 
1469 698  564 
1470 272  202 
1471 991  901 
1472 5    557 
1473 501  936 
1474 374  452 
1475 376  547 
1476 565  170 
1477 514  940 
1478 358  599 
1479 783  905 
1480 148  783 
1481 829  826 
1482 320  475 
1483 581  479 
1484 249  491 
1485 910  549 
1486 748  64  
1487 967  588 
1488 306  568 
1489 327  248 
1490 257  913 
1491 254  663 
1492 8    40  
1493 209  278 
1494 321  935 
1495 589  480 
1496 532  944 
1497 535  676 
1498 809  365 
1499 441  144 
1500 370  342 
1501 756  620 
1502 280  18  
1503 23   746 
1504 136  332 
1505 651  712 
1506 690  472 
1507 49   416 
1508 85   705 
1509 176  862 
1510 450  628 
1511 141  859 
1512 74   440 
1513 131  51  
1514 150  747 
1515 667  968 
1516 227  849 
1517 121  873 
1518 176  370 
1519 213  979 
1520 343  772 
1521 469  14  
1522 880  517 
1523 753  710 
1524 535  394 
1525 497  743 
1526 422  747 
1527 934  925 
1528 868  783 
1529 900  200 
1530 537  484 
1531 155  275 
1532 830  9   
1533 263  473 
1534 447  140 
1535 247  137 
1536 267  538 
1537 605  791 
1538 824  429 
1539 164  950 
1540 199  42  
1541 53   939 
1542 57   66  
1543 590  212 
1544 646  721 
1545 791  109 
1546 827  127 
1547 371  500 
1548 266  584 
1549 232  483 
1550 728  382 
1551 359  789 
1552 12   84  
1553 72   951 
1554 767  114 
1555 288  724 
1556 753  925 
1557 165  690 
1558 352  594 
1559 224  775 
1560 497  20  
1561 246  649 
1562 374  423 
1563 909  766 
1564 417  605 
1565 438  318 
1566 187  640 
1567 928  756 
1568 839  301 
1569 41   670 
1570 903  735 
1571 425  676 
1572 305  846 
1573 583  375 
1574 125  496 
1575 931  37  
1576 179  853 
1577 1    629 
1578 468  270 
1579 555  753 
1580 97   569 
1581 793  4   
1582 578  818 
1583 832  121 
1584 315  149 
1585 463  990 
1586 779  489 
1587 243  432 
1588 727  407 
1589 729  44  
1590 216  548 
1591 466  804 
1592 107  471 
1593 859  202 
1594 378  393 
1595 147  387 
1596 57   623 
1597 295  764 
1598 774  300 
1599 424  422 
1600 878  24  
1601 385  266 
1602 49   527 
1603 854  451 
1604 784  582 
1605 711  462 
1606 563  872 
1607 267  753 
1608 693  404 
1609 697  388 
1610 430  817 
1611 384  409 
1612 123  762 
1613 385  443 
1614 557  656 
1615 851  37  
1616 338  922 
1617 263  446 
1618 927  408 
1619 51   844 
1620 966  237 
1621 111  741 
1622 934  506 
1623 936  400 
1624 919  626 
1625 609  107 
1626 353  226 
1627 815  333 
1628 637  882 
1629 690  300 
1630 999  672 
1631 654  318 
1632 599  959 
1633 356  105 
1634 215  267 
1635 914  475 
1636 327  664 
1637 916  395 
1638 258  87  
1639 426  981 
1640 78   943 
1641 852  966 
1642 500  851 
1643 999  561 
1644 620  247 
1645 748  316 
1646 397  501 
1647 182  885 
1648 508  358 
1649 718  540 
1650 664  798 
1651 458  552 
1652 519  480 
1653 437  281 
1654 775  449 
1655 393  776 
1656 798  866 
1657 639  848 
1658 378  259 
1659 51   78  
1660 605  523 
1661 395  374 
1662 105  246 
1663 93   471 
1664 809  465 
1665 333  617 
1666 100  641 
1667 871  151 
1668 32   508 
1669 840  868 
1670 52   442 
1671 884  629 
1672 811  191 
1673 314  509 
1674 119  823 
1675 706  545 
1676 946  922 
1677 891  48  
1678 67   223 
1679 565  836 
1680 413  908 
1681 436  595 
1682 769  156 
1683 308  837 
1684 718  169 
1685 720  243 
1686 631  633 
1687 651  871 
1688 356  231 
1689 910  895 
1690 712  525 
1691 251  462 
1692 70   203 
1693 753  381 
1694 201  8   
1695 493  495 
1696 384  45  
1697 789  765 
1698 862  226 
1699 702  310 
1700 223  337 
1701 382  564 
1702 62   81  
1703 462  282 
1704 535  797 
1705 157  312 
1706 341  587 
1707 195  125 
1708 161  352 
1709 252  295 
1710 951  568 
1711 845  672 
1712 682  649 
1713 536  713 
1714 612  7   
1715 902  114 
1716 705  214 
1717 495  470 
1718 121  466 
1719 72   757 
1720 180  382 
1721 126  392 
1722 370  403 
1723 596  755 
1724 466  309 
1725 985  585 
1726 948  749 
1727 326  201 
1728 626  877 
1729 3    589 
1730 477  83  
1731 116  194 
1732 575  782 
1733 501  695 
1734 977  266 
1735 709  973 
1736 925  640 
1737 656  156 
1738 305  575 
1739 750  442 
1740 143  8   
1741 715  699 
1742 862  229 
1743 863  802 
1744 991  387 
1745 742  229 
1746 392  623 
1747 284  517 
1748 892  159 
1749 107  331 
1750 931  310 
1751 198  221 
1752 236  621 
1753 863  947 
1754 498  927 
1755 918  528 
1756 480  455 
1757 373  542 
1758 464  129 
1759 778  821 
1760 263  880 
1761 601  494 
1762 178  105 
1763 144  724 
1764 624  462 
1765 164  543 
1766 949  369 
1767 458  867 
1768 790  352 
1769 20   689 
1770 24   308 
1771 259  248 
1772 128  424 
1773 399  558 
1774 110  585 
1775 62   719 
1776 319  553 
1777 875  136 
1778 503  843 
1779 587  898 
1780 414  489 
1781 751  127 
1782 510  374 
1783 956  642 
1784 830  362 
1785 447  355 
1786 948  667 
1787 0    476 
1788 91   832 
1789 272  140 
1790 787  872 
1791 495  952 
1792 811  75  
1793 187  507 
1794 5    747 
1795 280  124 
1796 663  432 
1797 463  414 
1798 403  444 
1799 375  8   
1800 88   762 
1801 35   981 
1802 273  163 
1803 718  815 
1804 147  963 
1805 879  477 
1806 60   608 
1807 42   23  
1808 170  480 
1809 129  422 
1810 389  439 
1811 337  315 
1812 902  108 
1813 173  394 
1814 672  988 
1815 321  703 
1816 765  454 
1817 288  123 
1818 51   287 
1819 545  212 
1820 818  266 
1821 57   946 
1822 921  901 
1823 260  590 
1824 565  863 
1825 782  719 
1826 604  398 
1827 729  782 
1828 712  872 
1829 92   365 
1830 551  363 
1831 700  551 
1832 554  598 
1833 699  553 
1834 574  216 
1835 297  12  
1836 131  827 
1837 653  727 
1838 68   83  
1839 948  866 
1840 607  16  
1841 510  925 
1842 903  478 
1843 906  468 
1844 48   564 
1845 234  502 
1846 549  919 
1847 932  446 
1848 785  782 
1849 677  162 
1850 385  408 
1851 385  835 
1852 207  311 
1853 373  406 
1854 962  95  
1855 123  473 
1856 747  361 
1857 696  570 
1858 570  223 
1859 474  40  
1860 71   819 
1861 609  392 
1862 459  436 
1863 491  567 
1864 537  608 
1865 547  174 
1866 655  401 
1867 452  170 
1868 199  576 
1869 562  125 
1870 833  941 
1871 761  568 
1872 153  339 
1873 707  491 
1874 376  463 
1875 963  885 
1876 689  385 
1877 752  149 
1878 491  443 
1879 236  126 
1880 440  673 
1881 331  274 
1882 495  389 
1883 611  529 
1884 208  333 
1885 596  817 
1886 173  54  
1887 31   605 
1888 622  464 
1889 841  20  
1890 142  624 
1891 217  996 
1892 589  313 
1893 952  934 
1894 613  153 
1895 370  923 
1896 350  840 
1897 973  816 
1898 741  563 
1899 260  941 
1900 997  84  
1901 599  992 
1902 908  446 
1903 231  138 
1904 654  686 
1905 345  802 
1906 932  961 
1907 44   180 
1908 154  916 
1909 10   356 
1910 730  992 
1911 31   883 
1912 344  400 
1913 382  342 
1914 972  869 
1915 271  481 
1916 167  702 
1917 81   268 
1918 830  741 
1919 523  824 
1920 669  718 
1921 581  892 
1922 264  369 
1923 905  818 
1924 525  532 
1925 325  936 
1926 959  564 
1927 364  757 
1928 931  782 
1929 773  688 
1930 758  406 
1931 849  188 
1932 903  460 
1933 704  148 
1934 727  648 
1935 1000 586 
1936 215  468 
1937 786  880 
1938 513  552 
1939 641  168 
1940 54   135 
1941 364  772 
1942 681  740 
1943 52   615 
1944 699  427 
1945 269  540 
1946 243  330 
1947 481  491 
1948 526  395 
1949 159  253 
1950 345  81  
1951 880  191 
1952 72   354 
1953 609  410 
1954 55   444 
1955 935  411 
1956 476  765 
1957 716  64  
1958 778  466 
1959 653  625 
1960 156  911 
1961 12   465 
1962 414  926 
1963 933  193 
1964 165  738 
1965 242  756 
1966 459  717 
1967 705  575 
1968 44   501 
1969 118  642 
1970 445  423 
1971 619  107 
1972 987  719 
1973 109  431 
1974 787  900 
1975 992  754 
1976 257  271 
1977 500  393 
1978 669  13  
1979 852  275 
1980 615  560 
1981 526  483 
1982 303  371 
1983 484  152 
1984 585  184 
1985 749  298 
1986 268  311 
1987 474  402 
1988 864  790 
1989 629  372 
1990 922  788 
1991 336  586 
1992 245  694 
1993 377  837 
1994 508  117 
1995 787  610 
1996 883  761 
1997 862  575 
1998 60   846 
1999 757  613 
2000 591  905 
2001 704  393 
2002 922  368 
2003 671  512 
2004 837  958 
2005 839  387 
2006 897  54  
2007 532  918 
2008 294  363 
2009 594  527 
2010 562  548 
2011 248  175 
2012 302  283 
2013 303  395 
2014 747  55  
2015 470  424 
2016 807  412 
2017 294  655 
2018 192  540 
2019 585  161 
2020 289  620 
2021 614  218 
2022 215  604 
2023 200  342 
2024 822  845 
2025 865  827 
2026 77   453 
2027 853  261 
2028 925  920 
2029 47   434 
2030 550  154 
2031 60   837 
2032 520  878 
2033 97   181 
2034 206  10  
2035 406  738 
2036 45   813 
2037 10   708 
2038 709  326 
2039 543  708 
2040 489  502 
2041 788  352 
2042 806  67  
2043 628  682 
2044 735  758 
2045 811  577 
2046 37   473 
2047 163  648 
2048 834  943 
2049 928  867 
2050 527  368 
2051 765  154 
2052 729  553 
2053 658  535 
2054 590  618 
2055 827  705 
2056 203  804 
2057 845  802 
2058 644  444 
2059 500  84  
2060 172  729 
2061 7    205 
2062 641  179 
2063 164  729 
2064 804  140 
2065 71   895 
2066 752  0   
2067 41   229 
2068 663  347 
2069 974  297 
2070 461  170 
2071 46   150 
2072 945  741 
2073 582  265 
2074 785  553 
2075 346  481 
2076 917  545 
2077 130  437 
2078 538  995 
2079 370  100 
2080 95   112 
2081 260  528 
2082 499  718 
2083 139  417 
2084 375  213 
2085 892  859 
2086 269  147 
2087 659  320 
2088 915  759 
2089 73   165 
2090 842  573 
2091 475  60  
2092 529  556 
2093 86   349 
2094 843  441 
2095 600  711 
2096 525  568 
2097 231  908 
2098 584  854 
2099 203  221 
2100 168  286 
2101 261  314 
2102 498  915 
2103 653  894 
2104 374  956 
2105 503  166 
2106 468  132 
2107 876  9   
2108 855  390 
2109 998  315 
2110 256  539 
2111 683  273 
2112 684  852 
2113 205  887 
2114 557  376 
2115 759  554 
2116 261  331 
2117 872  342 
2118 349  829 
2119 410  502 
2120 585  60  
2121 859  653 
2122 716  735 
2123 716  100 
2124 240  181 
2125 19   300 
2126 186  81  
2127 331  533 
2128 390  431 
2129 247  487 
2130 174  61  
2131 337  878 
2132 319  287 
2133 840  206 
2134 416  155 
2135 9    838 
2136 364  475 
2137 202  266 
2138 38   459 
2139 811  959 
2140 827  472 
2141 993  13  
2142 810  368 
2143 137  668 
2144 947  578 
2145 486  66  
2146 807  982 
2147 934  785 
2148 816  619 
2149 653  887 
2150 306  431 
2151 57   889 
2152 919  617 
2153 922  293 
2154 9    299 
2155 156  398 
2156 339  918 
2157 108  348 
2158 833  153 
2159 836  549 
2160 546  456 
2161 728  369 
2162 468  353 
2163 416  146 
2164 589  486 
2165 993  6   
2166 994  396 
2167 225  124 
2168 298  90  
2169 461  446 
2170 797  761 
2171 869  257 
2172 261  411 
2173 759  794 
2174 929  417 
2175 970  357 
2176 790  919 
2177 717  845 
2178 94   480 
2179 276  56  
2180 97   442 
2181 187  629 
2182 888  998 
2183 64   248 
2184 407  904 
2185 979  401 
2186 992  271 
2187 955  824 
2188 434  38  
2189 215  608 
2190 471  431 
2191 470  882 
2192 737  711 
2193 662  203 
2194 720  820 
2195 899  637 
2196 42   669 
2197 259  730 
2198 704  802 
2199 63   554 
2200 242  552 
2201 466  343 
2202 504  681 
2203 144  522 
2204 436  632 
2205 661  316 
2206 702  887 
2207 335  75  
2208 232  808 
2209 503  111 
2210 175  809 
2211 52   197 
2212 179  0   
2213 364  124 
2214 950  799 
2215 111  943 
2216 439  57  
2217 738  346 
2218 903  963 
2219 975  726 
2220 117  143 
2221 351  774 
2222 151  357 
2223 283  494 
2224 981  832 
2225 134  808 
2226 840  438 
2227 270  626 
2228 588  358 
2229 883  901 
2230 554  696 
2231 131  50  
2232 993  563 
2233 226  675 
2234 863  251 
2235 373  560 
2236 444  27  
2237 688  921 
2238 155  357 
2239 709  92  
2240 88   640 
2241 782  887 
2242 748  41  
2243 177  123 
2244 444  909 
2245 59   558 
2246 650  522 
2247 974  261 
2248 885  886 
2249 120  123 
2250 798  87  
2251 249  601 
2252 986  479 
2253 35   872 
2254 254  202 
2255 843  468 
2256 418  982 
2257 534  573 
2258 39   113 
2259 534  392 
2260 116  306 
2261 609  636 
2262 596  4   
2263 115  128 
2264 445  101 
2265 613  92  
2266 818  10  
2267 393  71  
2268 212  336 
2269 431  844 
2270 162  550 
2271 475  414 
2272 109  493 
2273 219  571 
2274 254  384 
2275 588  270 
2276 40   406 
2277 850  529 
2278 156  162 
2279 302  321 
2280 88   536 
2281 177  694 
2282 378  939 
2283 783  434 
2284 30   671 
2285 750  725 
2286 716  426 
2287 989  527 
2288 168  847 
2289 868  672 
2290 885  718 
2291 795  64  
2292 389  804 
2293 318  780 
2294 266  939 
2295 981  373 
2296 468  739 
2297 815  13  
2298 487  806 
2299 829  843 
2300 314  959 
2301 224  614 
2302 539  528 
2303 279  192 
2304 673  764 
2305 670  478 
2306 156  525 
2307 85   102 
2308 806  944 
2309 971  518 
2310 493  769 
2311 979  253 
2312 870  43  
2313 47   611 
2314 501  278 
2315 64   404 
2316 123  268 
2317 857  729 
2318 507  102 
2319 512  888 
2320 691  378 
2321 851  688 
2322 274  189 
2323 735  13  
2324 718  929 
2325 518  472 
2326 685  307 
2327 558  195 
2328 649  415 
2329 725  748 
2330 781  650 
2331 636  25  
2332 653  778 
2333 123  765 
2334 550  402 
2335 755  531 
2336 555  414 
2337 884  354 
2338 336  899 
2339 776  171 
2340 335  895 
2341 301  518 
2342 505  45  
2343 857  768 
2344 502  275 
2345 487  197 
2346 768  426 
2347 361  925 
2348 236  912 
2349 731  676 
2350 936  998 
2351 789  785 
2352 349  228 
2353 421  727 
2354 80   274 
2355 3    561 
2356 738  590 
2357 724  909 
2358 392  345 
2359 84   119 
2360 409  874 
2361 103  320 
2362 585  449 
2363 395  395 
2364 986  794 
2365 669  870 
2366 931  662 
2367 791  98  
2368 975  875 
2369 69   571 
2370 512  676 
2371 86   395 
2372 931  871 
2373 364  668 
2374 898  465 
2375 438  414 
2376 810  351 
2377 647  757 
2378 431  382 
2379 931  267 
2380 329  279 
2381 471  521 
2382 937  413 
2383 832  799 
2384 120  620 
2385 816  526 
2386 230  26  
2387 565  722 
2388 896  508 
2389 144  369 
2390 996  677 
2391 596  162 
2392 891  51  
2393 393  444 
2394 322  823 
2395 179  495 
2396 513  424 
2397 418  428 
2398 862  421 
2399 628  627 
2400 962  740 
2401 834  209 
2402 409  796 
2403 752  677 
2404 17   393 
2405 713  673 
2406 698  154 
2407 61   661 
2408 832  999 
2409 562  858 
2410 280  698 
2411 613  269 
2412 156  143 
2413 767  564 
2414 125  558 
2415 401  304 
2416 519  674 
2417 849  239 
2418 958  987 
2419 425  781 
2420 940  194 
2421 373  442 
2422 513  944 
2423 713  584 
2424 787  132 
2425 789  360 
2426 165  883 
2427 862  598 
2428 864  423 
2429 295  30  
2430 321  423 
2431 267  114 
2432 106  406 
2433 305  315 
2434 90   108 
2435 434  267 
2436 571  637 
2437 823  516 
2438 862  428 
2439 347  375 
2440 296  312 
2441 772  103 
2442 911  368 
2443 388  787 
2444 848  432 
2445 167  661 
2446 155  111 
2447 501  225 
2448 980  628 
2449 780  812 
2450 781  495 
2451 107  445 
2452 695  131 
2453 473  832 
2454 772  876 
2455 37   410 
2456 720  122 
2457 956  160 
2458 868  757 
2459 318  857 
2460 600  330 
2461 857  605 
2462 605  199 
2463 969  59  
2464 532  662 
2465 623  280 
2466 471  464 
2467 350  852 
2468 99   468 
2469 81   126 
2470 998  788 
2471 584  403 
2472 323  201 
2473 899  583 
2474 574  562 
2475 59   924 
2476 684  182 
2477 176  80  
2478 341  949 
2479 659  861 
2480 273  459 
2481 664  965 
2482 41   951 
2483 171  768 
2484 243  399 
2485 776  446 
2486 403  517 
2487 447  983 
2488 708  502 
2489 655  649 
2490 232  882 
2491 547  583 
2492 303  489 
2493 343  77  
2494 711  540 
2495 323  605 
2496 511  586 
2497 368  775 
2498 41   13  
2499 905  468 
2500 562  34  
2501 798  852 
2502 234  396 
2503 329  759 
2504 971  765 
2505 40   264 
2506 168  786 
2507 667  126 
2508 767  289 
2509 288  124 
2510 663  657 
2511 243  858 
2512 871  786 
2513 638  235 
2514 33   562 
2515 786  605 
2516 16   475 
2517 362  814 
2518 986  389 
2519 547  767 
2520 113  823 
2521 662  363 
2522 701  345 
2523 739  26  
2524 511  825 
2525 873  781 
2526 945  997 
2527 356  554 
2528 711  96  
2529 609  795 
2530 60   649 
2531 771  673 
2532 95   207 
2533 725  649 
2534 501  100 
2535 763  369 
2536 945  886 
2537 48   480 
2538 485  181 
2539 489  306 
2540 821  593 
2541 552  475 
2542 823  134 
2543 883  884 
2544 992  130 
2545 278  793 
2546 333  524 
2547 838  508 
2548 785  0   
2549 804  292 
2550 17   158 
2551 471  343 
2552 509  640 
2553 475  173 
2554 76   664 
2555 938  408 
2556 79   1000
2557 461  285 
2558 939  891 
2559 483  317 
2560 335  969 
2561 446  793 
2562 963  570 
2563 602  358 
2564 767  447 
2565 30   903 
2566 218  623 
2567 551  355 
2568 237  321 
2569 73   877 
2570 149  730 
2571 576  629 
2572 740  296 
2573 978  642 
2574 775  961 
2575 248  155 
2576 172  26  
2577 527  287 
2578 585  375 
2579 32   684 
2580 567  419 
2581 309  996 
2582 163  402 
2583 697  64  
2584 878  698 
2585 330  571 
2586 976  948 
2587 290  77  
2588 367  516 
2589 298  29  
2590 988  303 
2591 856  607 
2592 232  324 
2593 124  933 
2594 819  767 
2595 325  740 
2596 966  370 
2597 622  703 
2598 946  737 
2599 576  787 
2600 773  711 
2601 994  62  
2602 701  52  
2603 870  597 
2604 617  764 
2605 390  131 
2606 850  804 
2607 780  242 
2608 431  605 
2609 213  95  
2610 361  619 
2611 342  829 
2612 658  777 
2613 626  831 
2614 453  801 
2615 827  898 
2616 972  220 
2617 497  686 
2618 494  616 
2619 629  696 
2620 261  547 
2621 481  66  
2622 956  403 
2623 28   68  
2624 653  2   
2625 48   778 
2626 215  316 
2627 182  945 
2628 256  274 
2629 37   888 
2630 666  962 
2631 918  430 
2632 956  680 
2633 776  595 
2634 590  856 
2635 338  659 
2636 282  388 
2637 341  817 
2638 966  474 
2639 717  363 
2640 76   936 
2641 113  453 
2642 130  240 
2643 223  189 
2644 352  539 
2645 98   700 
2646 544  815 
2647 425  961 
2648 45   430 
2649 699  663 
2650 947  68  
2651 51   452 
2652 622  582 
2653 310  818 
2654 296  50  
2655 42   1   
2656 297  287 
2657 27   383 
2658 391  445 
2659 428  457 
2660 987  800 
2661 343  371 
2662 936  98  
2663 882  857 
2664 167  545 
2665 663  700 
2666 350  276 
2667 5    300 
2668 79   309 
2669 542  8   
2670 982  260 
2671 747  826 
2672 12   799 
2673 966  66  
2674 401  921 
2675 105  816 
2676 569  430 
2677 771  176 
2678 148  242 
2679 386  645 
2680 370  885 
2681 795  227 
2682 982  375 
2683 412  798 
2684 783  825 
2685 440  891 
2686 19   497 
2687 989  906 
2688 60   662 
2689 739  414 
2690 349  928 
2691 280  89  
2692 870  756 
2693 834  512 
2694 689  693 
2695 739  971 
2696 428  894 
2697 673  457 
2698 693  784 
2699 87   108 
2700 413  131 
2701 555  486 
2702 721  559 
2703 132  573 
2704 133  772 
2705 79   854 
2706 888  488 
2707 979  915 
2708 156  733 
2709 33   621 
2710 582  284 
2711 752  776 
2712 720  737 
2713 475  871 
2714 883  303 
2715 701  610 
2716 760  34  
2717 962  674 
2718 541  355 
2719 764  364 
2720 451  612 
2721 527  623 
2722 289  692 
2723 822  917 
2724 932  253 
2725 717  215 
2726 807  736 
2727 81   743 
2728 335  597 
2729 62   866 
2730 389  519 
2731 47   544 
2732 176  701 
2733 837  846 
2734 986  8   
2735 174  152 
2736 471  21  
2737 970  334 
2738 419  19  
2739 182  359 
2740 185  884 
2741 950  615 
2742 295  203 
2743 539  255 
2744 668  871 
2745 686  488 
2746 463  378 
2747 840  814 
2748 178  173 
2749 767  136 
2750 362  548 
2751 90   372 
2752 253  349 
2753 640  890 
2754 625  679 
2755 594  741 
2756 415  680 
2757 259  180 
2758 388  27  
2759 1000 968 
2760 896  420 
2761 788  47  
2762 990  167 
2763 703  331 
2764 190  193 
2765 905  731 
2766 874  971 
2767 905  256 
2768 543  711 
2769 651  849 
2770 858  634 
2771 786  5   
2772 308  148 
2773 53   514 
2774 201  393 
2775 608  568 
2776 536  612 
2777 847  924 
2778 370  304 
2779 260  279 
2780 933  679 
2781 940  433 
2782 851  451 
2783 304  820 
2784 175  19  
2785 31   309 
2786 949  978 
2787 972  994 
2788 699  247 
2789 810  875 
2790 647  111 
2791 705  697 
2792 190  35  
2793 672  920 
2794 857  985 
2795 640  199 
2796 914  829 
2797 863  909 
2798 823  686 
2799 128  491 
2800 385  508 
2801 992  165 
2802 349  347 
2803 795  31  
2804 906  765 
2805 208  782 
2806 263  503 
2807 657  975 
2808 213  115 
2809 306  192 
2810 515  569 
2811 164  230 
2812 256  335 
2813 994  181 
2814 702  41  
2815 226  299 
2816 848  643 
2817 446  747 
2818 104  9   
2819 802  813 
2820 158  362 
2821 736  484 
2822 901  567 
2823 243  11  
2824 189  400 
2825 647  873 
2826 869  286 
2827 815  588 
2828 658  66  
2829 217  274 
2830 126  750 
2831 609  817 
2832 313  364 
2833 222  598 
2834 499  952 
2835 958  92  
2836 978  496 
2837 498  912 
2838 997  442 
2839 706  342 
2840 785  987 
2841 732  332 
2842 532  846 
2843 437  24  
2844 168  430 
2845 223  619 
2846 351  125 
2847 278  130 
2848 544  954 
2849 743  506 
2850 248  818 
2851 938  40  
2852 653  409 
2853 161  110 
2854 381  445 
2855 510  316 
2856 935  627 
2857 940  971 
2858 174  649 
2859 853  818 
2860 892  422 
2861 322  881 
2862 417  735 
2863 841  794 
2864 56   702 
2865 621  32  
2866 529  548 
2867 915  767 
2868 241  137 
2869 574  853 
2870 115  93  
2871 6    651 
2872 779  92  
2873 671  655 
2874 122  41  
2875 13   134 
2876 268  325 
2877 34   13  
2878 309  970 
2879 291  115 
2880 40   252 
2881 664  172 
2882 187  639 
2883 277  753 
2884 740  52  
2885 939  217 
2886 991  451 
2887 281  412 
2888 869  803 
2889 448  65  
2890 908  450 
2891 299  243 
2892 930  51  
2893 107  196 
2894 606  174 
2895 825  274 
2896 181  694 
2897 790  433 
2898 242  558 
2899 442  547 
2900 95   431 
2901 387  510 
2902 79   353 
2903 734  558 
2904 524  50  
2905 945  440 
2906 818  902 
2907 526  367 
2908 650  537 
2909 322  729 
2910 362  282 
2911 948  517 
2912 751  403 
2913 843  914 
2914 104  531 
2915 935  616 
2916 865  353 
2917 59   278 
2918 996  167 
2919 409  830 
2920 394  816 
2921 306  325 
2922 16   1000
2923 808  885 
2924 110  504 
2925 199  967 
2926 38   830 
2927 627  952 
2928 865  210 
2929 662  275 
2930 207  925 
2931 885  586 
2932 996  940 
2933 46   387 
2934 763  767 
2935 547  442 
2936 603  265 
2937 908  106 
2938 507  195 
2939 487  930 
2940 715  45  
2941 457  667 
2942 350  448 
2943 300  250 
2944 908  940 
2945 619  476 
2946 911  92  
2947 434  624 
2948 911  523 
2949 806  761 
2950 148  777 
2951 611  688 
2952 957  473 
2953 794  941 
2954 833  701 
2955 102  590 
2956 983  51  
2957 805  133 
2958 606  32  
2959 757  577 
2960 3    618 
2961 739  567 
2962 940  262 
2963 81   449 
2964 652  312 
2965 979  805 
2966 265  733 
2967 855  334 
2968 837  335 
2969 162  556 
2970 434  777 
2971 915  525 
2972 553  197 
2973 716  234 
2974 384  648 
2975 368  691 
2976 187  540 
2977 849  686 
2978 522  994 
2979 575  892 
2980 816  70  
2981 411  212 
2982 654  16  
2983 250  545 
2984 60   554 
2985 986  544 
2986 382  617 
2987 436  212 
2988 914  197 
2989 440  346 
2990 113  574 
2991 790  5   
2992 134  34  
2993 979  972 
2994 617  126 
2995 690  425 
2996 963  134 
2997 355  585 
2998 818  809 
2999 992  540 
3000 438  574 
3001 536  500 
3002 138  359 
3003 247  348 
3004 265  373 
3005 729  371 
3006 283  882 
3007 836  303 
3008 417  420 
3009 107  662 
3010 75   26  
3011 165  815 
3012 993  422 
3013 991  24  
3014 577  252 
3015 536  99  
3016 776  977 
3017 166  802 
3018 941  596 
3019 618  22  
3020 136  571 
3021 799  853 
3022 840  228 
3023 569  554 
3024 784  332 
3025 950  674 
3026 552  696 
3027 292  166 
3028 458  241 
3029 596  447 
3030 544  82  
3031 871  985 
3032 639  940 
3033 70   375 
3034 182  744 
3035 143  530 
3036 293  827 
3037 863  227 
3038 113  397 
3039 668  857 
3040 99   443 
3041 885  717 
3042 373  430 
3043 155  160 
3044 396  142 
3045 418  895 
3046 555  866 
3047 534  602 
3048 77   410 
3049 774  512 
3050 442  105 
3051 333  443 
3052 334  59  
3053 317  908 
3054 910  565 
3055 178  466 
3056 605  878 
3057 454  657 
3058 914  21  
3059 182  127 
3060 475  227 
3061 326  687 
3062 511  170 
3063 421  702 
3064 297  45  
3065 82   524 
3066 598  173 
3067 377  287 
3068 31   740 
3069 378  407 
3070 362  851 
3071 182  880 
3072 456  906 
3073 276  103 
3074 829  471 
3075 479  247 
3076 941  990 
3077 690  533 
3078 340  4   
3079 675  356 
3080 50   692 
3081 469  787 
3082 146  384 
3083 310  281 
3084 510  97  
3085 578  978 
3086 830  430 
3087 872  854 
3088 819  78  
3089 565  712 
3090 910  454 
3091 343  323 
3092 948  935 
3093 199  133 
3094 988  705 
3095 438  125 
3096 39   145 
3097 756  677 
3098 645  123 
3099 43   210 
3100 282  627 
3101 820  954 
3102 730  373 
3103 18   89  
3104 733  200 
3105 934  540 
3106 331  226 
3107 847  990 
3108 277  828 
3109 494  562 
3110 904  607 
3111 615  857 
3112 648  619 
3113 359  720 
3114 286  48  
3115 180  595 
3116 272  622 
3117 78   182 
3118 152  745 
3119 298  63  
3120 262  73  
3121 905  416 
3122 66   51  
3123 672  405 
3124 193  697 
3125 430  389 
3126 747  904 
3127 537  332 
3128 59   711 
3129 170  501 
3130 775  133 
3131 98   461 
3132 796  782 
3133 282  369 
3134 227  838 
3135 602  589 
3136 361  472 
3137 547  890 
3138 111  748 
3139 883  776 
3140 701  562 
3141 322  820 
3142 859  742 
3143 731  557 
3144 436  906 
3145 532  426 
3146 0    715 
3147 863  621 
3148 646  696 
3149 296  903 
3150 80   84  
3151 291  370 
3152 831  3   
3153 860  386 
3154 483  145 
3155 946  875 
3156 546  484 
3157 286  941 
3158 688  275 
3159 965  616 
3160 345  669 
3161 681  161 
3162 57   273 
3163 311  959 
3164 466  90  
3165 690  506 
3166 728  196 
3167 855  782 
3168 431  189 
3169 998  382 
3170 288  421 
3171 843  846 
3172 271  233 
3173 258  334 
3174 739  452 
3175 629  199 
3176 278  885 
3177 762  47  
3178 814  604 
3179 7    788 
3180 601  491 
3181 657  73  
3182 822  781 
3183 742  568 
3184 475  780 
3185 404  256 
3186 633  826 
3187 520  660 
3188 172  415 
3189 738  906 
3190 502  40  
3191 948  178 
3192 587  466 
3193 254  231 
3194 114  87  
3195 481  824 
3196 443  993 
3197 261  42  
3198 906  772 
3199 245  992 
3200 869  912 
3201 321  922 
3202 466  450 
3203 512  846 
3204 778  977 
3205 548  337 
3206 875  34  
3207 872  610 
3208 878  678 
3209 943  820 
3210 926  323 
3211 772  247 
3212 849  643 
3213 59   177 
3214 499  963 
3215 522  897 
3216 717  732 
3217 385  275 
3218 688  814 
3219 729  182 
3220 858  428 
3221 140  918 
3222 859  925 
3223 234  386 
3224 221  935 
3225 883  476 
3226 80   361 
3227 759  636 
3228 27   402 
3229 616  512 
3230 561  766 
3231 446  328 
3232 705  173 
3233 941  196 
3234 261  678 
3235 233  842 
3236 397  199 
3237 749  807 
3238 458  314 
3239 542  45  
3240 135  34  
3241 356  605 
3242 196  583 
3243 503  837 
3244 752  266 
3245 287  871 
3246 71   385 
3247 751  121 
3248 453  395 
3249 665  51  
3250 24   421 
3251 478  413 
3252 170  281 
3253 501  702 
3254 94   978 
3255 58   659 
3256 58   204 
3257 779  778 
3258 134  434 
3259 483  601 
3260 463  758 
3261 928  367 
3262 193  652 
3263 63   646 
3264 749  324 
3265 587  41  
3266 513  16  
3267 643  363 
3268 516  251 
3269 735  588 
3270 645  409 
3271 920  707 
3272 991  982 
3273 461  146 
3274 740  460 
3275 501  464 
3276 559  809 
3277 502  907 
3278 690  904 
3279 431  590 
3280 305  219 
3281 324  193 
3282 676  958 
3283 709  726 
3284 69   764 
3285 662  249 
3286 846  831 
3287 281  146 
3288 356  580 
3289 161  594 
3290 932  812 
3291 608  496 
3292 331  142 
3293 741  854 
3294 830  164 
3295 486  622 
3296 984  265 
3297 710  398 
3298 696  787 
3299 217  299 
3300 809  532 
3301 39   777 
3302 260  785 
3303 577  91  
3304 579  190 
3305 135  882 
3306 500  544 
3307 1000 606 
3308 303  358 
3309 853  553 
3310 191  763 
3311 713  401 
3312 768  287 
3313 126  592 
3314 471  556 
3315 129  445 
3316 592  51  
3317 37   193 
3318 149  946 
3319 497  433 
3320 346  775 
3321 777  71  
3322 327  593 
3323 326  987 
3324 448  629 
3325 12   667 
3326 14   772 
3327 718  280 
3328 609  561 
3329 994  362 
3330 350  299 
3331 42   175 
3332 630  398 
3333 813  689 
3334 245  586 
3335 725  490 
3336 122  740 
3337 919  425 
3338 728  556 
3339 871  721 
3340 658  926 
3341 36   577 
3342 533  141 
3343 643  443 
3344 293  547 
3345 916  432 
3346 275  629 
3347 846  508 
3348 277  857 
3349 764  605 
3350 467  784 
3351 503  413 
3352 658  561 
3353 734  950 
3354 453  526 
3355 291  533 
3356 419  434 
3357 679  115 
3358 114  924 
3359 387  6   
3360 959  670 
3361 341  152 
3362 750  854 
3363 470  500 
3364 861  924 
3365 735  296 
3366 534  664 
3367 282  566 
3368 851  516 
3369 301  144 
3370 32   17  
3371 930  566 
3372 750  175 
3373 640  773 
3374 736  159 
3375 930  995 
3376 803  828 
3377 811  146 
3378 703  351 
3379 64   87  
3380 463  81  
3381 356  61  
3382 671  107 
3383 709  164 
3384 381  19  
3385 552  737 
3386 952  646 
3387 989  799 
3388 650  793 
3389 78   109 
3390 888  185 
3391 834  832 
3392 337  213 
3393 581  303 
3394 619  545 
3395 875  443 
3396 103  490 
3397 230  898 
3398 285  301 
3399 52   754 
3400 102  855 
3401 433  620 
3402 703  102 
3403 319  210 
3404 748  218 
3405 803  257 
3406 700  277 
3407 334  448 
3408 874  512 
3409 853  940 
3410 857  131 
3411 160  93  
3412 393  376 
3413 534  473 
3414 461  270 
3415 154  32  
3416 357  743 
3417 599  573 
3418 374  880 
3419 590  928 
3420 21   107 
3421 480  158 
3422 631  443 
3423 170  160 
3424 706  475 
3425 464  397 
3426 101  189 
3427 904  528 
3428 198  722 
3429 652  771 
3430 36   147 
3431 720  964 
3432 204  71  
3433 277  151 
3434 41   547 
3435 8    917 
3436 961  324 
3437 612  68  
3438 687  476 
3439 10   79  
3440 743  4   
3441 512  976 
3442 858  862 
3443 305  118 
3444 653  284 
3445 269  531 
3446 786  668 
3447 915  119 
3448 596  688 
3449 957  443 
3450 995  165 
3451 63   198 
3452 987  824 
3453 380  74  
3454 862  488 
3455 701  267 
3456 62   351 
3457 427  251 
3458 653  51  
3459 249  546 
3460 584  262 
3461 141  682 
3462 1    436 
3463 865  514 
3464 356  719 
3465 845  668 
3466 849  729 
3467 791  282 
3468 244  37  
3469 887  219 
3470 7    214 
3471 890  621 
3472 104  869 
3473 836  993 
3474 65   768 
3475 177  751 
3476 362  415 
3477 530  458 
3478 838  334 
3479 327  565 
3480 552  440 
3481 879  504 
3482 963  763 
3483 332  640 
3484 719  52  
3485 332  282 
3486 539  111 
3487 702  515 
3488 407  296 
3489 617  41  
3490 673  708 
3491 122  511 
3492 875  215 
3493 965  148 
3494 342  402 
3495 859  100 
3496 124  546 
3497 37   374 
3498 476  314 
3499 39   86  
3500 792  608 
3501 276  463 
3502 940  982 
3503 261  232 
3504 283  151 
3505 910  48  
3506 252  395 
3507 567  17  
3508 897  602 
3509 36   50  
3510 698  285 
3511 75   201 
3512 92   797 
3513 821  923 
3514 396  475 
3515 298  530 
3516 385  644 
3517 336  796 
3518 816  91  
3519 398  697 
3520 229  506 
3521 339  684 
3522 213  272 
3523 985  303 
3524 485  539 
3525 340  648 
3526 620  765 
3527 533  615 
3528 932  116 
3529 737  577 
3530 311  999 
3531 373  917 
3532 929  269 
3533 982  76  
3534 909  473 
3535 125  170 
3536 713  438 
3537 991  150 
3538 169  318 
3539 978  572 
3540 298  129 
3541 850  777 
3542 672  158 
3543 446  281 
3544 448  227 
3545 638  167 
3546 584  634 
3547 911  314 
3548 269  971 
3549 770  743 
3550 673  331 
3551 938  522 
3552 244  789 
3553 44   154 
3554 154  61  
3555 104  10  
3556 376  751 
3557 546  436 
3558 982  979 
3559 622  769 
3560 786  125 
3561 935  714 
3562 130  34  
3563 864  223 
3564 535  65  
3565 719  228 
3566 644  99  
3567 425  915 
3568 176  241 
3569 712  590 
3570 527  379 
3571 931  812 
3572 215  767 
3573 381  168 
3574 1    311 
3575 489  961 
3576 296  128 
3577 630  143 
3578 499  955 
3579 498  913 
3580 483  981 
3581 889  263 
3582 819  108 
3583 729  238 
3584 13   29  
3585 604  717 
3586 380  429 
3587 128  483 
3588 882  350 
3589 77   501 
3590 630  629 
3591 867  751 
3592 166  892 
3593 262  914 
3594 467  70  
3595 620  0   
3596 802  127 
3597 549  753 
3598 217  120 
3599 273  619 
3600 804  335 
3601 938  952 
3602 61   524 
3603 886  455 
3604 281  692 
3605 946  40  
3606 340  303 
3607 609  984 
3608 991  520 
3609 261  107 
3610 282  480 
3611 653  175 
3612 177  254 
3613 216  506 
3614 954  971 
3615 679  927 
3616 645  320 
3617 956  352 
3618 958  563 
3619 370  178 
3620 445  708 
3621 796  812 
3622 872  304 
3623 494  309 
3624 216  820 
3625 472  734 
3626 605  604 
3627 362  542 
3628 308  441 
3629 125  188 
3630 537  932 
3631 440  903 
3632 313  50  
3633 646  587 
3634 276  373 
3635 773  556 
3636 315  908 
3637 795  492 
3638 389  856 
3639 599  617 
3640 375  820 
3641 691  175 
3642 265  330 
3643 394  277 
3644 659  812 
3645 713  254 
3646 329  964 
3647 708  698 
3648 114  62  
3649 277  807 
3650 168  549 
3651 775  329 
3652 136  526 
3653 197  934 
3654 812  637 
3655 572  105 
3656 222  950 
3657 740  173 
3658 741  313 
3659 958  683 
3660 796  180 
3661 462  314 
3662 84   134 
3663 305  631 
3664 731  290 
3665 967  886 
3666 683  522 
3667 939  209 
3668 27   597 
3669 966  255 
3670 589  699 
3671 131  393 
3672 576  266 
3673 248  502 
3674 1000 155 
3675 357  887 
3676 836  671 
3677 432  18  
3678 158  888 
3679 751  525 
3680 863  455 
3681 93   861 
3682 539  437 
3683 386  713 
3684 577  250 
3685 760  763 
3686 754  748 
3687 595  570 
3688 319  271 
3689 504  207 
3690 89   384 
3691 789  43  
3692 293  54  
3693 186  464 
3694 439  998 
3695 26   76  
3696 740  830 
3697 677  581 
3698 515  128 
3699 38   764 
3700 420  143 
3701 22   847 
3702 133  728 
3703 890  991 
3704 392  478 
3705 27   554 
3706 444  911 
3707 764  417 
3708 374  903 
3709 321  147 
3710 768  548 
3711 658  831 
3712 107  847 
3713 346  141 
3714 434  616 
3715 52   997 
3716 55   551 
3717 167  610 
3718 95   522 
3719 314  946 
3720 495  881 
3721 630  3   
3722 21   814 
3723 890  507 
3724 869  746 
3725 427  68  
3726 247  753 
3727 782  179 
3728 568  688 
3729 571  940 
3730 327  856 
3731 950  869 
3732 882  218 
3733 536  985 
3734 702  433 
3735 60   431 
3736 685  573 
3737 779  558 
3738 524  176 
3739 265  50  
3740 746  663 
3741 748  695 
3742 601  245 
3743 985  86  
3744 142  840 
3745 729  854 
3746 952  777 
3747 645  298 
3748 204  974 
3749 538  884 
3750 245  321 
3751 67   609 
3752 301  47  
3753 671  869 
3754 728  805 
3755 530  964 
3756 895  844 
3757 201  848 
3758 612  728 
3759 521  543 
3760 97   775 
3761 280  726 
3762 227  241 
3763 445  154 
3764 64   866 
3765 247  18  
3766 136  709 
3767 875  272 
3768 461  244 
3769 732  703 
3770 785  627 
3771 107  753 
3772 110  688 
3773 734  512 
3774 145  988 
3775 894  193 
3776 136  31  
3777 264  212 
3778 413  482 
3779 876  587 
3780 914  936 
3781 847  976 
3782 650  841 
3783 315  349 
3784 831  28  
3785 890  373 
3786 924  95  
3787 10   293 
3788 488  460 
3789 16   9   
3790 549  177 
3791 711  129 
3792 771  308 
3793 55   168 
3794 741  340 
3795 540  111 
3796 904  552 
3797 333  668 
3798 546  665 
3799 619  53  
3800 374  445 
3801 322  536 
3802 730  743 
3803 542  799 
3804 324  993 
3805 600  684 
3806 878  637 
3807 458  994 
3808 627  712 
3809 103  555 
3810 421  324 
3811 294  722 
3812 82   153 
3813 377  709 
3814 249  760 
3815 251  697 
3816 526  473 
3817 624  476 
3818 436  797 
3819 290  503 
3820 697  941 
3821 789  799 
3822 862  17  
3823 204  798 
3824 242  425 
3825 956  78  
3826 853  877 
3827 231  649 
3828 180  282 
3829 308  268 
3830 71   992 
3831 510  320 
3832 370  802 
3833 918  502 
3834 828  701 
3835 573  638 
3836 685  559 
3837 81   299 
3838 179  58  
3839 538  282 
3840 528  348 
3841 929  466 
3842 545  815 
3843 415  589 
3844 143  7   
3845 950  72  
3846 457  351 
3847 643  486 
3848 757  7   
3849 5    34  
3850 939  172 
3851 350  944 
3852 62   486 
3853 706  967 
3854 745  154 
3855 214  120 
3856 235  990 
3857 360  706 
3858 0    121 
3859 515  800 
3860 917  892 
3861 863  261 
3862 332  467 
3863 316  117 
3864 613  814 
3865 779  314 
3866 501  452 
3867 66   163 
3868 141  521 
3869 306  917 
3870 586  733 
3871 401  206 
3872 364  265 
3873 553  6   
3874 22   670 
3875 311  306 
3876 22   372 
3877 150  313 
3878 795  922 
3879 371  713 
3880 176  932 
3881 926  131 
3882 430  100 
3883 907  357 
3884 84   120 
3885 513  814 
3886 198  319 
3887 272  924 
3888 19   344 
3889 831  952 
3890 886  647 
3891 740  835 
3892 872  49  
3893 598  609 
3894 50   382 
3895 250  38  
3896 361  249 
3897 964  958 
3898 344  916 
3899 2    509 
3900 934  615 
3901 496  426 
3902 406  982 
3903 371  381 
3904 651  415 
3905 959  174 
3906 46   423 
3907 138  115 
3908 174  216 
3909 323  53  
3910 69   14  
3911 912  508 
3912 641  72  
3913 911  11  
3914 53   746 
3915 2    514 
3916 737  487 
3917 419  957 
3918 501  914 
3919 745  473 
3920 561  708 
3921 7    738 
3922 176  273 
3923 819  95  
3924 720  350 
3925 494  25  
3926 220  586 
3927 494  903 
3928 193  616 
3929 428  639 
3930 124  609 
3931 840  178 
3932 49   163 
3933 606  4   
3934 226  935 
3935 23   659 
3936 851  274 
3937 836  521 
3938 322  9   
3939 603  184 
3940 15   611 
3941 345  344 
3942 54   730 
3943 348  630 
3944 989  939 
3945 496  417 
3946 63   664 
3947 543  473 
3948 191  756 
3949 732  857 
3950 605  197 
3951 165  350 
3952 438  611 
3953 917  244 
3954 311  804 
3955 114  963 
3956 759  639 
3957 993  598 
3958 667  123 
3959 248  433 
3960 192  596 
3961 672  275 
3962 981  279 
3963 707  279 
3964 559  185 
3965 968  383 
3966 470  174 
3967 781  516 
3968 272  891 
3969 954  318 
3970 592  213 
3971 699  932 
3972 919  410 
3973 369  663 
3974 758  540 
3975 318  953 
3976 194  164 
3977 657  911 
3978 270  828 
3979 950  162 
3980 971  107 
3981 370  847 
3982 539  824 
3983 558  697 
3984 260  335 
3985 353  558 
3986 667  338 
3987 353  432 
3988 907  736 
3989 548  790 
3990 769  711 
3991 476  973 
3992 679  395 
3993 310  188 
3994 609  349 
3995 589  435 
3996 848  56  
3997 578  369 
3998 759  306 
3999 279  25  
4000 213  474 
4001 196  358 
4002 657  169 
4003 882  987 
4004 239  448 
4005 954  899 
4006 22   430 
4007 957  406 
4008 366  312 
4009 669  983 
4010 429  797 
4011 410  881 
4012 656  633 
4013 507  319 
4014 824  491 
4015 897  353 
4016 254  600 
4017 518  809 
4018 172  987 
4019 907  197 
4020 873  866 
4021 763  600 
4022 488  384 
4023 839  999 
4024 935  563 
4025 916  426 
4026 938  891 
4027 321  288 
4028 564  356 
4029 216  522 
4030 842  168 
4031 492  463 
4032 83   858 
4033 394  242 
4034 507  138 
4035 803  937 
4036 532  361 
4037 309  522 
4038 239  457 
4039 166  881 
4040 608  144 
4041 282  338 
4042 380  625 
4043 803  739 
4044 15   194 
4045 398  254 
4046 570  535 
4047 258  158 
4048 665  710 
4049 494  920 
4050 829  298 
4051 11   1   
4052 530  572 
4053 605  270 
4054 290  846 
4055 972  873 
4056 846  950 
4057 78   107 
4058 479  262 
4059 686  799 
4060 985  133 
4061 324  495 
4062 397  15  
4063 198  737 
4064 112  897 
4065 167  350 
4066 794  715 
4067 948  113 
4068 307  478 
4069 682  165 
4070 534  665 
4071 791  517 
4072 739  665 
4073 557  280 
4074 687  724 
4075 482  479 
4076 228  146 
4077 128  843 
4078 181  767 
4079 54   306 
4080 112  730 
4081 777  773 
4082 689  46  
4083 780  648 
4084 931  674 
4085 715  798 
4086 240  228 
4087 956  215 
4088 479  176 
4089 498  795 
4090 597  168 
4091 134  862 
4092 409  711 
4093 897  743 
4094 346  298 
4095 240  430 
4096 809  984 
4097 807  637 
4098 554  157 
4099 955  771 
4100 607  3   
4101 153  151 
4102 510  505 
4103 392  526 
4104 172  162 
4105 709  394 
4106 304  293 
4107 880  1000
4108 365  218 
4109 555  483 
4110 593  180 
4111 421  216 
4112 866  695 
4113 326  970 
4114 904  254 
4115 762  75  
4116 907  155 
4117 48   367 
4118 263  849 
4119 323  167 
4120 324  756 
4121 531  65  
4122 269  991 
4123 661  275 
4124 95   6   
4125 869  400 
4126 266  679 
4127 144  578 
4128 418  618 
4129 789  4   
4130 115  67  
4131 903  124 
4132 962  133 
4133 214  960 
4134 395  301 
4135 142  779 
4136 125  38  
4137 969  77  
4138 860  740 
4139 455  192 
4140 199  302 
4141 848  36  
4142 477  318 
4143 868  658 
4144 557  580 
4145 101  935 
4146 634  355 
4147 941  805 
4148 449  548 
4149 338  539 
4150 497  903 
4151 316  522 
4152 514  566 
4153 517  539 
4154 293  310 
4155 496  142 
4156 441  72  
4157 60   519 
4158 538  432 
4159 349  356 
4160 941  32  
4161 193  98  
4162 908  866 
4163 467  178 
4164 969  961 
4165 785  572 
4166 110  627 
4167 149  61  
4168 836  716 
4169 691  268 
4170 874  84  
4171 731  543 
4172 933  700 
4173 860  7   
4174 474  179 
4175 537  92  
4176 976  524 
4177 441  375 
4178 522  542 
4179 636  491 
4180 547  983 
4181 432  739 
4182 289  827 
4183 306  891 
4184 715  3   
4185 586  563 
4186 30   777 
4187 734  936 
4188 592  470 
4189 458  56  
4190 684  100 
4191 776  157 
4192 243  739 
4193 473  940 
4194 474  489 
4195 377  72  
4196 31   128 
4197 751  204 
4198 402  653 
4199 990  705 
4200 593  361 
4201 918  717 
4202 977  7   
4203 885  662 
4204 243  349 
4205 210  37  
4206 976  383 
4207 66   235 
4208 908  793 
4209 858  713 
4210 907  995 
4211 398  218 
4212 93   141 
4213 954  785 
4214 442  842 
4215 702  862 
4216 596  559 
4217 280  907 
4218 282  108 
4219 743  343 
4220 798  902 
4221 211  190 
4222 488  814 
4223 909  588 
4224 785  371 
4225 55   316 
4226 457  533 
4227 332  615 
4228 403  122 
4229 96   760 
4230 166  682 
4231 975  810 
4232 595  292 
4233 464  961 
4234 23   706 
4235 579  584 
4236 152  698 
4237 199  284 
4238 148  911 
4239 699  700 
4240 663  914 
4241 78   246 
4242 585  532 
4243 584  748 
4244 35   992 
4245 640  217 
4246 94   840 
4247 972  678 
4248 276  352 
4249 991  145 
4250 762  100 
4251 230  845 
4252 964  258 
4253 506  493 
4254 804  948 
4255 927  67  
4256 589  981 
4257 680  975 
4258 716  790 
4259 224  896 
4260 848  816 
4261 795  398 
4262 10   714 
4263 237  209 
4264 897  456 
4265 347  868 
4266 610  387 
4267 368  85  
4268 81   365 
4269 353  605 
4270 959  158 
4271 869  983 
4272 943  432 
4273 395  710 
4274 712  473 
4275 731  922 
4276 327  917 
4277 511  519 
4278 292  680 
4279 611  96  
4280 203  357 
4281 153  115 
4282 427  406 
4283 745  92  
4284 943  604 
4285 529  437 
4286 139  765 
4287 986  350 
4288 569  827 
4289 785  985 
4290 769  508 
4291 533  976 
4292 310  796 
4293 350  729 
4294 867  750 
4295 601  701 
4296 711  704 
4297 307  253 
4298 346  503 
4299 237  750 
4300 733  596 
4301 75   105 
4302 813  646 
4303 210  861 
4304 138  475 
4305 194  236 
4306 963  947 
4307 929  103 
4308 308  721 
4309 994  496 
4310 960  256 
4311 226  403 
4312 8    376 
4313 389  624 
4314 852  451 
4315 483  214 
4316 46   563 
4317 160  147 
4318 762  321 
4319 605  554 
4320 881  948 
4321 352  101 
4322 116  454 
4323 834  47  
4324 389  641 
4325 229  124 
4326 378  339 
4327 566  414 
4328 362  543 
4329 734  97  
4330 96   980 
4331 194  651 
4332 874  620 
4333 466  347 
4334 985  474 
4335 253  609 
4336 272  954 
4337 718  661 
4338 959  970 
4339 393  647 
4340 673  130 
4341 466  640 
4342 156  997 
4343 490  555 
4344 87   671 
4345 453  240 
4346 548  265 
4347 972  954 
4348 827  466 
4349 38   828 
4350 210  304 
4351 687  267 
4352 636  948 
4353 135  568 
4354 584  839 
4355 587  24  
4356 288  841 
4357 169  839 
4358 927  497 
4359 511  64  
4360 37   578 
4361 866  177 
4362 955  829 
4363 635  193 
4364 227  812 
4365 65   342 
4366 429  408 
4367 931  535 
4368 731  239 
4369 90   797 
4370 550  511 
4371 325  689 
4372 149  420 
4373 131  530 
4374 23   512 
4375 905  209 
4376 63   599 
4377 211  237 
4378 66   258 
4379 126  807 
4380 398  747 
4381 458  680 
4382 590  209 
4383 182  99  
4384 938  939 
4385 867  3   
4386 679  355 
4387 903  193 
4388 228  50  
4389 873  488 
4390 323  628 
4391 964  398 
4392 693  200 
4393 198  670 
4394 968  52  
4395 145  771 
4396 366  416 
4397 534  936 
4398 884  232 
4399 760  950 
4400 559  357 
4401 579  548 
4402 544  93  
4403 764  51  
4404 13   747 
4405 503  580 
4406 569  656 
4407 660  886 
4408 554  273 
4409 257  378 
4410 114  280 
4411 132  207 
4412 423  429 
4413 9    924 
4414 997  467 
4415 85   702 
4416 672  934 
4417 781  177 
4418 969  118 
4419 640  863 
4420 989  249 
4421 635  512 
4422 616  590 
4423 726  98  
4424 583  815 
4425 508  816 
4426 696  764 
4427 950  204 
4428 40   949 
4429 38   991 
4430 976  599 
4431 518  85  
4432 315  144 
4433 206  443 
4434 614  532 
4435 649  221 
4436 44   127 
4437 260  186 
4438 122  209 
4439 888  131 
4440 431  644 
4441 485  865 
4442 948  335 
4443 625  206 
4444 735  732 
4445 521  653 
4446 901  553 
4447 958  239 
4448 316  241 
4449 120  935 
4450 906  266 
4451 373  315 
4452 779  69  
4453 428  698 
4454 88   539 
4455 710  607 
4456 586  601 
4457 805  83  
4458 715  608 
4459 455  147 
4460 296  690 
4461 318  819 
4462 890  400 
4463 779  271 
4464 457  862 
4465 654  765 
4466 714  159 
4467 56   488 
4468 493  290 
4469 609  86  
4470 296  439 
4471 332  864 
4472 77   35  
4473 66   276 
4474 691  718 
4475 195  424 
4476 432  598 
4477 967  574 
4478 678  397 
4479 918  508 
4480 560  760 
4481 544  567 
4482 176  753 
4483 637  273 
4484 914  162 
4485 129  301 
4486 534  369 
4487 534  954 
4488 554  368 
4489 807  685 
4490 189  459 
4491 357  90  
4492 431  967 
4493 983  591 
4494 584  679 
4495 565  459 
4496 272  307 
4497 769  619 
4498 272  760 
4499 700  147 
4500 629  558 
4501 25   413 
4502 775  707 
4503 634  238 
4504 48   351 
4505 545  204 
4506 583  652 
4507 180  831 
4508 803  705 
4509 566  943 
4510 953  172 
4511 402  730 
4512 422  852 
4513 21   831 
4514 477  407 
4515 99   51  
4516 938  590 
4517 672  201 
4518 943  179 
4519 156  519 
4520 321  29  
4521 430  535 
4522 324  126 
4523 328  121 
4524 424  973 
4525 152  135 
4526 578  191 
4527 815  643 
4528 778  400 
4529 357  551 
4530 375  605 
4531 214  912 
4532 286  54  
4533 198  643 
4534 987  327 
4535 366  719 
4536 662  583 
4537 183  346 
4538 738  354 
4539 494  675 
4540 42   407 
4541 740  671 
4542 851  65  
4543 656  646 
4544 285  849 
4545 624  944 
4546 751  151 
4547 825  785 
4548 738  798 
4549 902  127 
4550 629  58  
4551 10   953 
4552 335  266 
4553 926  700 
4554 853  900 
4555 800  331 
4556 782  847 
4557 105  734 
4558 968  775 
4559 193  485 
4560 533  774 
4561 567  719 
4562 451  777 
4563 1    157 
4564 993  769 
4565 846  669 
4566 315  509 
4567 9    333 
4568 653  994 
4569 672  826 
4570 178  953 
4571 735  239 
4572 717  5   
4573 465  630 
4574 137  17  
4575 321  348 
4576 449  263 
4577 450  399 
4578 660  923 
4579 494  369 
4580 976  971 
4581 332  943 
4582 228  421 
4583 30   764 
4584 286  72  
4585 237  49  
4586 662  713 
4587 203  225 
4588 663  986 
4589 961  285 
4590 528  685 
4591 193  801 
4592 674  497 
4593 657  79  
4594 34   487 
4595 802  625 
4596 986  693 
4597 253  284 
4598 284  102 
4599 628  982 
4600 251  694 
4601 388  600 
4602 326  178 
4603 539  47  
4604 630  108 
4605 152  912 
4606 279  232 
4607 4    434 
4608 331  584 
4609 174  443 
4610 376  697 
4611 322  781 
4612 864  41  
4613 10   26  
4614 480  290 
4615 117  248 
4616 763  247 
4617 528  902 
4618 822  557 
4619 843  744 
4620 517  306 
4621 744  712 
4622 500  732 
4623 672  421 
4624 359  906 
4625 433  471 
4626 1    382 
4627 510  998 
4628 313  426 
4629 759  638 
4630 761  267 
4631 375  881 
4632 102  651 
4633 818  271 
4634 844  101 
4635 612  823 
4636 424  360 
4637 973  914 
4638 460  414 
4639 849  118 
4640 427  152 
4641 543  163 
4642 266  221 
4643 447  213 
4644 636  775 
4645 855  615 
4646 809  302 
4647 114  76  
4648 630  301 
4649 186  20  
4650 665  49  
4651 618  115 
4652 964  27  
4653 927  748 
4654 109  455 
4655 55   801 
4656 956  186 
4657 23   422 
4658 478  217 
4659 617  614 
4660 297  152 
4661 429  907 
4662 251  727 
4663 490  830 
4664 235  267 
4665 520  565 
4666 41   598 
4667 408  367 
4668 244  107 
4669 562  359 
4670 778  824 
4671 124  513 
4672 481  14  
4673 549  123 
4674 571  543 
4675 880  142 
4676 589  148 
4677 662  842 
4678 738  36  
4679 350  664 
4680 994  804 
4681 207  620 
4682 614  228 
4683 869  100 
4684 501  335 
4685 615  181 
4686 937  262 
4687 958  492 
4688 466  291 
4689 583  332 
4690 273  555 
4691 36   17  
4692 737  868 
4693 112  375 
4694 900  45  
4695 538  383 
4696 740  151 
4697 366  486 
4698 8    253 
4699 137  625 
4700 409  756 
4701 25   718 
4702 174  131 
4703 105  69  
4704 603  137 
4705 824  661 
4706 589  427 
4707 57   221 
4708 147  530 
4709 535  723 
4710 4    137 
4711 939  606 
4712 316  171 
4713 688  393 
4714 796  304 
4715 377  632 
4716 262  636 
4717 160  557 
4718 782  952 
4719 582  608 
4720 35   533 
4721 930  458 
4722 269  742 
4723 397  731 
4724 309  452 
4725 161  271 
4726 55   53  
4727 629  523 
4728 977  26  
4729 226  879 
4730 559  816 
4731 835  475 
4732 801  642 
4733 605  412 
4734 324  860 
4735 548  551 
4736 715  907 
4737 74   651 
4738 573  126 
4739 296  982 
4740 459  514 
4741 977  171 
4742 900  133 
4743 9    828 
4744 778  633 
4745 265  650 
4746 410  575 
4747 653  635 
4748 636  360 
4749 551  209 
4750 112  366 
4751 493  724 
4752 944  561 
4753 906  831 
4754 488  834 
4755 875  606 
4756 125  19  
4757 164  850 
4758 20   929 
4759 725  671 
4760 652  516 
4761 299  353 
4762 447  482 
4763 528  634 
4764 858  391 
4765 767  158 
4766 161  843 
4767 416  520 
4768 109  74  
4769 418  228 
4770 19   597 
4771 19   158 
4772 95   907 
4773 974  465 
4774 703  200 
4775 101  773 
4776 284  669 
4777 926  643 
4778 583  870 
4779 582  746 
4780 466  536 
4781 269  624 
4782 971  128 
4783 241  725 
4784 519  272 
4785 519  223 
4786 64   425 
4787 941  446 
4788 564  911 
4789 819  926 
4790 507  445 
4791 548  224 
4792 18   630 
4793 170  167 
4794 655  267 
4795 569  608 
4796 804  631 
4797 455  202 
4798 203  821 
4799 221  142 
4800 591  307 
4801 993  93  
4802 76   939 
4803 334  343 
4804 37   443 
4805 94   542 
4806 317  667 
4807 640  879 
4808 73   546 
4809 424  864 
4810 719  32  
4811 204  614 
4812 958  54  
4813 318  971 
4814 246  947 
4815 619  762 
4816 728  88  
4817 707  191 
4818 122  645 
4819 374  967 
4820 142  750 
4821 15   211 
4822 805  567 
4823 921  924 
4824 847  140 
4825 448  346 
4826 798  448 
4827 485  849 
4828 452  719 
4829 731  537 
4830 805  306 
4831 893  265 
4832 915  334 
4833 201  412 
4834 203  480 
4835 24   387 
4836 43   481 
4837 558  730 
4838 613  597 
4839 171  251 
4840 869  955 
4841 355  317 
4842 389  539 
4843 139  888 
4844 226  67  
4845 450  539 
4846 949  973 
4847 788  461 
4848 898  80  
4849 75   170 
4850 918  23  
4851 114  451 
4852 830  405 
4853 405  891 
4854 208  900 
4855 652  570 
4856 227  778 
4857 356  260 
4858 928  141 
4859 484  721 
4860 498  866 
4861 548  461 
4862 821  681 
4863 52   618 
4864 438  136 
4865 671  970 
4866 709  712 
4867 899  941 
4868 938  368 
4869 884  31  
4870 994  190 
4871 408  517 
4872 522  652 
4873 702  489 
4874 871  356 
4875 232  969 
4876 946  61  
4877 553  229 
4878 312  75  
4879 163  647 
4880 97   638 
4881 975  186 
4882 478  614 
4883 499  830 
4884 190  737 
4885 251  539 
4886 603  891 
4887 949  385 
4888 533  604 
4889 203  668 
4890 607  922 
4891 755  462 
4892 810  879 
4893 281  91  
4894 427  980 
4895 617  926 
4896 48   399 
4897 877  927 
4898 754  170 
4899 60   978 
4900 848  358 
4901 592  318 
4902 172  800 
4903 943  340 
4904 871  219 
4905 47   771 
4906 233  195 
4907 69   274 
4908 363  867 
4909 694  933 
4910 432  957 
4911 123  556 
4912 592  859 
4913 793  750 
4914 349  34  
4915 442  49  
4916 798  903 
4917 836  350 
4918 691  203 
4919 272  75  
4920 990  992 
4921 57   145 
4922 740  719 
4923 499  177 
4924 482  628 
4925 564  779 
4926 158  60  
4927 983  195 
4928 513  211 
4929 159  269 
4930 159  856 
4931 201  196 
4932 539  642 
4933 739  433 
4934 26   883 
4935 497  507 
4936 80   173 
4937 317  251 
4938 974  969 
4939 732  368 
4940 587  197 
4941 986  762 
4942 937  451 
4943 829  810 
4944 811  867 
4945 661  631 
4946 403  347 
4947 976  375 
4948 189  374 
4949 331  124 
4950 728  504 
4951 284  820 
4952 502  424 
4953 357  277 
4954 765  547 
4955 670  511 
4956 399  942 
4957 365  341 
4958 510  717 
4959 519  937 
4960 537  444 
4961 974  348 
4962 996  615 
4963 99   121 
4964 577  899 
4965 169  333 
4966 636  395 
4967 104  12  
4968 339  432 
4969 360  150 
4970 485  844 
4971 931  833 
4972 566  687 
4973 951  855 
4974 126  642 
4975 254  758 
4976 169  944 
4977 424  456 
4978 169  11  
4979 500  741 
4980 999  54  
4981 447  446 
4982 804  619 
4983 434  746 
4984 821  531 
4985 643  303 
4986 458  414 
4987 789  911 
4988 440  328 
4989 192  622 
4990 45   399 
4991 214  837 
4992 14   219 
4993 469  425 
4994 822  201 
4995 307  258 
4996 515  316 
4997 551  901 
4998 388  500 
4999 561  430 
5000 445  229 
5001 446  205 
DEMAND_SECTION
1    0   
2    4   
3    6   
4    68  
5    10  
6    8   
7    1   
8    4   
9    10  
10   4   
11   6   
12   8   
13   2   
14   2   
15   93  
16   57  
17   69  
18   9   
19   1   
20   7   
21   7   
22   5   
23   1   
24   8   
25   5   
26   6   
27   2   
28   1   
29   8   
30   85  
31   6   
32   50  
33   5   
34   3   
35   2   
36   7   
37   4   
38   10  
39   69  
40   2   
41   5   
42   1   
43   6   
44   10  
45   4   
46   59  
47   2   
48   3   
49   3   
50   10  
51   8   
52   74  
53   60  
54   1   
55   3   
56   7   
57   4   
58   8   
59   9   
60   7   
61   3   
62   4   
63   4   
64   92  
65   10  
66   1   
67   4   
68   4   
69   2   
70   7   
71   4   
72   2   
73   9   
74   7   
75   64  
76   88  
77   1   
78   2   
79   2   
80   8   
81   6   
82   8   
83   2   
84   64  
85   7   
86   2   
87   10  
88   7   
89   7   
90   5   
91   5   
92   75  
93   8   
94   3   
95   1   
96   5   
97   10  
98   1   
99   71  
100  4   
101  4   
102  3   
103  73  
104  6   
105  4   
106  3   
107  1   
108  2   
109  3   
110  5   
111  91  
112  6   
113  6   
114  6   
115  3   
116  51  
117  7   
118  4   
119  1   
120  78  
121  6   
122  2   
123  1   
124  2   
125  5   
126  96  
127  7   
128  10  
129  95  
130  4   
131  9   
132  3   
133  1   
134  7   
135  9   
136  6   
137  2   
138  4   
139  9   
140  10  
141  7   
142  2   
143  3   
144  10  
145  2   
146  1   
147  8   
148  9   
149  10  
150  3   
151  9   
152  5   
153  8   
154  8   
155  8   
156  7   
157  8   
158  69  
159  8   
160  4   
161  7   
162  10  
163  50  
164  4   
165  4   
166  7   
167  10  
168  10  
169  6   
170  2   
171  7   
172  5   
173  4   
174  3   
175  10  
176  61  
177  90  
178  10  
179  6   
180  2   
181  4   
182  10  
183  6   
184  62  
185  8   
186  4   
187  78  
188  3   
189  10  
190  2   
191  7   
192  87  
193  10  
194  4   
195  66  
196  1   
197  1   
198  3   
199  5   
200  2   
201  10  
202  7   
203  6   
204  9   
205  9   
206  7   
207  7   
208  4   
209  2   
210  8   
211  4   
212  8   
213  1   
214  2   
215  5   
216  4   
217  4   
218  7   
219  5   
220  2   
221  1   
222  10  
223  9   
224  2   
225  53  
226  6   
227  6   
228  10  
229  5   
230  7   
231  10  
232  98  
233  5   
234  50  
235  9   
236  83  
237  3   
238  65  
239  7   
240  4   
241  7   
242  53  
243  10  
244  10  
245  7   
246  62  
247  4   
248  9   
249  7   
250  8   
251  2   
252  53  
253  3   
254  5   
255  9   
256  77  
257  9   
258  4   
259  3   
260  83  
261  6   
262  8   
263  3   
264  88  
265  4   
266  4   
267  3   
268  1   
269  69  
270  3   
271  5   
272  1   
273  4   
274  5   
275  9   
276  92  
277  7   
278  3   
279  71  
280  7   
281  4   
282  6   
283  7   
284  10  
285  5   
286  4   
287  6   
288  3   
289  8   
290  8   
291  50  
292  4   
293  9   
294  1   
295  1   
296  6   
297  79  
298  8   
299  6   
300  68  
301  8   
302  98  
303  86  
304  7   
305  3   
306  8   
307  4   
308  5   
309  5   
310  9   
311  1   
312  2   
313  5   
314  9   
315  7   
316  6   
317  9   
318  1   
319  7   
320  3   
321  8   
322  2   
323  90  
324  6   
325  5   
326  9   
327  3   
328  95  
329  2   
330  9   
331  9   
332  9   
333  7   
334  1   
335  9   
336  10  
337  10  
338  74  
339  4   
340  97  
341  10  
342  6   
343  3   
344  52  
345  8   
346  2   
347  60  
348  1   
349  9   
350  10  
351  3   
352  6   
353  7   
354  4   
355  8   
356  10  
357  6   
358  3   
359  10  
360  2   
361  4   
362  56  
363  10  
364  1   
365  9   
366  9   
367  3   
368  7   
369  4   
370  9   
371  9   
372  4   
373  10  
374  10  
375  9   
376  8   
377  2   
378  6   
379  4   
380  1   
381  4   
382  55  
383  8   
384  8   
385  9   
386  4   
387  8   
388  9   
389  1   
390  4   
391  2   
392  9   
393  7   
394  4   
395  3   
396  1   
397  54  
398  10  
399  8   
400  1   
401  9   
402  5   
403  5   
404  97  
405  7   
406  9   
407  10  
408  9   
409  5   
410  7   
411  8   
412  1   
413  6   
414  5   
415  83  
416  10  
417  5   
418  1   
419  10  
420  8   
421  7   
422  7   
423  9   
424  82  
425  5   
426  6   
427  10  
428  1   
429  10  
430  4   
431  8   
432  10  
433  57  
434  3   
435  1   
436  10  
437  3   
438  72  
439  5   
440  7   
441  10  
442  6   
443  5   
444  5   
445  4   
446  2   
447  7   
448  6   
449  4   
450  10  
451  9   
452  2   
453  10  
454  100 
455  1   
456  8   
457  96  
458  9   
459  6   
460  6   
461  10  
462  3   
463  6   
464  5   
465  6   
466  4   
467  2   
468  10  
469  84  
470  6   
471  2   
472  5   
473  5   
474  94  
475  8   
476  2   
477  10  
478  9   
479  1   
480  2   
481  1   
482  6   
483  1   
484  10  
485  10  
486  6   
487  63  
488  9   
489  74  
490  100 
491  6   
492  2   
493  9   
494  6   
495  91  
496  3   
497  85  
498  1   
499  3   
500  3   
501  7   
502  2   
503  9   
504  1   
505  4   
506  68  
507  2   
508  1   
509  5   
510  2   
511  5   
512  59  
513  1   
514  4   
515  5   
516  7   
517  4   
518  3   
519  1   
520  8   
521  3   
522  6   
523  10  
524  57  
525  77  
526  6   
527  88  
528  1   
529  1   
530  9   
531  10  
532  5   
533  2   
534  5   
535  94  
536  73  
537  1   
538  2   
539  4   
540  93  
541  64  
542  2   
543  8   
544  10  
545  6   
546  1   
547  85  
548  79  
549  7   
550  9   
551  10  
552  10  
553  5   
554  2   
555  3   
556  1   
557  5   
558  1   
559  90  
560  3   
561  7   
562  1   
563  7   
564  1   
565  1   
566  3   
567  5   
568  2   
569  8   
570  8   
571  10  
572  7   
573  5   
574  6   
575  6   
576  8   
577  6   
578  9   
579  4   
580  6   
581  90  
582  1   
583  8   
584  9   
585  7   
586  3   
587  7   
588  59  
589  8   
590  5   
591  4   
592  5   
593  7   
594  7   
595  7   
596  2   
597  87  
598  98  
599  2   
600  98  
601  3   
602  4   
603  5   
604  8   
605  9   
606  7   
607  3   
608  6   
609  10  
610  1   
611  4   
612  2   
613  10  
614  10  
615  2   
616  91  
617  9   
618  10  
619  4   
620  53  
621  2   
622  7   
623  3   
624  72  
625  1   
626  5   
627  9   
628  89  
629  84  
630  1   
631  2   
632  60  
633  5   
634  2   
635  5   
636  4   
637  68  
638  1   
639  80  
640  10  
641  4   
642  4   
643  5   
644  7   
645  8   
646  6   
647  7   
648  8   
649  10  
650  9   
651  7   
652  1   
653  1   
654  10  
655  4   
656  1   
657  3   
658  10  
659  9   
660  1   
661  5   
662  10  
663  6   
664  94  
665  9   
666  3   
667  98  
668  2   
669  64  
670  8   
671  6   
672  59  
673  74  
674  6   
675  68  
676  1   
677  8   
678  8   
679  7   
680  3   
681  87  
682  10  
683  1   
684  92  
685  8   
686  3   
687  4   
688  4   
689  9   
690  73  
691  2   
692  8   
693  1   
694  8   
695  65  
696  1   
697  1   
698  1   
699  5   
700  6   
701  55  
702  3   
703  4   
704  3   
705  3   
706  4   
707  6   
708  8   
709  5   
710  6   
711  7   
712  4   
713  71  
714  8   
715  8   
716  2   
717  75  
718  94  
719  4   
720  8   
721  10  
722  69  
723  91  
724  69  
725  6   
726  9   
727  6   
728  3   
729  10  
730  8   
731  8   
732  4   
733  9   
734  8   
735  7   
736  5   
737  82  
738  4   
739  2   
740  5   
741  1   
742  84  
743  5   
744  7   
745  2   
746  3   
747  6   
748  81  
749  80  
750  5   
751  52  
752  96  
753  1   
754  10  
755  76  
756  9   
757  6   
758  6   
759  97  
760  5   
761  5   
762  1   
763  8   
764  10  
765  4   
766  10  
767  10  
768  1   
769  80  
770  10  
771  66  
772  1   
773  3   
774  5   
775  59  
776  4   
777  93  
778  8   
779  8   
780  8   
781  5   
782  50  
783  6   
784  5   
785  5   
786  61  
787  3   
788  10  
789  71  
790  5   
791  3   
792  3   
793  7   
794  10  
795  99  
796  1   
797  6   
798  7   
799  8   
800  10  
801  8   
802  2   
803  5   
804  9   
805  9   
806  7   
807  92  
808  9   
809  9   
810  8   
811  84  
812  3   
813  2   
814  50  
815  5   
816  7   
817  59  
818  8   
819  71  
820  6   
821  9   
822  6   
823  2   
824  1   
825  1   
826  6   
827  58  
828  7   
829  89  
830  83  
831  53  
832  3   
833  9   
834  2   
835  7   
836  9   
837  9   
838  5   
839  9   
840  68  
841  4   
842  10  
843  8   
844  5   
845  7   
846  3   
847  68  
848  4   
849  7   
850  9   
851  3   
852  8   
853  4   
854  8   
855  75  
856  1   
857  5   
858  83  
859  3   
860  66  
861  7   
862  5   
863  1   
864  73  
865  4   
866  2   
867  4   
868  1   
869  4   
870  6   
871  8   
872  7   
873  9   
874  9   
875  5   
876  75  
877  5   
878  9   
879  7   
880  6   
881  3   
882  1   
883  6   
884  3   
885  6   
886  5   
887  7   
888  1   
889  8   
890  7   
891  4   
892  6   
893  69  
894  1   
895  79  
896  1   
897  1   
898  62  
899  5   
900  5   
901  8   
902  7   
903  8   
904  1   
905  5   
906  82  
907  1   
908  1   
909  7   
910  4   
911  10  
912  5   
913  7   
914  5   
915  4   
916  9   
917  10  
918  5   
919  9   
920  7   
921  89  
922  3   
923  94  
924  9   
925  2   
926  3   
927  52  
928  8   
929  4   
930  4   
931  9   
932  7   
933  2   
934  59  
935  69  
936  8   
937  1   
938  5   
939  4   
940  9   
941  9   
942  6   
943  9   
944  3   
945  93  
946  61  
947  8   
948  4   
949  9   
950  8   
951  10  
952  2   
953  3   
954  10  
955  7   
956  7   
957  7   
958  3   
959  84  
960  5   
961  89  
962  75  
963  10  
964  5   
965  4   
966  62  
967  64  
968  1   
969  75  
970  9   
971  3   
972  8   
973  52  
974  100 
975  4   
976  9   
977  3   
978  6   
979  3   
980  9   
981  6   
982  7   
983  5   
984  9   
985  3   
986  3   
987  61  
988  2   
989  10  
990  2   
991  9   
992  5   
993  6   
994  6   
995  5   
996  2   
997  3   
998  79  
999  98  
1000 10  
1001 2   
1002 6   
1003 10  
1004 9   
1005 9   
1006 100 
1007 5   
1008 8   
1009 71  
1010 8   
1011 80  
1012 6   
1013 8   
1014 1   
1015 7   
1016 2   
1017 2   
1018 97  
1019 3   
1020 5   
1021 10  
1022 10  
1023 91  
1024 8   
1025 4   
1026 73  
1027 6   
1028 4   
1029 9   
1030 2   
1031 1   
1032 70  
1033 7   
1034 4   
1035 1   
1036 82  
1037 8   
1038 10  
1039 5   
1040 4   
1041 3   
1042 5   
1043 2   
1044 9   
1045 8   
1046 2   
1047 4   
1048 4   
1049 5   
1050 87  
1051 66  
1052 7   
1053 4   
1054 8   
1055 6   
1056 5   
1057 96  
1058 1   
1059 6   
1060 2   
1061 78  
1062 2   
1063 7   
1064 77  
1065 5   
1066 4   
1067 5   
1068 6   
1069 66  
1070 1   
1071 9   
1072 2   
1073 6   
1074 9   
1075 5   
1076 94  
1077 7   
1078 10  
1079 5   
1080 2   
1081 2   
1082 51  
1083 10  
1084 82  
1085 93  
1086 6   
1087 83  
1088 8   
1089 10  
1090 1   
1091 6   
1092 9   
1093 1   
1094 5   
1095 6   
1096 2   
1097 10  
1098 7   
1099 2   
1100 7   
1101 4   
1102 68  
1103 9   
1104 1   
1105 1   
1106 8   
1107 57  
1108 4   
1109 3   
1110 10  
1111 9   
1112 3   
1113 75  
1114 2   
1115 1   
1116 7   
1117 9   
1118 7   
1119 7   
1120 10  
1121 68  
1122 7   
1123 74  
1124 10  
1125 53  
1126 89  
1127 9   
1128 6   
1129 7   
1130 6   
1131 3   
1132 2   
1133 5   
1134 52  
1135 4   
1136 74  
1137 6   
1138 9   
1139 94  
1140 2   
1141 1   
1142 10  
1143 8   
1144 6   
1145 7   
1146 2   
1147 2   
1148 3   
1149 3   
1150 6   
1151 2   
1152 10  
1153 2   
1154 10  
1155 97  
1156 6   
1157 10  
1158 93  
1159 8   
1160 69  
1161 2   
1162 7   
1163 97  
1164 7   
1165 7   
1166 3   
1167 4   
1168 86  
1169 10  
1170 1   
1171 6   
1172 86  
1173 5   
1174 2   
1175 8   
1176 8   
1177 3   
1178 7   
1179 57  
1180 6   
1181 10  
1182 1   
1183 8   
1184 58  
1185 6   
1186 2   
1187 7   
1188 1   
1189 7   
1190 10  
1191 7   
1192 5   
1193 1   
1194 8   
1195 8   
1196 1   
1197 2   
1198 1   
1199 9   
1200 9   
1201 8   
1202 73  
1203 7   
1204 92  
1205 7   
1206 4   
1207 64  
1208 9   
1209 6   
1210 6   
1211 50  
1212 5   
1213 5   
1214 2   
1215 4   
1216 3   
1217 10  
1218 89  
1219 1   
1220 4   
1221 95  
1222 2   
1223 5   
1224 6   
1225 67  
1226 5   
1227 6   
1228 5   
1229 10  
1230 5   
1231 7   
1232 10  
1233 8   
1234 10  
1235 2   
1236 7   
1237 4   
1238 9   
1239 8   
1240 5   
1241 3   
1242 5   
1243 7   
1244 7   
1245 6   
1246 6   
1247 9   
1248 10  
1249 8   
1250 8   
1251 3   
1252 67  
1253 54  
1254 5   
1255 10  
1256 71  
1257 9   
1258 5   
1259 98  
1260 6   
1261 2   
1262 78  
1263 5   
1264 59  
1265 7   
1266 8   
1267 9   
1268 6   
1269 1   
1270 54  
1271 4   
1272 2   
1273 71  
1274 8   
1275 86  
1276 6   
1277 6   
1278 87  
1279 75  
1280 79  
1281 2   
1282 2   
1283 8   
1284 61  
1285 2   
1286 1   
1287 72  
1288 5   
1289 8   
1290 2   
1291 9   
1292 64  
1293 7   
1294 4   
1295 5   
1296 3   
1297 10  
1298 3   
1299 8   
1300 10  
1301 88  
1302 4   
1303 4   
1304 7   
1305 1   
1306 4   
1307 8   
1308 6   
1309 97  
1310 6   
1311 6   
1312 8   
1313 4   
1314 78  
1315 3   
1316 3   
1317 1   
1318 72  
1319 6   
1320 4   
1321 1   
1322 6   
1323 57  
1324 7   
1325 1   
1326 2   
1327 67  
1328 7   
1329 7   
1330 8   
1331 4   
1332 2   
1333 3   
1334 5   
1335 1   
1336 95  
1337 1   
1338 10  
1339 87  
1340 9   
1341 4   
1342 68  
1343 3   
1344 6   
1345 5   
1346 4   
1347 2   
1348 1   
1349 3   
1350 3   
1351 90  
1352 5   
1353 9   
1354 2   
1355 5   
1356 2   
1357 2   
1358 5   
1359 9   
1360 4   
1361 2   
1362 78  
1363 56  
1364 8   
1365 7   
1366 9   
1367 9   
1368 10  
1369 10  
1370 7   
1371 6   
1372 52  
1373 7   
1374 10  
1375 2   
1376 5   
1377 2   
1378 10  
1379 6   
1380 3   
1381 3   
1382 2   
1383 4   
1384 9   
1385 4   
1386 6   
1387 7   
1388 3   
1389 9   
1390 5   
1391 2   
1392 8   
1393 3   
1394 2   
1395 7   
1396 4   
1397 70  
1398 7   
1399 6   
1400 1   
1401 5   
1402 6   
1403 55  
1404 1   
1405 6   
1406 5   
1407 91  
1408 60  
1409 5   
1410 80  
1411 5   
1412 9   
1413 8   
1414 10  
1415 5   
1416 90  
1417 10  
1418 2   
1419 8   
1420 1   
1421 5   
1422 90  
1423 1   
1424 2   
1425 4   
1426 3   
1427 76  
1428 2   
1429 5   
1430 4   
1431 89  
1432 6   
1433 98  
1434 2   
1435 2   
1436 4   
1437 8   
1438 6   
1439 51  
1440 5   
1441 10  
1442 96  
1443 2   
1444 2   
1445 6   
1446 4   
1447 3   
1448 10  
1449 3   
1450 5   
1451 7   
1452 9   
1453 10  
1454 8   
1455 3   
1456 5   
1457 9   
1458 6   
1459 1   
1460 5   
1461 5   
1462 6   
1463 1   
1464 9   
1465 1   
1466 1   
1467 7   
1468 9   
1469 5   
1470 2   
1471 10  
1472 1   
1473 5   
1474 9   
1475 59  
1476 9   
1477 9   
1478 1   
1479 4   
1480 1   
1481 2   
1482 9   
1483 7   
1484 10  
1485 2   
1486 96  
1487 1   
1488 3   
1489 8   
1490 2   
1491 4   
1492 68  
1493 9   
1494 5   
1495 3   
1496 9   
1497 4   
1498 1   
1499 3   
1500 7   
1501 71  
1502 3   
1503 74  
1504 59  
1505 4   
1506 10  
1507 8   
1508 3   
1509 10  
1510 67  
1511 10  
1512 5   
1513 10  
1514 10  
1515 2   
1516 7   
1517 3   
1518 1   
1519 9   
1520 78  
1521 3   
1522 9   
1523 1   
1524 10  
1525 9   
1526 1   
1527 8   
1528 6   
1529 2   
1530 7   
1531 8   
1532 6   
1533 8   
1534 61  
1535 52  
1536 4   
1537 53  
1538 84  
1539 10  
1540 8   
1541 94  
1542 7   
1543 3   
1544 52  
1545 2   
1546 2   
1547 77  
1548 4   
1549 2   
1550 7   
1551 5   
1552 3   
1553 10  
1554 2   
1555 1   
1556 4   
1557 3   
1558 8   
1559 71  
1560 9   
1561 5   
1562 2   
1563 9   
1564 9   
1565 4   
1566 57  
1567 5   
1568 7   
1569 4   
1570 6   
1571 53  
1572 76  
1573 10  
1574 6   
1575 5   
1576 8   
1577 3   
1578 10  
1579 8   
1580 5   
1581 2   
1582 1   
1583 96  
1584 2   
1585 92  
1586 6   
1587 10  
1588 10  
1589 59  
1590 77  
1591 5   
1592 2   
1593 62  
1594 6   
1595 4   
1596 58  
1597 9   
1598 4   
1599 64  
1600 10  
1601 8   
1602 1   
1603 9   
1604 8   
1605 8   
1606 1   
1607 60  
1608 4   
1609 8   
1610 6   
1611 6   
1612 78  
1613 4   
1614 8   
1615 6   
1616 7   
1617 2   
1618 3   
1619 3   
1620 7   
1621 1   
1622 6   
1623 3   
1624 52  
1625 51  
1626 7   
1627 3   
1628 1   
1629 5   
1630 3   
1631 2   
1632 2   
1633 66  
1634 7   
1635 2   
1636 10  
1637 92  
1638 1   
1639 73  
1640 10  
1641 9   
1642 3   
1643 6   
1644 1   
1645 1   
1646 79  
1647 10  
1648 66  
1649 2   
1650 5   
1651 5   
1652 62  
1653 1   
1654 3   
1655 4   
1656 65  
1657 85  
1658 9   
1659 1   
1660 2   
1661 10  
1662 1   
1663 6   
1664 10  
1665 7   
1666 1   
1667 9   
1668 1   
1669 9   
1670 7   
1671 4   
1672 9   
1673 8   
1674 10  
1675 9   
1676 50  
1677 9   
1678 9   
1679 68  
1680 87  
1681 2   
1682 1   
1683 9   
1684 6   
1685 4   
1686 3   
1687 73  
1688 6   
1689 1   
1690 8   
1691 10  
1692 78  
1693 8   
1694 7   
1695 8   
1696 6   
1697 4   
1698 4   
1699 6   
1700 81  
1701 8   
1702 4   
1703 6   
1704 7   
1705 5   
1706 9   
1707 4   
1708 7   
1709 5   
1710 5   
1711 7   
1712 68  
1713 7   
1714 3   
1715 10  
1716 8   
1717 9   
1718 7   
1719 9   
1720 1   
1721 1   
1722 8   
1723 10  
1724 67  
1725 6   
1726 4   
1727 9   
1728 97  
1729 8   
1730 9   
1731 7   
1732 71  
1733 9   
1734 5   
1735 2   
1736 9   
1737 96  
1738 4   
1739 9   
1740 5   
1741 10  
1742 6   
1743 3   
1744 4   
1745 10  
1746 51  
1747 10  
1748 63  
1749 7   
1750 2   
1751 5   
1752 5   
1753 85  
1754 9   
1755 3   
1756 5   
1757 2   
1758 8   
1759 58  
1760 7   
1761 7   
1762 7   
1763 4   
1764 9   
1765 8   
1766 64  
1767 3   
1768 4   
1769 55  
1770 4   
1771 6   
1772 2   
1773 8   
1774 5   
1775 8   
1776 5   
1777 7   
1778 10  
1779 3   
1780 3   
1781 5   
1782 2   
1783 2   
1784 1   
1785 2   
1786 6   
1787 2   
1788 51  
1789 4   
1790 7   
1791 6   
1792 6   
1793 83  
1794 66  
1795 7   
1796 10  
1797 5   
1798 6   
1799 7   
1800 1   
1801 9   
1802 9   
1803 98  
1804 5   
1805 5   
1806 98  
1807 5   
1808 10  
1809 6   
1810 2   
1811 1   
1812 88  
1813 2   
1814 7   
1815 2   
1816 7   
1817 3   
1818 2   
1819 7   
1820 2   
1821 9   
1822 1   
1823 9   
1824 5   
1825 6   
1826 2   
1827 5   
1828 4   
1829 6   
1830 5   
1831 3   
1832 56  
1833 1   
1834 4   
1835 51  
1836 50  
1837 9   
1838 3   
1839 4   
1840 8   
1841 9   
1842 6   
1843 63  
1844 9   
1845 6   
1846 9   
1847 9   
1848 6   
1849 3   
1850 3   
1851 9   
1852 7   
1853 10  
1854 10  
1855 2   
1856 74  
1857 9   
1858 64  
1859 9   
1860 8   
1861 6   
1862 10  
1863 2   
1864 7   
1865 75  
1866 1   
1867 10  
1868 6   
1869 4   
1870 10  
1871 72  
1872 4   
1873 4   
1874 8   
1875 2   
1876 5   
1877 76  
1878 6   
1879 2   
1880 7   
1881 3   
1882 2   
1883 6   
1884 77  
1885 1   
1886 6   
1887 7   
1888 57  
1889 9   
1890 1   
1891 1   
1892 96  
1893 8   
1894 9   
1895 5   
1896 9   
1897 93  
1898 2   
1899 5   
1900 5   
1901 75  
1902 2   
1903 5   
1904 8   
1905 4   
1906 85  
1907 9   
1908 2   
1909 6   
1910 81  
1911 2   
1912 9   
1913 57  
1914 5   
1915 55  
1916 60  
1917 4   
1918 89  
1919 77  
1920 7   
1921 6   
1922 10  
1923 76  
1924 2   
1925 80  
1926 78  
1927 9   
1928 4   
1929 1   
1930 4   
1931 91  
1932 8   
1933 3   
1934 2   
1935 3   
1936 96  
1937 59  
1938 10  
1939 71  
1940 5   
1941 9   
1942 7   
1943 3   
1944 5   
1945 1   
1946 4   
1947 50  
1948 3   
1949 67  
1950 6   
1951 92  
1952 9   
1953 3   
1954 10  
1955 9   
1956 79  
1957 1   
1958 5   
1959 52  
1960 4   
1961 2   
1962 1   
1963 6   
1964 1   
1965 2   
1966 71  
1967 4   
1968 2   
1969 70  
1970 7   
1971 78  
1972 10  
1973 6   
1974 9   
1975 2   
1976 67  
1977 1   
1978 8   
1979 1   
1980 1   
1981 9   
1982 6   
1983 6   
1984 5   
1985 10  
1986 75  
1987 2   
1988 3   
1989 93  
1990 8   
1991 2   
1992 1   
1993 84  
1994 9   
1995 9   
1996 7   
1997 96  
1998 6   
1999 50  
2000 93  
2001 8   
2002 1   
2003 8   
2004 10  
2005 3   
2006 7   
2007 10  
2008 4   
2009 10  
2010 9   
2011 1   
2012 10  
2013 9   
2014 7   
2015 93  
2016 7   
2017 9   
2018 4   
2019 3   
2020 9   
2021 5   
2022 9   
2023 71  
2024 2   
2025 9   
2026 68  
2027 1   
2028 5   
2029 2   
2030 1   
2031 6   
2032 10  
2033 7   
2034 6   
2035 2   
2036 6   
2037 4   
2038 1   
2039 5   
2040 5   
2041 8   
2042 7   
2043 68  
2044 72  
2045 2   
2046 10  
2047 5   
2048 86  
2049 9   
2050 7   
2051 9   
2052 5   
2053 3   
2054 6   
2055 5   
2056 6   
2057 4   
2058 6   
2059 8   
2060 6   
2061 87  
2062 51  
2063 7   
2064 8   
2065 5   
2066 7   
2067 8   
2068 7   
2069 91  
2070 8   
2071 6   
2072 3   
2073 4   
2074 9   
2075 6   
2076 2   
2077 87  
2078 7   
2079 7   
2080 1   
2081 6   
2082 4   
2083 3   
2084 7   
2085 8   
2086 64  
2087 5   
2088 71  
2089 1   
2090 99  
2091 6   
2092 6   
2093 8   
2094 8   
2095 4   
2096 53  
2097 8   
2098 6   
2099 7   
2100 6   
2101 1   
2102 2   
2103 83  
2104 7   
2105 3   
2106 1   
2107 91  
2108 9   
2109 82  
2110 10  
2111 5   
2112 6   
2113 73  
2114 10  
2115 8   
2116 85  
2117 50  
2118 1   
2119 80  
2120 3   
2121 55  
2122 4   
2123 9   
2124 5   
2125 7   
2126 7   
2127 3   
2128 61  
2129 5   
2130 5   
2131 62  
2132 4   
2133 75  
2134 4   
2135 8   
2136 6   
2137 2   
2138 6   
2139 5   
2140 1   
2141 4   
2142 79  
2143 6   
2144 8   
2145 6   
2146 9   
2147 2   
2148 3   
2149 70  
2150 5   
2151 1   
2152 7   
2153 5   
2154 3   
2155 5   
2156 3   
2157 9   
2158 7   
2159 9   
2160 8   
2161 5   
2162 5   
2163 9   
2164 3   
2165 95  
2166 1   
2167 6   
2168 9   
2169 6   
2170 6   
2171 52  
2172 10  
2173 10  
2174 10  
2175 9   
2176 3   
2177 69  
2178 5   
2179 89  
2180 3   
2181 9   
2182 64  
2183 1   
2184 8   
2185 9   
2186 9   
2187 62  
2188 4   
2189 56  
2190 7   
2191 94  
2192 7   
2193 6   
2194 2   
2195 3   
2196 5   
2197 8   
2198 62  
2199 8   
2200 9   
2201 6   
2202 6   
2203 56  
2204 73  
2205 7   
2206 3   
2207 58  
2208 91  
2209 6   
2210 91  
2211 7   
2212 7   
2213 7   
2214 73  
2215 7   
2216 9   
2217 10  
2218 6   
2219 10  
2220 6   
2221 3   
2222 1   
2223 4   
2224 69  
2225 5   
2226 7   
2227 10  
2228 9   
2229 4   
2230 1   
2231 8   
2232 8   
2233 3   
2234 2   
2235 6   
2236 2   
2237 2   
2238 8   
2239 9   
2240 7   
2241 81  
2242 3   
2243 1   
2244 10  
2245 5   
2246 83  
2247 5   
2248 6   
2249 2   
2250 6   
2251 10  
2252 6   
2253 99  
2254 4   
2255 5   
2256 79  
2257 3   
2258 90  
2259 9   
2260 6   
2261 8   
2262 5   
2263 3   
2264 4   
2265 6   
2266 5   
2267 67  
2268 5   
2269 4   
2270 5   
2271 7   
2272 7   
2273 3   
2274 50  
2275 76  
2276 4   
2277 5   
2278 5   
2279 4   
2280 10  
2281 3   
2282 6   
2283 95  
2284 66  
2285 2   
2286 5   
2287 90  
2288 5   
2289 5   
2290 6   
2291 53  
2292 8   
2293 58  
2294 5   
2295 7   
2296 8   
2297 3   
2298 100 
2299 3   
2300 3   
2301 68  
2302 7   
2303 8   
2304 7   
2305 8   
2306 4   
2307 2   
2308 6   
2309 4   
2310 2   
2311 53  
2312 1   
2313 84  
2314 10  
2315 86  
2316 5   
2317 9   
2318 6   
2319 10  
2320 4   
2321 10  
2322 7   
2323 6   
2324 5   
2325 8   
2326 100 
2327 4   
2328 8   
2329 2   
2330 8   
2331 5   
2332 91  
2333 4   
2334 58  
2335 7   
2336 7   
2337 88  
2338 7   
2339 10  
2340 10  
2341 1   
2342 3   
2343 9   
2344 9   
2345 1   
2346 8   
2347 93  
2348 9   
2349 8   
2350 7   
2351 7   
2352 9   
2353 99  
2354 64  
2355 6   
2356 10  
2357 98  
2358 6   
2359 7   
2360 86  
2361 54  
2362 9   
2363 9   
2364 2   
2365 10  
2366 7   
2367 50  
2368 3   
2369 9   
2370 5   
2371 8   
2372 4   
2373 2   
2374 84  
2375 85  
2376 7   
2377 8   
2378 56  
2379 3   
2380 6   
2381 2   
2382 1   
2383 5   
2384 1   
2385 4   
2386 6   
2387 6   
2388 9   
2389 10  
2390 96  
2391 86  
2392 5   
2393 6   
2394 61  
2395 70  
2396 9   
2397 3   
2398 10  
2399 10  
2400 3   
2401 9   
2402 81  
2403 1   
2404 10  
2405 5   
2406 5   
2407 56  
2408 6   
2409 7   
2410 8   
2411 5   
2412 2   
2413 5   
2414 4   
2415 8   
2416 1   
2417 9   
2418 90  
2419 61  
2420 8   
2421 4   
2422 7   
2423 4   
2424 70  
2425 2   
2426 7   
2427 6   
2428 7   
2429 4   
2430 2   
2431 4   
2432 2   
2433 6   
2434 55  
2435 4   
2436 80  
2437 10  
2438 3   
2439 5   
2440 5   
2441 2   
2442 9   
2443 65  
2444 89  
2445 5   
2446 2   
2447 10  
2448 4   
2449 68  
2450 78  
2451 6   
2452 4   
2453 8   
2454 9   
2455 6   
2456 4   
2457 10  
2458 2   
2459 67  
2460 2   
2461 2   
2462 63  
2463 1   
2464 8   
2465 1   
2466 2   
2467 6   
2468 73  
2469 1   
2470 10  
2471 8   
2472 4   
2473 2   
2474 7   
2475 6   
2476 1   
2477 5   
2478 8   
2479 8   
2480 7   
2481 97  
2482 9   
2483 67  
2484 1   
2485 5   
2486 6   
2487 1   
2488 8   
2489 3   
2490 7   
2491 4   
2492 84  
2493 68  
2494 67  
2495 7   
2496 2   
2497 8   
2498 10  
2499 4   
2500 7   
2501 10  
2502 3   
2503 7   
2504 74  
2505 6   
2506 2   
2507 78  
2508 6   
2509 4   
2510 4   
2511 10  
2512 57  
2513 5   
2514 2   
2515 1   
2516 5   
2517 10  
2518 6   
2519 9   
2520 9   
2521 9   
2522 8   
2523 78  
2524 6   
2525 7   
2526 6   
2527 4   
2528 9   
2529 57  
2530 6   
2531 67  
2532 2   
2533 5   
2534 10  
2535 65  
2536 10  
2537 8   
2538 6   
2539 3   
2540 3   
2541 89  
2542 78  
2543 4   
2544 60  
2545 5   
2546 1   
2547 10  
2548 2   
2549 8   
2550 51  
2551 6   
2552 1   
2553 10  
2554 6   
2555 92  
2556 59  
2557 7   
2558 1   
2559 7   
2560 86  
2561 6   
2562 9   
2563 79  
2564 9   
2565 6   
2566 10  
2567 2   
2568 76  
2569 10  
2570 8   
2571 2   
2572 4   
2573 4   
2574 6   
2575 5   
2576 1   
2577 6   
2578 3   
2579 6   
2580 1   
2581 8   
2582 7   
2583 3   
2584 4   
2585 2   
2586 5   
2587 5   
2588 7   
2589 9   
2590 5   
2591 7   
2592 10  
2593 9   
2594 5   
2595 2   
2596 2   
2597 7   
2598 7   
2599 6   
2600 5   
2601 2   
2602 7   
2603 4   
2604 6   
2605 7   
2606 8   
2607 9   
2608 2   
2609 67  
2610 9   
2611 2   
2612 1   
2613 7   
2614 5   
2615 8   
2616 5   
2617 75  
2618 10  
2619 1   
2620 53  
2621 9   
2622 5   
2623 3   
2624 67  
2625 2   
2626 3   
2627 3   
2628 6   
2629 4   
2630 2   
2631 72  
2632 6   
2633 7   
2634 4   
2635 10  
2636 2   
2637 4   
2638 1   
2639 2   
2640 7   
2641 99  
2642 5   
2643 5   
2644 1   
2645 2   
2646 4   
2647 8   
2648 10  
2649 8   
2650 3   
2651 6   
2652 69  
2653 1   
2654 90  
2655 3   
2656 2   
2657 5   
2658 2   
2659 4   
2660 6   
2661 4   
2662 55  
2663 6   
2664 8   
2665 6   
2666 7   
2667 4   
2668 5   
2669 1   
2670 10  
2671 5   
2672 58  
2673 5   
2674 3   
2675 1   
2676 6   
2677 84  
2678 55  
2679 2   
2680 10  
2681 92  
2682 91  
2683 8   
2684 60  
2685 6   
2686 10  
2687 9   
2688 7   
2689 97  
2690 2   
2691 2   
2692 68  
2693 76  
2694 78  
2695 61  
2696 5   
2697 2   
2698 10  
2699 71  
2700 6   
2701 88  
2702 8   
2703 1   
2704 89  
2705 70  
2706 51  
2707 4   
2708 94  
2709 4   
2710 1   
2711 57  
2712 2   
2713 5   
2714 6   
2715 4   
2716 6   
2717 10  
2718 1   
2719 1   
2720 83  
2721 10  
2722 2   
2723 3   
2724 10  
2725 6   
2726 6   
2727 10  
2728 3   
2729 1   
2730 6   
2731 3   
2732 2   
2733 3   
2734 8   
2735 1   
2736 10  
2737 10  
2738 6   
2739 4   
2740 8   
2741 9   
2742 6   
2743 4   
2744 10  
2745 3   
2746 3   
2747 3   
2748 6   
2749 3   
2750 1   
2751 1   
2752 87  
2753 5   
2754 8   
2755 6   
2756 83  
2757 8   
2758 5   
2759 3   
2760 90  
2761 7   
2762 6   
2763 5   
2764 5   
2765 67  
2766 5   
2767 6   
2768 6   
2769 66  
2770 77  
2771 5   
2772 8   
2773 72  
2774 2   
2775 97  
2776 9   
2777 8   
2778 9   
2779 1   
2780 8   
2781 70  
2782 10  
2783 1   
2784 5   
2785 7   
2786 10  
2787 3   
2788 77  
2789 9   
2790 89  
2791 99  
2792 10  
2793 56  
2794 10  
2795 8   
2796 8   
2797 5   
2798 2   
2799 10  
2800 7   
2801 7   
2802 1   
2803 6   
2804 2   
2805 73  
2806 8   
2807 8   
2808 6   
2809 9   
2810 3   
2811 9   
2812 95  
2813 7   
2814 1   
2815 9   
2816 4   
2817 2   
2818 62  
2819 3   
2820 10  
2821 3   
2822 8   
2823 2   
2824 4   
2825 10  
2826 1   
2827 1   
2828 8   
2829 3   
2830 3   
2831 10  
2832 3   
2833 9   
2834 5   
2835 10  
2836 10  
2837 8   
2838 4   
2839 3   
2840 9   
2841 10  
2842 2   
2843 9   
2844 7   
2845 4   
2846 9   
2847 99  
2848 2   
2849 7   
2850 2   
2851 2   
2852 3   
2853 71  
2854 1   
2855 97  
2856 1   
2857 85  
2858 9   
2859 9   
2860 8   
2861 5   
2862 8   
2863 2   
2864 6   
2865 7   
2866 1   
2867 1   
2868 8   
2869 84  
2870 6   
2871 5   
2872 75  
2873 3   
2874 6   
2875 8   
2876 50  
2877 64  
2878 1   
2879 4   
2880 1   
2881 3   
2882 10  
2883 3   
2884 92  
2885 10  
2886 5   
2887 7   
2888 6   
2889 5   
2890 1   
2891 2   
2892 1   
2893 7   
2894 2   
2895 6   
2896 7   
2897 1   
2898 9   
2899 7   
2900 67  
2901 3   
2902 9   
2903 59  
2904 6   
2905 8   
2906 10  
2907 3   
2908 7   
2909 61  
2910 100 
2911 5   
2912 4   
2913 6   
2914 89  
2915 6   
2916 5   
2917 6   
2918 4   
2919 5   
2920 5   
2921 5   
2922 66  
2923 10  
2924 2   
2925 1   
2926 4   
2927 8   
2928 3   
2929 9   
2930 2   
2931 6   
2932 9   
2933 1   
2934 3   
2935 6   
2936 8   
2937 1   
2938 1   
2939 6   
2940 1   
2941 94  
2942 6   
2943 97  
2944 8   
2945 3   
2946 3   
2947 9   
2948 2   
2949 10  
2950 9   
2951 5   
2952 4   
2953 4   
2954 10  
2955 6   
2956 5   
2957 79  
2958 2   
2959 10  
2960 81  
2961 3   
2962 7   
2963 4   
2964 91  
2965 4   
2966 6   
2967 1   
2968 6   
2969 71  
2970 6   
2971 91  
2972 3   
2973 9   
2974 1   
2975 69  
2976 3   
2977 2   
2978 1   
2979 4   
2980 88  
2981 93  
2982 3   
2983 3   
2984 9   
2985 87  
2986 1   
2987 1   
2988 8   
2989 2   
2990 4   
2991 9   
2992 5   
2993 1   
2994 91  
2995 3   
2996 88  
2997 83  
2998 3   
2999 8   
3000 3   
3001 10  
3002 4   
3003 8   
3004 77  
3005 2   
3006 3   
3007 10  
3008 10  
3009 4   
3010 4   
3011 86  
3012 2   
3013 77  
3014 52  
3015 6   
3016 77  
3017 5   
3018 5   
3019 2   
3020 84  
3021 5   
3022 97  
3023 4   
3024 4   
3025 2   
3026 1   
3027 7   
3028 83  
3029 1   
3030 7   
3031 7   
3032 7   
3033 9   
3034 10  
3035 8   
3036 96  
3037 71  
3038 4   
3039 87  
3040 7   
3041 1   
3042 77  
3043 99  
3044 7   
3045 10  
3046 71  
3047 8   
3048 6   
3049 7   
3050 1   
3051 10  
3052 5   
3053 80  
3054 67  
3055 81  
3056 6   
3057 8   
3058 4   
3059 4   
3060 2   
3061 9   
3062 5   
3063 5   
3064 9   
3065 9   
3066 9   
3067 4   
3068 91  
3069 4   
3070 9   
3071 4   
3072 4   
3073 7   
3074 2   
3075 7   
3076 92  
3077 3   
3078 1   
3079 10  
3080 10  
3081 3   
3082 8   
3083 9   
3084 57  
3085 1   
3086 2   
3087 10  
3088 5   
3089 5   
3090 4   
3091 98  
3092 8   
3093 7   
3094 91  
3095 52  
3096 82  
3097 1   
3098 4   
3099 8   
3100 8   
3101 8   
3102 7   
3103 10  
3104 7   
3105 6   
3106 53  
3107 6   
3108 8   
3109 2   
3110 1   
3111 9   
3112 8   
3113 8   
3114 75  
3115 5   
3116 1   
3117 7   
3118 3   
3119 6   
3120 5   
3121 5   
3122 10  
3123 5   
3124 53  
3125 1   
3126 3   
3127 8   
3128 55  
3129 9   
3130 1   
3131 5   
3132 88  
3133 52  
3134 1   
3135 9   
3136 6   
3137 7   
3138 4   
3139 1   
3140 4   
3141 3   
3142 10  
3143 7   
3144 82  
3145 3   
3146 5   
3147 71  
3148 2   
3149 65  
3150 1   
3151 3   
3152 5   
3153 1   
3154 10  
3155 4   
3156 4   
3157 9   
3158 10  
3159 1   
3160 69  
3161 8   
3162 1   
3163 62  
3164 9   
3165 4   
3166 92  
3167 4   
3168 4   
3169 1   
3170 6   
3171 1   
3172 10  
3173 1   
3174 65  
3175 4   
3176 9   
3177 79  
3178 7   
3179 2   
3180 8   
3181 2   
3182 4   
3183 98  
3184 9   
3185 1   
3186 3   
3187 65  
3188 4   
3189 10  
3190 9   
3191 2   
3192 7   
3193 2   
3194 81  
3195 4   
3196 5   
3197 4   
3198 8   
3199 8   
3200 3   
3201 3   
3202 97  
3203 9   
3204 9   
3205 10  
3206 1   
3207 4   
3208 79  
3209 1   
3210 4   
3211 10  
3212 7   
3213 1   
3214 3   
3215 10  
3216 4   
3217 8   
3218 91  
3219 2   
3220 10  
3221 96  
3222 2   
3223 3   
3224 2   
3225 9   
3226 4   
3227 7   
3228 10  
3229 80  
3230 5   
3231 6   
3232 10  
3233 10  
3234 1   
3235 1   
3236 9   
3237 79  
3238 3   
3239 2   
3240 6   
3241 93  
3242 3   
3243 2   
3244 79  
3245 2   
3246 3   
3247 2   
3248 86  
3249 10  
3250 6   
3251 4   
3252 8   
3253 5   
3254 4   
3255 8   
3256 3   
3257 56  
3258 80  
3259 7   
3260 9   
3261 5   
3262 10  
3263 59  
3264 6   
3265 2   
3266 10  
3267 9   
3268 2   
3269 5   
3270 5   
3271 4   
3272 5   
3273 1   
3274 5   
3275 10  
3276 9   
3277 7   
3278 7   
3279 3   
3280 7   
3281 7   
3282 95  
3283 1   
3284 10  
3285 84  
3286 5   
3287 10  
3288 56  
3289 5   
3290 7   
3291 2   
3292 7   
3293 3   
3294 54  
3295 85  
3296 6   
3297 96  
3298 1   
3299 9   
3300 3   
3301 7   
3302 52  
3303 2   
3304 4   
3305 4   
3306 50  
3307 2   
3308 7   
3309 1   
3310 6   
3311 1   
3312 10  
3313 4   
3314 1   
3315 64  
3316 9   
3317 60  
3318 3   
3319 1   
3320 98  
3321 9   
3322 2   
3323 5   
3324 76  
3325 1   
3326 10  
3327 6   
3328 65  
3329 2   
3330 2   
3331 2   
3332 57  
3333 7   
3334 95  
3335 2   
3336 4   
3337 3   
3338 1   
3339 10  
3340 3   
3341 53  
3342 2   
3343 10  
3344 6   
3345 1   
3346 1   
3347 10  
3348 4   
3349 3   
3350 66  
3351 1   
3352 8   
3353 10  
3354 69  
3355 7   
3356 7   
3357 3   
3358 3   
3359 2   
3360 78  
3361 5   
3362 51  
3363 5   
3364 2   
3365 3   
3366 6   
3367 69  
3368 9   
3369 94  
3370 3   
3371 9   
3372 6   
3373 7   
3374 6   
3375 7   
3376 1   
3377 3   
3378 9   
3379 9   
3380 73  
3381 4   
3382 8   
3383 1   
3384 2   
3385 9   
3386 85  
3387 54  
3388 8   
3389 10  
3390 5   
3391 10  
3392 8   
3393 10  
3394 10  
3395 7   
3396 2   
3397 9   
3398 4   
3399 86  
3400 7   
3401 3   
3402 10  
3403 86  
3404 5   
3405 2   
3406 78  
3407 10  
3408 7   
3409 63  
3410 5   
3411 4   
3412 5   
3413 100 
3414 50  
3415 4   
3416 3   
3417 96  
3418 9   
3419 6   
3420 8   
3421 4   
3422 6   
3423 2   
3424 3   
3425 8   
3426 7   
3427 8   
3428 5   
3429 4   
3430 8   
3431 76  
3432 1   
3433 6   
3434 6   
3435 5   
3436 2   
3437 10  
3438 4   
3439 93  
3440 99  
3441 1   
3442 8   
3443 1   
3444 99  
3445 9   
3446 6   
3447 91  
3448 3   
3449 6   
3450 5   
3451 61  
3452 9   
3453 10  
3454 10  
3455 6   
3456 2   
3457 5   
3458 1   
3459 6   
3460 1   
3461 2   
3462 8   
3463 1   
3464 8   
3465 8   
3466 2   
3467 6   
3468 3   
3469 8   
3470 9   
3471 8   
3472 6   
3473 10  
3474 3   
3475 4   
3476 9   
3477 1   
3478 4   
3479 4   
3480 4   
3481 10  
3482 2   
3483 1   
3484 5   
3485 4   
3486 7   
3487 3   
3488 4   
3489 1   
3490 4   
3491 6   
3492 52  
3493 6   
3494 6   
3495 2   
3496 9   
3497 62  
3498 9   
3499 4   
3500 9   
3501 59  
3502 3   
3503 9   
3504 1   
3505 4   
3506 66  
3507 3   
3508 2   
3509 68  
3510 3   
3511 5   
3512 2   
3513 6   
3514 2   
3515 8   
3516 2   
3517 2   
3518 9   
3519 9   
3520 9   
3521 2   
3522 7   
3523 100 
3524 2   
3525 6   
3526 2   
3527 4   
3528 5   
3529 4   
3530 88  
3531 4   
3532 7   
3533 57  
3534 10  
3535 8   
3536 94  
3537 7   
3538 9   
3539 60  
3540 52  
3541 7   
3542 1   
3543 9   
3544 4   
3545 3   
3546 8   
3547 5   
3548 2   
3549 73  
3550 4   
3551 10  
3552 7   
3553 96  
3554 6   
3555 5   
3556 9   
3557 8   
3558 10  
3559 7   
3560 4   
3561 2   
3562 6   
3563 4   
3564 7   
3565 4   
3566 9   
3567 3   
3568 1   
3569 3   
3570 8   
3571 68  
3572 3   
3573 5   
3574 3   
3575 1   
3576 1   
3577 4   
3578 1   
3579 7   
3580 2   
3581 8   
3582 1   
3583 1   
3584 4   
3585 1   
3586 6   
3587 6   
3588 6   
3589 8   
3590 5   
3591 1   
3592 8   
3593 7   
3594 71  
3595 1   
3596 6   
3597 9   
3598 6   
3599 6   
3600 10  
3601 9   
3602 1   
3603 8   
3604 7   
3605 10  
3606 9   
3607 9   
3608 5   
3609 9   
3610 2   
3611 10  
3612 10  
3613 9   
3614 3   
3615 74  
3616 10  
3617 7   
3618 1   
3619 7   
3620 98  
3621 53  
3622 85  
3623 10  
3624 3   
3625 8   
3626 5   
3627 51  
3628 7   
3629 6   
3630 1   
3631 2   
3632 2   
3633 4   
3634 3   
3635 2   
3636 5   
3637 1   
3638 1   
3639 92  
3640 86  
3641 2   
3642 9   
3643 4   
3644 7   
3645 98  
3646 10  
3647 5   
3648 2   
3649 6   
3650 56  
3651 3   
3652 8   
3653 4   
3654 9   
3655 2   
3656 5   
3657 10  
3658 3   
3659 6   
3660 3   
3661 6   
3662 9   
3663 5   
3664 3   
3665 9   
3666 77  
3667 7   
3668 3   
3669 68  
3670 57  
3671 2   
3672 96  
3673 5   
3674 50  
3675 1   
3676 8   
3677 5   
3678 10  
3679 2   
3680 94  
3681 2   
3682 10  
3683 6   
3684 8   
3685 52  
3686 74  
3687 4   
3688 2   
3689 1   
3690 9   
3691 10  
3692 8   
3693 4   
3694 8   
3695 1   
3696 5   
3697 6   
3698 79  
3699 5   
3700 99  
3701 86  
3702 93  
3703 5   
3704 2   
3705 5   
3706 3   
3707 2   
3708 3   
3709 3   
3710 2   
3711 9   
3712 61  
3713 91  
3714 83  
3715 3   
3716 1   
3717 7   
3718 8   
3719 8   
3720 6   
3721 67  
3722 6   
3723 9   
3724 1   
3725 6   
3726 1   
3727 4   
3728 6   
3729 5   
3730 6   
3731 76  
3732 6   
3733 73  
3734 8   
3735 75  
3736 9   
3737 7   
3738 59  
3739 9   
3740 8   
3741 79  
3742 94  
3743 10  
3744 5   
3745 85  
3746 4   
3747 3   
3748 1   
3749 4   
3750 2   
3751 6   
3752 3   
3753 7   
3754 6   
3755 80  
3756 3   
3757 2   
3758 10  
3759 58  
3760 1   
3761 94  
3762 56  
3763 91  
3764 1   
3765 1   
3766 5   
3767 93  
3768 4   
3769 4   
3770 1   
3771 95  
3772 85  
3773 58  
3774 94  
3775 5   
3776 6   
3777 8   
3778 10  
3779 64  
3780 9   
3781 8   
3782 1   
3783 99  
3784 70  
3785 9   
3786 9   
3787 4   
3788 5   
3789 90  
3790 5   
3791 6   
3792 3   
3793 4   
3794 4   
3795 2   
3796 7   
3797 7   
3798 2   
3799 2   
3800 10  
3801 5   
3802 5   
3803 10  
3804 86  
3805 7   
3806 1   
3807 9   
3808 9   
3809 3   
3810 94  
3811 9   
3812 1   
3813 3   
3814 83  
3815 6   
3816 4   
3817 6   
3818 5   
3819 5   
3820 2   
3821 5   
3822 6   
3823 61  
3824 2   
3825 57  
3826 74  
3827 1   
3828 1   
3829 9   
3830 9   
3831 2   
3832 4   
3833 9   
3834 3   
3835 4   
3836 2   
3837 3   
3838 9   
3839 3   
3840 1   
3841 3   
3842 9   
3843 7   
3844 86  
3845 8   
3846 9   
3847 87  
3848 71  
3849 3   
3850 8   
3851 9   
3852 2   
3853 6   
3854 4   
3855 93  
3856 54  
3857 10  
3858 5   
3859 3   
3860 1   
3861 8   
3862 6   
3863 61  
3864 83  
3865 3   
3866 3   
3867 96  
3868 6   
3869 10  
3870 8   
3871 99  
3872 5   
3873 5   
3874 1   
3875 3   
3876 4   
3877 87  
3878 6   
3879 10  
3880 5   
3881 4   
3882 2   
3883 79  
3884 94  
3885 3   
3886 6   
3887 8   
3888 4   
3889 2   
3890 3   
3891 7   
3892 1   
3893 66  
3894 72  
3895 1   
3896 9   
3897 6   
3898 2   
3899 100 
3900 9   
3901 4   
3902 52  
3903 5   
3904 9   
3905 10  
3906 5   
3907 8   
3908 4   
3909 10  
3910 72  
3911 10  
3912 7   
3913 10  
3914 76  
3915 5   
3916 57  
3917 10  
3918 5   
3919 8   
3920 7   
3921 4   
3922 8   
3923 9   
3924 6   
3925 95  
3926 67  
3927 4   
3928 60  
3929 4   
3930 3   
3931 2   
3932 91  
3933 5   
3934 10  
3935 10  
3936 5   
3937 6   
3938 76  
3939 6   
3940 4   
3941 58  
3942 75  
3943 3   
3944 9   
3945 9   
3946 3   
3947 7   
3948 7   
3949 3   
3950 3   
3951 1   
3952 8   
3953 9   
3954 7   
3955 5   
3956 7   
3957 4   
3958 5   
3959 8   
3960 3   
3961 4   
3962 2   
3963 5   
3964 4   
3965 5   
3966 10  
3967 10  
3968 4   
3969 1   
3970 5   
3971 53  
3972 7   
3973 4   
3974 62  
3975 10  
3976 2   
3977 7   
3978 5   
3979 5   
3980 5   
3981 1   
3982 2   
3983 65  
3984 4   
3985 1   
3986 2   
3987 4   
3988 1   
3989 9   
3990 3   
3991 3   
3992 10  
3993 10  
3994 3   
3995 1   
3996 73  
3997 86  
3998 9   
3999 66  
4000 7   
4001 3   
4002 1   
4003 10  
4004 2   
4005 3   
4006 3   
4007 7   
4008 5   
4009 1   
4010 5   
4011 9   
4012 7   
4013 1   
4014 4   
4015 10  
4016 1   
4017 9   
4018 7   
4019 87  
4020 4   
4021 9   
4022 5   
4023 4   
4024 6   
4025 2   
4026 2   
4027 85  
4028 3   
4029 1   
4030 8   
4031 69  
4032 9   
4033 5   
4034 3   
4035 3   
4036 84  
4037 7   
4038 5   
4039 66  
4040 3   
4041 5   
4042 9   
4043 7   
4044 10  
4045 78  
4046 1   
4047 1   
4048 93  
4049 1   
4050 50  
4051 6   
4052 2   
4053 1   
4054 4   
4055 10  
4056 69  
4057 1   
4058 8   
4059 6   
4060 8   
4061 8   
4062 4   
4063 61  
4064 50  
4065 10  
4066 4   
4067 10  
4068 2   
4069 1   
4070 76  
4071 10  
4072 7   
4073 5   
4074 1   
4075 5   
4076 2   
4077 4   
4078 9   
4079 6   
4080 8   
4081 7   
4082 2   
4083 5   
4084 10  
4085 6   
4086 3   
4087 2   
4088 5   
4089 7   
4090 5   
4091 2   
4092 9   
4093 9   
4094 9   
4095 1   
4096 68  
4097 56  
4098 9   
4099 8   
4100 8   
4101 91  
4102 67  
4103 7   
4104 4   
4105 2   
4106 2   
4107 5   
4108 3   
4109 3   
4110 4   
4111 51  
4112 1   
4113 1   
4114 4   
4115 8   
4116 3   
4117 7   
4118 5   
4119 7   
4120 7   
4121 4   
4122 1   
4123 5   
4124 95  
4125 2   
4126 6   
4127 1   
4128 95  
4129 78  
4130 7   
4131 4   
4132 7   
4133 63  
4134 51  
4135 78  
4136 7   
4137 9   
4138 2   
4139 3   
4140 10  
4141 8   
4142 2   
4143 9   
4144 10  
4145 3   
4146 1   
4147 66  
4148 54  
4149 9   
4150 1   
4151 7   
4152 2   
4153 2   
4154 9   
4155 4   
4156 5   
4157 5   
4158 3   
4159 10  
4160 6   
4161 2   
4162 3   
4163 1   
4164 4   
4165 7   
4166 4   
4167 54  
4168 1   
4169 2   
4170 81  
4171 5   
4172 8   
4173 8   
4174 1   
4175 10  
4176 1   
4177 79  
4178 6   
4179 2   
4180 6   
4181 5   
4182 6   
4183 3   
4184 6   
4185 9   
4186 6   
4187 65  
4188 5   
4189 7   
4190 2   
4191 7   
4192 71  
4193 4   
4194 9   
4195 5   
4196 68  
4197 99  
4198 4   
4199 2   
4200 7   
4201 9   
4202 8   
4203 3   
4204 2   
4205 6   
4206 2   
4207 5   
4208 5   
4209 1   
4210 98  
4211 7   
4212 4   
4213 2   
4214 7   
4215 6   
4216 52  
4217 10  
4218 3   
4219 51  
4220 6   
4221 1   
4222 4   
4223 9   
4224 69  
4225 4   
4226 6   
4227 5   
4228 1   
4229 66  
4230 8   
4231 7   
4232 2   
4233 60  
4234 6   
4235 10  
4236 3   
4237 89  
4238 77  
4239 7   
4240 8   
4241 8   
4242 90  
4243 6   
4244 98  
4245 3   
4246 90  
4247 4   
4248 6   
4249 67  
4250 2   
4251 83  
4252 7   
4253 52  
4254 8   
4255 1   
4256 3   
4257 5   
4258 3   
4259 5   
4260 72  
4261 6   
4262 7   
4263 1   
4264 9   
4265 68  
4266 2   
4267 3   
4268 8   
4269 1   
4270 5   
4271 89  
4272 1   
4273 60  
4274 2   
4275 2   
4276 3   
4277 61  
4278 7   
4279 72  
4280 1   
4281 8   
4282 3   
4283 8   
4284 7   
4285 2   
4286 5   
4287 8   
4288 7   
4289 56  
4290 9   
4291 1   
4292 6   
4293 8   
4294 1   
4295 5   
4296 4   
4297 4   
4298 3   
4299 4   
4300 1   
4301 7   
4302 2   
4303 2   
4304 3   
4305 6   
4306 5   
4307 8   
4308 96  
4309 6   
4310 5   
4311 8   
4312 5   
4313 6   
4314 7   
4315 5   
4316 9   
4317 1   
4318 91  
4319 8   
4320 52  
4321 68  
4322 1   
4323 71  
4324 2   
4325 9   
4326 8   
4327 10  
4328 4   
4329 10  
4330 9   
4331 5   
4332 10  
4333 8   
4334 7   
4335 5   
4336 2   
4337 3   
4338 9   
4339 3   
4340 54  
4341 4   
4342 2   
4343 8   
4344 2   
4345 5   
4346 10  
4347 6   
4348 3   
4349 1   
4350 5   
4351 10  
4352 6   
4353 7   
4354 10  
4355 3   
4356 1   
4357 51  
4358 9   
4359 64  
4360 3   
4361 2   
4362 97  
4363 6   
4364 88  
4365 95  
4366 7   
4367 53  
4368 2   
4369 99  
4370 5   
4371 10  
4372 7   
4373 3   
4374 2   
4375 99  
4376 4   
4377 4   
4378 77  
4379 6   
4380 1   
4381 1   
4382 7   
4383 5   
4384 6   
4385 9   
4386 1   
4387 3   
4388 8   
4389 2   
4390 6   
4391 4   
4392 9   
4393 8   
4394 80  
4395 62  
4396 8   
4397 6   
4398 2   
4399 6   
4400 4   
4401 3   
4402 7   
4403 65  
4404 80  
4405 4   
4406 1   
4407 4   
4408 6   
4409 9   
4410 5   
4411 2   
4412 5   
4413 9   
4414 8   
4415 10  
4416 7   
4417 3   
4418 58  
4419 4   
4420 9   
4421 1   
4422 56  
4423 2   
4424 55  
4425 2   
4426 3   
4427 58  
4428 74  
4429 4   
4430 6   
4431 6   
4432 10  
4433 8   
4434 9   
4435 72  
4436 3   
4437 8   
4438 9   
4439 6   
4440 9   
4441 3   
4442 5   
4443 5   
4444 6   
4445 6   
4446 6   
4447 62  
4448 3   
4449 9   
4450 7   
4451 10  
4452 60  
4453 8   
4454 3   
4455 3   
4456 1   
4457 6   
4458 3   
4459 1   
4460 8   
4461 75  
4462 5   
4463 10  
4464 98  
4465 8   
4466 1   
4467 9   
4468 6   
4469 10  
4470 10  
4471 4   
4472 92  
4473 7   
4474 10  
4475 10  
4476 1   
4477 4   
4478 75  
4479 1   
4480 6   
4481 7   
4482 2   
4483 1   
4484 1   
4485 1   
4486 95  
4487 8   
4488 5   
4489 1   
4490 4   
4491 2   
4492 93  
4493 10  
4494 6   
4495 4   
4496 10  
4497 78  
4498 2   
4499 4   
4500 2   
4501 6   
4502 7   
4503 98  
4504 1   
4505 55  
4506 3   
4507 2   
4508 8   
4509 9   
4510 1   
4511 1   
4512 9   
4513 2   
4514 67  
4515 8   
4516 6   
4517 5   
4518 96  
4519 9   
4520 9   
4521 5   
4522 8   
4523 100 
4524 7   
4525 70  
4526 7   
4527 1   
4528 7   
4529 3   
4530 5   
4531 7   
4532 81  
4533 92  
4534 5   
4535 7   
4536 80  
4537 10  
4538 80  
4539 9   
4540 6   
4541 8   
4542 5   
4543 3   
4544 5   
4545 10  
4546 10  
4547 7   
4548 4   
4549 6   
4550 93  
4551 3   
4552 3   
4553 7   
4554 1   
4555 10  
4556 7   
4557 10  
4558 6   
4559 64  
4560 75  
4561 2   
4562 7   
4563 88  
4564 9   
4565 5   
4566 3   
4567 2   
4568 85  
4569 77  
4570 10  
4571 9   
4572 3   
4573 3   
4574 1   
4575 81  
4576 1   
4577 4   
4578 7   
4579 5   
4580 7   
4581 7   
4582 4   
4583 84  
4584 3   
4585 9   
4586 9   
4587 9   
4588 1   
4589 10  
4590 1   
4591 4   
4592 5   
4593 10  
4594 5   
4595 2   
4596 3   
4597 2   
4598 8   
4599 88  
4600 93  
4601 7   
4602 10  
4603 3   
4604 7   
4605 1   
4606 5   
4607 9   
4608 10  
4609 3   
4610 87  
4611 92  
4612 3   
4613 85  
4614 7   
4615 8   
4616 93  
4617 68  
4618 8   
4619 6   
4620 7   
4621 81  
4622 89  
4623 4   
4624 68  
4625 2   
4626 3   
4627 10  
4628 8   
4629 1   
4630 73  
4631 10  
4632 1   
4633 3   
4634 6   
4635 10  
4636 4   
4637 6   
4638 81  
4639 3   
4640 9   
4641 5   
4642 7   
4643 10  
4644 7   
4645 90  
4646 88  
4647 5   
4648 1   
4649 3   
4650 1   
4651 4   
4652 59  
4653 7   
4654 76  
4655 6   
4656 9   
4657 5   
4658 3   
4659 99  
4660 1   
4661 9   
4662 9   
4663 7   
4664 1   
4665 2   
4666 3   
4667 6   
4668 61  
4669 10  
4670 2   
4671 85  
4672 88  
4673 7   
4674 6   
4675 60  
4676 6   
4677 3   
4678 1   
4679 6   
4680 2   
4681 1   
4682 9   
4683 4   
4684 6   
4685 9   
4686 5   
4687 6   
4688 4   
4689 10  
4690 3   
4691 82  
4692 4   
4693 70  
4694 5   
4695 7   
4696 96  
4697 6   
4698 4   
4699 7   
4700 10  
4701 1   
4702 6   
4703 54  
4704 2   
4705 3   
4706 5   
4707 1   
4708 8   
4709 6   
4710 2   
4711 92  
4712 9   
4713 1   
4714 3   
4715 2   
4716 77  
4717 1   
4718 8   
4719 5   
4720 10  
4721 5   
4722 8   
4723 9   
4724 10  
4725 76  
4726 5   
4727 90  
4728 8   
4729 2   
4730 9   
4731 78  
4732 70  
4733 92  
4734 10  
4735 5   
4736 9   
4737 2   
4738 2   
4739 71  
4740 67  
4741 96  
4742 6   
4743 6   
4744 52  
4745 7   
4746 91  
4747 79  
4748 5   
4749 7   
4750 1   
4751 4   
4752 73  
4753 7   
4754 80  
4755 82  
4756 1   
4757 1   
4758 3   
4759 84  
4760 7   
4761 5   
4762 91  
4763 2   
4764 92  
4765 6   
4766 1   
4767 10  
4768 4   
4769 4   
4770 2   
4771 4   
4772 8   
4773 8   
4774 74  
4775 10  
4776 10  
4777 4   
4778 3   
4779 7   
4780 1   
4781 95  
4782 3   
4783 5   
4784 5   
4785 90  
4786 5   
4787 94  
4788 1   
4789 9   
4790 10  
4791 1   
4792 93  
4793 2   
4794 5   
4795 91  
4796 75  
4797 6   
4798 1   
4799 1   
4800 4   
4801 71  
4802 1   
4803 10  
4804 6   
4805 7   
4806 5   
4807 8   
4808 9   
4809 5   
4810 1   
4811 8   
4812 5   
4813 9   
4814 7   
4815 4   
4816 5   
4817 2   
4818 97  
4819 3   
4820 3   
4821 7   
4822 10  
4823 6   
4824 4   
4825 2   
4826 7   
4827 60  
4828 1   
4829 4   
4830 3   
4831 1   
4832 4   
4833 1   
4834 4   
4835 1   
4836 9   
4837 2   
4838 6   
4839 2   
4840 1   
4841 87  
4842 8   
4843 4   
4844 5   
4845 57  
4846 98  
4847 3   
4848 6   
4849 6   
4850 76  
4851 10  
4852 6   
4853 7   
4854 6   
4855 1   
4856 7   
4857 3   
4858 3   
4859 4   
4860 4   
4861 51  
4862 76  
4863 10  
4864 5   
4865 4   
4866 7   
4867 4   
4868 6   
4869 7   
4870 8   
4871 1   
4872 1   
4873 3   
4874 5   
4875 9   
4876 10  
4877 66  
4878 1   
4879 1   
4880 6   
4881 52  
4882 10  
4883 5   
4884 89  
4885 9   
4886 6   
4887 95  
4888 10  
4889 4   
4890 54  
4891 9   
4892 10  
4893 5   
4894 86  
4895 4   
4896 3   
4897 1   
4898 61  
4899 10  
4900 7   
4901 2   
4902 9   
4903 6   
4904 63  
4905 3   
4906 5   
4907 10  
4908 2   
4909 3   
4910 2   
4911 60  
4912 51  
4913 6   
4914 4   
4915 10  
4916 6   
4917 2   
4918 75  
4919 53  
4920 2   
4921 8   
4922 8   
4923 95  
4924 3   
4925 7   
4926 8   
4927 4   
4928 2   
4929 81  
4930 3   
4931 1   
4932 7   
4933 6   
4934 8   
4935 4   
4936 8   
4937 2   
4938 3   
4939 10  
4940 5   
4941 3   
4942 7   
4943 10  
4944 7   
4945 8   
4946 9   
4947 6   
4948 9   
4949 65  
4950 9   
4951 8   
4952 6   
4953 3   
4954 6   
4955 4   
4956 8   
4957 3   
4958 10  
4959 75  
4960 1   
4961 4   
4962 1   
4963 9   
4964 2   
4965 93  
4966 2   
4967 7   
4968 85  
4969 8   
4970 1   
4971 8   
4972 9   
4973 1   
4974 3   
4975 4   
4976 52  
4977 10  
4978 84  
4979 6   
4980 6   
4981 10  
4982 6   
4983 6   
4984 8   
4985 10  
4986 7   
4987 4   
4988 7   
4989 9   
4990 1   
4991 7   
4992 10  
4993 9   
4994 51  
4995 10  
4996 3   
4997 71  
4998 76  
4999 1   
5000 5   
5001 6   
DEPOT_SECTION
1
-1
EOF
