NAME : XML10000_2323_01
COMMENT : Generated as the XML100 dataset from the CVRPLIB
TYPE : CVRP
DIMENSION : 10001
EDGE_WEIGHT_TYPE : EUC_2D
CAPACITY : 45
NODE_COORD_SECTION
1    5000 5000
2    2375 8590
3    7093 6671
4    5014 6710
5    8535 6780
6    7439 5023
7    6403 7262
8    820  2109
9    8443 8169
10   4990 9773
11   4778 7241
12   5065 7872
13   7401 1723
14   6373 8114
15   4213 6973
16   5729 8106
17   3737 3125
18   5818 7245
19   6416 5240
20   9055 6848
21   8724 8174
22   7322 4748
23   5919 7996
24   7601 4946
25   3273 9824
26   5457 7718
27   3125 8565
28   2792 1250
29   5396 6078
30   8711 5465
31   4358 8094
32   6033 8245
33   9664 3088
34   5342 2122
35   5680 8248
36   6954 4683
37   7627 8837
38   3472 2788
39   2724 8018
40   5601 8048
41   9544 9226
42   5060 6574
43   7678 4957
44   7924 4637
45   4859 5587
46   8225 147 
47   8841 4689
48   2259 9537
49   6542 2045
50   9150 7532
51   4990 7098
52   7804 4631
53   847  9055
54   6878 840 
55   4762 4892
56   5048 6522
57   8321 9889
58   3436 3510
59   4944 4902
60   9182 2657
61   5511 8198
62   3229 6303
63   8326 4341
64   165  3040
65   794  5103
66   4223 8051
67   2622 3316
68   4652 9061
69   3392 998 
70   8778 7732
71   5656 8545
72   7722 4873
73   5358 6973
74   1438 1243
75   5408 5601
76   8129 4889
77   3649 7034
78   5753 5304
79   8295 5127
80   6716 5569
81   2517 3888
82   2331 4616
83   5552 6488
84   5719 8184
85   7764 667 
86   7992 4831
87   4988 6993
88   5374 7534
89   810  5926
90   302  4187
91   6584 1027
92   473  3547
93   5747 1612
94   5497 2849
95   4419 6675
96   5472 6857
97   4252 4762
98   6665 4038
99   7727 4815
100  5112 8692
101  8114 5453
102  7005 9651
103  3292 9500
104  8028 7234
105  1637 9434
106  4857 5551
107  2286 4023
108  7243 5619
109  8381 4455
110  5069 6338
111  4961 5593
112  208  6080
113  662  7591
114  7008 4639
115  4946 7410
116  4931 5743
117  7166 5132
118  45   3683
119  4793 5657
120  6580 7718
121  8663 5263
122  5082 6436
123  5324 5245
124  4090 9743
125  5245 5929
126  1145 4184
127  4888 6777
128  8386 4768
129  9010 6162
130  6421 1544
131  9640 787 
132  5349 6688
133  5177 6620
134  5603 8226
135  7781 4746
136  5406 7188
137  5479 6726
138  5868 1694
139  5516 6411
140  7054 6382
141  7291 5046
142  7993 5354
143  6350 6460
144  4813 6924
145  6925 2371
146  5428 7842
147  4817 7170
148  7125 5407
149  4904 9095
150  5261 6826
151  5102 5809
152  1446 5959
153  5635 8030
154  5791 6710
155  2509 1959
156  5530 7985
157  9159 4886
158  5732 7681
159  9174 3125
160  4877 6871
161  577  8881
162  4894 5238
163  1878 4423
164  4708 6773
165  5720 8085
166  8627 5564
167  617  3496
168  7594 3417
169  6880 9132
170  7526 4725
171  2919 7664
172  3846 1368
173  5141 5617
174  2138 5804
175  5187 6798
176  5453 5558
177  5314 7600
178  4570 7093
179  811  9502
180  5819 8050
181  5571 8008
182  7804 4533
183  5808 7450
184  7811 4893
185  5375 6891
186  8494 6482
187  5082 7817
188  7535 4257
189  6944 9990
190  586  9240
191  7713 4316
192  1728 9513
193  5193 8805
194  6562 8667
195  5420 7030
196  5046 8149
197  5877 7699
198  5185 8483
199  8689 5692
200  5773 8047
201  9351 5541
202  5308 1998
203  4660 7237
204  3928 7734
205  8337 8176
206  2544 7630
207  2265 5859
208  6526 6976
209  9186 5982
210  8060 4674
211  9348 3960
212  3291 7400
213  7762 5311
214  6400 7721
215  3651 7407
216  8541 6687
217  7686 4832
218  6949 9500
219  9722 262 
220  5212 5638
221  53   7546
222  7507 4157
223  8658 4837
224  5714 8337
225  9447 7609
226  7702 5513
227  4992 5514
228  5517 7891
229  5106 5621
230  5404 8076
231  7812 5052
232  5285 7856
233  4914 7311
234  8707 9461
235  2716 2612
236  4213 4138
237  6861 8391
238  5193 5585
239  5028 7436
240  4971 5971
241  6377 8025
242  813  3371
243  3008 9441
244  5130 5151
245  4997 5424
246  6620 8272
247  288  3886
248  465  2753
249  5401 7476
250  5431 1900
251  1834 1218
252  8258 4978
253  7352 3749
254  8066 5888
255  8256 2443
256  4899 5641
257  5252 4099
258  8698 4332
259  6152 8333
260  7909 4741
261  8799 1107
262  6570 5613
263  8121 7576
264  7638 4142
265  6129 4826
266  7931 3945
267  5556 8653
268  6095 7832
269  4879 8792
270  5178 6817
271  6205 9619
272  5784 7590
273  4248 815 
274  4141 7600
275  5454 6895
276  8719 4775
277  9602 4953
278  5803 8047
279  4179 5962
280  8819 5012
281  7160 426 
282  2340 6153
283  4702 5359
284  1813 4352
285  5011 7642
286  5342 7266
287  5232 6877
288  5793 6377
289  7922 7532
290  4769 9751
291  5311 5777
292  4843 7130
293  5407 6455
294  6005 3147
295  118  3644
296  7630 4916
297  8646 2725
298  5201 7023
299  4943 4986
300  4899 7289
301  2768 2180
302  7556 4114
303  8233 5077
304  4990 4802
305  5237 5566
306  8403 4632
307  4904 7038
308  8060 4821
309  5922 4588
310  386  7256
311  7439 2067
312  3190 8981
313  5454 8005
314  9007 8771
315  4316 28  
316  4864 5682
317  7214 4193
318  8653 2578
319  7399 5023
320  7940 4318
321  4930 7603
322  982  4433
323  4594 444 
324  5625 8289
325  5727 5271
326  1192 7942
327  7568 4817
328  6857 4315
329  5414 7079
330  799  2355
331  566  7770
332  4891 6125
333  2944 6603
334  5217 5440
335  3262 82  
336  5005 5674
337  9058 3482
338  8005 4862
339  8027 4954
340  9368 4327
341  2956 7968
342  8277 8865
343  7413 4360
344  6543 825 
345  4795 752 
346  4477 2529
347  8236 5279
348  5760 6470
349  9451 4859
350  7952 5135
351  2526 8996
352  7920 4755
353  7624 5584
354  1161 2918
355  8664 4415
356  5610 7006
357  5629 8146
358  470  438 
359  4032 7129
360  7143 4729
361  5544 8681
362  7978 5749
363  8522 4987
364  6413 9184
365  4931 5635
366  7775 5138
367  1235 8016
368  2279 2267
369  1027 1399
370  5207 6838
371  5541 7675
372  4371 3764
373  7143 7700
374  4886 5177
375  5841 1833
376  2836 5493
377  2946 2772
378  7787 4609
379  3032 5932
380  5374 8926
381  5639 6164
382  5443 7958
383  6526 8503
384  4787 2094
385  5101 7995
386  4906 6009
387  8838 5142
388  8298 8182
389  4617 7891
390  4721 7570
391  4422 7411
392  8094 5026
393  3229 426 
394  5634 8212
395  5474 6871
396  4224 7787
397  8699 4554
398  7850 4513
399  8595 7744
400  5212 7962
401  2108 819 
402  5493 8988
403  2072 5136
404  2129 2005
405  7474 4521
406  8204 5104
407  6254 6466
408  5197 6720
409  4525 9879
410  5350 6791
411  4817 8515
412  6067 7862
413  8566 4267
414  5048 5441
415  5399 7896
416  7705 4073
417  5889 6455
418  443  3250
419  4692 7487
420  7878 4704
421  8044 4984
422  7775 4653
423  4314 1873
424  8885 843 
425  4617 6886
426  8148 4910
427  5779 8363
428  1406 7457
429  8034 5404
430  5194 7123
431  5268 5566
432  5494 6963
433  5646 8108
434  1686 4850
435  1790 5229
436  5554 7991
437  7915 4875
438  9091 3990
439  5254 7041
440  4915 7108
441  3989 9757
442  8374 5413
443  5340 7715
444  7259 1808
445  2104 8494
446  5296 6298
447  3456 6270
448  9540 9533
449  9358 9564
450  8942 8991
451  4475 5134
452  7808 4845
453  1620 3819
454  6103 9690
455  8023 4679
456  3517 4945
457  3888 4683
458  5472 7680
459  8878 2515
460  4875 6856
461  6604 5305
462  7991 6562
463  4374 6597
464  4650 8085
465  6524 2708
466  7371 4974
467  6921 946 
468  2969 5429
469  6469 7426
470  3392 4372
471  9239 4476
472  5655 7837
473  4900 5563
474  150  4691
475  7700 5139
476  5909 6930
477  7556 4586
478  3533 9431
479  2206 4623
480  2605 355 
481  5428 8632
482  5782 8241
483  4785 6422
484  234  8564
485  8398 4320
486  7833 9295
487  4671 7225
488  5855 3491
489  8250 4507
490  6317 1241
491  1937 7413
492  9800 595 
493  4737 488 
494  9740 5067
495  6163 5376
496  6081 7843
497  4723 7123
498  5400 9254
499  6044 4060
500  5653 6152
501  6920 5545
502  3277 1545
503  9875 1857
504  6810 2828
505  4667 4577
506  8080 5584
507  2297 357 
508  4545 5806
509  3724 2803
510  5231 5638
511  8983 6069
512  3633 630 
513  5958 7704
514  5055 9154
515  6860 5312
516  4986 535 
517  7341 4195
518  5223 6098
519  5015 5641
520  3980 4223
521  7786 4790
522  4910 1256
523  1075 2763
524  5626 5519
525  7097 1067
526  5985 6297
527  7560 6572
528  5217 6391
529  4896 6413
530  5569 7121
531  6904 6127
532  7553 8207
533  4904 8029
534  6889 5521
535  7175 7466
536  5690 7654
537  5501 6971
538  4851 7037
539  7171 5303
540  85   157 
541  7538 4292
542  1800 8989
543  9160 6162
544  4799 6306
545  5458 8082
546  9850 2317
547  5387 4019
548  8158 5222
549  8252 4351
550  4243 2844
551  6649 895 
552  1342 116 
553  7919 5470
554  8207 4960
555  7145 4790
556  7823 6348
557  3000 2398
558  8193 4728
559  4329 6779
560  7522 4498
561  5520 6270
562  6612 7551
563  6025 7594
564  1997 3282
565  7707 4677
566  1359 6629
567  6633 2401
568  7277 4664
569  6511 8697
570  1068 4429
571  5075 5543
572  6828 9575
573  8347 4912
574  4930 8823
575  7416 1303
576  8099 5607
577  5302 5761
578  5473 8875
579  5266 7319
580  5300 7287
581  1354 6878
582  7328 5365
583  5632 7445
584  1351 4762
585  8175 4874
586  5319 8094
587  4944 7641
588  7788 4970
589  4153 7432
590  7981 4642
591  3079 769 
592  4521 7189
593  7599 5150
594  4798 5707
595  7598 8559
596  4969 7128
597  5458 7085
598  6042 7214
599  7869 4894
600  4753 4864
601  998  4074
602  4682 5798
603  7153 5408
604  845  8934
605  1548 946 
606  5084 5711
607  8881 2606
608  5612 6760
609  9958 9316
610  5089 7160
611  5346 7049
612  9115 2381
613  8399 4971
614  7057 2139
615  5296 3628
616  1942 2708
617  7970 4533
618  4003 2695
619  7770 4262
620  5256 6830
621  4158 5071
622  9797 5585
623  4673 5413
624  5695 6934
625  185  2158
626  3727 2120
627  5182 9733
628  8301 4904
629  5803 8046
630  7466 4957
631  8199 2070
632  7725 4372
633  5133 8405
634  9775 534 
635  8864 4699
636  7734 4695
637  7960 2940
638  8322 4446
639  2962 8612
640  6091 7747
641  6100 7132
642  2500 7320
643  4829 7043
644  5204 5605
645  5807 6542
646  4916 7012
647  7260 3820
648  336  6631
649  6922 130 
650  4396 6389
651  414  6787
652  9852 3773
653  2597 9837
654  7867 4781
655  5801 6935
656  4825 5134
657  5300 7814
658  2437 2171
659  5717 5830
660  5902 6484
661  6002 9377
662  5783 7204
663  4923 5625
664  5559 6849
665  1499 8959
666  7781 4801
667  813  3914
668  4994 5700
669  8826 4953
670  5019 9142
671  5150 6922
672  5146 5150
673  5524 8264
674  1451 4953
675  7138 3280
676  2160 9094
677  4689 7174
678  5309 6739
679  5382 6913
680  8795 3245
681  6537 6386
682  5647 7108
683  6134 7777
684  4653 5748
685  8134 4849
686  138  6716
687  6006 1571
688  6654 6700
689  5262 5521
690  9002 5476
691  7633 4649
692  2418 8312
693  2039 2484
694  6034 7721
695  4539 7906
696  6379 2727
697  4718 7231
698  4523 7682
699  2365 8481
700  2008 9475
701  5540 6392
702  4140 3037
703  2903 3000
704  897  7809
705  5058 7940
706  6813 5053
707  5312 7060
708  1130 6694
709  5235 6769
710  1848 1082
711  9354 4345
712  4747 7296
713  7272 9348
714  4540 6181
715  1786 7637
716  191  5810
717  1493 6460
718  4909 5700
719  6269 5376
720  4990 6652
721  5223 6813
722  5394 7318
723  8750 4659
724  5770 1985
725  5093 7362
726  4909 5623
727  4717 6883
728  4141 6170
729  5750 5519
730  5374 1980
731  1623 3630
732  7325 5623
733  5568 7984
734  8105 4536
735  3554 1425
736  6505 2261
737  9205 1601
738  6388 7167
739  6832 5379
740  6235 7373
741  5015 8334
742  7768 4162
743  5763 8944
744  5948 8454
745  1351 3957
746  8880 5949
747  4780 7193
748  8211 5538
749  6504 6865
750  2804 6981
751  5587 32  
752  8326 4474
753  7867 2176
754  9035 3024
755  8520 4994
756  9037 8710
757  1362 368 
758  5604 7437
759  9306 7665
760  5825 7548
761  4686 7237
762  5083 8824
763  6520 4742
764  7603 5031
765  8921 2771
766  5426 6951
767  303  1259
768  7445 901 
769  4592 7322
770  8701 4752
771  2597 835 
772  4810 4875
773  7522 5715
774  4796 5707
775  5084 4331
776  8934 5419
777  4837 6449
778  8191 4858
779  5594 8075
780  7646 4816
781  6338 1036
782  7561 4965
783  8006 5137
784  8438 4272
785  6014 8968
786  5221 7092
787  5254 7159
788  7888 4794
789  7623 5201
790  7714 1519
791  5991 5857
792  7133 7582
793  6036 7647
794  3697 4866
795  2553 5870
796  3888 6714
797  82   8926
798  5140 7547
799  5372 6693
800  7550 8908
801  6284 7554
802  4886 5368
803  5801 8418
804  5069 6010
805  8404 3100
806  7701 8197
807  7601 4813
808  5880 6464
809  7379 7403
810  8588 3618
811  6373 43  
812  5210 8154
813  6583 4491
814  2544 4251
815  248  568 
816  7470 4424
817  5551 6513
818  5393 5212
819  9606 5286
820  7758 4606
821  3690 6221
822  6063 446 
823  9322 3471
824  9281 8264
825  4969 3966
826  1658 3723
827  8367 4999
828  1506 5551
829  7691 4752
830  57   9899
831  8043 4260
832  5532 6496
833  8293 6524
834  2089 3475
835  5213 9028
836  2584 3370
837  8534 3253
838  6527 7391
839  5172 5946
840  3571 156 
841  5521 7174
842  4855 7612
843  5525 6749
844  1496 7204
845  109  4358
846  7868 4450
847  3145 5732
848  9237 849 
849  4981 6290
850  2615 4103
851  5181 8338
852  8116 4056
853  7329 6286
854  7913 1392
855  166  1058
856  5051 5604
857  8073 5176
858  766  8946
859  5101 5663
860  5512 5561
861  3524 4071
862  5296 7632
863  9773 2765
864  7740 3435
865  2691 510 
866  5111 6178
867  426  3797
868  5975 8085
869  4857 5743
870  2008 7946
871  967  2914
872  5318 7271
873  5241 6609
874  4596 1368
875  1033 3976
876  4707 4801
877  4847 7168
878  6176 5894
879  5262 6938
880  1964 2729
881  3271 9   
882  5314 5978
883  5333 4846
884  7226 4181
885  4106 7140
886  6351 2275
887  1679 4515
888  3997 671 
889  5509 5959
890  5608 7018
891  7599 4767
892  5215 5780
893  2018 7569
894  8966 3950
895  5665 7938
896  9544 7203
897  7741 5256
898  7725 4399
899  7016 8693
900  4697 27  
901  555  2296
902  7088 3896
903  862  4839
904  8578 4881
905  2995 6909
906  7993 4531
907  6244 2097
908  5614 8024
909  5651 9623
910  1775 9297
911  8003 1359
912  3693 4673
913  964  1062
914  4462 6131
915  6856 2986
916  8459 4259
917  5171 4741
918  4296 1469
919  5137 5846
920  5930 5473
921  157  3363
922  6947 622 
923  3278 7965
924  9933 3053
925  8492 1248
926  5708 5821
927  6418 5374
928  7247 3981
929  5139 8531
930  5782 8525
931  6600 4468
932  7967 4376
933  105  7377
934  6477 8105
935  5826 8152
936  5259 5497
937  4701 6683
938  5448 4857
939  3259 3607
940  5467 6107
941  8425 4630
942  9671 5479
943  4282 5468
944  7335 5348
945  5267 8555
946  9359 567 
947  5334 7088
948  8720 4866
949  8857 3911
950  7701 4351
951  2489 4526
952  6285 4894
953  7493 577 
954  8659 3959
955  2306 1712
956  2903 6494
957  7526 4740
958  5458 6860
959  9400 666 
960  5253 5935
961  5032 5053
962  7720 5234
963  6535 6026
964  5688 2860
965  7513 4500
966  4925 5806
967  6290 6654
968  7862 4032
969  5395 7467
970  4356 9789
971  1690 8597
972  4781 6787
973  7675 4536
974  5675 9340
975  6719 1519
976  8933 4032
977  7902 5048
978  8160 4438
979  4066 8733
980  6341 7626
981  4185 5150
982  3710 6581
983  3876 2543
984  9836 978 
985  7867 4945
986  5200 7051
987  4532 7481
988  5021 5672
989  9869 5285
990  1867 7841
991  1517 2761
992  7547 802 
993  5693 6831
994  5055 6069
995  6191 9423
996  8680 271 
997  5761 7038
998  8019 4968
999  5336 6685
1000 8067 4746
1001 5946 8009
1002 3405 8219
1003 2122 9170
1004 4415 6587
1005 8636 4942
1006 776  7695
1007 4334 1821
1008 5248 6773
1009 5477 8113
1010 6610 7077
1011 5551 6558
1012 5298 5412
1013 7277 4635
1014 9692 3073
1015 7859 4289
1016 8300 4949
1017 2921 877 
1018 9577 9757
1019 5360 8438
1020 2991 7431
1021 2219 7609
1022 3546 5606
1023 5304 5546
1024 5041 6660
1025 9507 714 
1026 4437 7900
1027 5266 7066
1028 6341 8282
1029 7794 4767
1030 1639 5949
1031 5377 7316
1032 8285 4699
1033 5514 7780
1034 3847 4923
1035 5022 5238
1036 2538 975 
1037 7314 9   
1038 5648 6553
1039 6288 8942
1040 8992 4099
1041 6002 1802
1042 4985 7346
1043 6720 3342
1044 3124 2804
1045 9359 4192
1046 5499 6924
1047 5884 7414
1048 2835 5634
1049 1429 3588
1050 1846 263 
1051 6382 8769
1052 6054 7031
1053 4808 7580
1054 7374 4323
1055 6577 8785
1056 5247 7856
1057 5191 7960
1058 7061 3971
1059 5253 6036
1060 5283 8434
1061 6167 8143
1062 3997 583 
1063 4775 7457
1064 7527 7212
1065 5894 6805
1066 9426 7847
1067 431  9116
1068 239  7110
1069 4733 6924
1070 2337 5929
1071 8127 3586
1072 5459 7821
1073 7502 713 
1074 8618 5387
1075 5340 5771
1076 1517 7951
1077 351  9616
1078 5723 6617
1079 7986 5294
1080 6348 6982
1081 5577 9770
1082 1722 2024
1083 4960 8656
1084 7535 4936
1085 8590 1597
1086 3806 1638
1087 4899 8367
1088 5842 7757
1089 7759 4825
1090 5138 6907
1091 4304 7426
1092 9562 144 
1093 8333 5154
1094 7366 3104
1095 8136 5339
1096 5344 7421
1097 4843 7398
1098 7556 4487
1099 5690 7733
1100 5758 8149
1101 4799 5902
1102 5126 6186
1103 3963 6577
1104 5432 5772
1105 6320 8025
1106 7840 4670
1107 977  2384
1108 5213 8848
1109 8635 765 
1110 780  9474
1111 8637 8348
1112 8050 4694
1113 5622 3927
1114 7805 4671
1115 1960 8191
1116 4086 6821
1117 4285 5750
1118 243  9624
1119 5421 8112
1120 2787 3465
1121 5157 7611
1122 7568 9454
1123 71   7357
1124 8083 4764
1125 7081 52  
1126 5328 8388
1127 8828 3356
1128 4794 5547
1129 7891 4341
1130 4329 5229
1131 4927 8715
1132 4997 6719
1133 7401 5076
1134 6854 1638
1135 5226 6289
1136 5132 5914
1137 8209 4555
1138 5499 8203
1139 4290 6508
1140 6124 2569
1141 5397 6772
1142 5211 4737
1143 8124 4580
1144 833  4058
1145 5481 8002
1146 8003 4160
1147 7879 4781
1148 8938 7257
1149 5007 8577
1150 665  7809
1151 520  4252
1152 2816 4380
1153 5983 8683
1154 6333 6599
1155 6917 2631
1156 4518 9919
1157 7750 5081
1158 8987 7813
1159 5562 8106
1160 5631 6531
1161 871  3560
1162 5908 7662
1163 7747 4398
1164 4443 2621
1165 5909 3439
1166 4245 7919
1167 4905 7220
1168 5687 2321
1169 8149 7521
1170 1171 229 
1171 6398 2736
1172 5586 6876
1173 6267 7739
1174 9462 8940
1175 8079 4928
1176 4768 2066
1177 2844 4513
1178 4121 1684
1179 6397 2009
1180 5347 5722
1181 5159 2871
1182 5198 7836
1183 1306 5845
1184 5423 3510
1185 5362 8352
1186 184  7056
1187 4347 5529
1188 2823 8914
1189 116  2507
1190 6860 9029
1191 7952 4823
1192 3886 5697
1193 7900 4789
1194 7700 4969
1195 7023 7143
1196 2842 5681
1197 9082 273 
1198 9412 6453
1199 6610 1045
1200 7856 4818
1201 7735 4709
1202 1462 3003
1203 4256 6542
1204 5463 6807
1205 8152 4397
1206 8349 4205
1207 77   5014
1208 1523 6440
1209 7591 4771
1210 3961 555 
1211 4530 5664
1212 6067 4913
1213 1072 9757
1214 7675 5209
1215 7537 4629
1216 4072 8039
1217 6115 4125
1218 5603 8177
1219 7793 4975
1220 3097 8209
1221 3315 9030
1222 8543 5650
1223 5461 5640
1224 561  7458
1225 7662 2171
1226 3748 6348
1227 9556 7644
1228 2217 5745
1229 9988 4022
1230 9251 3069
1231 8446 4639
1232 2052 5814
1233 2337 2379
1234 7840 5271
1235 5957 6376
1236 6098 5367
1237 4093 3825
1238 631  1822
1239 6179 5654
1240 174  1989
1241 7915 4666
1242 1500 4673
1243 5160 8594
1244 7978 5367
1245 5360 5702
1246 8463 7675
1247 6    3945
1248 2873 4127
1249 7191 1590
1250 8465 4747
1251 5139 6820
1252 8330 9049
1253 5425 7766
1254 3343 3111
1255 7670 4711
1256 1012 6320
1257 7654 659 
1258 4841 7104
1259 5991 640 
1260 3410 684 
1261 4903 4603
1262 4425 5640
1263 5526 5996
1264 7569 4511
1265 6182 7811
1266 5926 5716
1267 5824 8678
1268 1051 4305
1269 5981 5015
1270 5837 5459
1271 8301 7689
1272 7927 3367
1273 5788 7858
1274 7975 4437
1275 9419 3461
1276 4557 1177
1277 7323 4882
1278 5686 6828
1279 5503 5936
1280 9252 4880
1281 6049 6351
1282 8025 4263
1283 1454 1825
1284 9780 8069
1285 6320 199 
1286 325  7497
1287 1985 8216
1288 8772 7017
1289 4373 5755
1290 6970 5244
1291 5587 558 
1292 4943 7410
1293 7660 5872
1294 5119 6996
1295 7376 1939
1296 6441 1510
1297 8422 1232
1298 7214 9846
1299 5208 6908
1300 8409 5459
1301 3696 5167
1302 5334 7723
1303 6445 7167
1304 5500 5598
1305 7668 4020
1306 3617 1073
1307 6054 8086
1308 8034 8698
1309 6673 9957
1310 8098 5299
1311 5082 7489
1312 8836 5160
1313 5356 7180
1314 9434 2172
1315 5295 5938
1316 8489 5420
1317 5545 2919
1318 6072 8084
1319 5117 5617
1320 9406 6689
1321 9973 7610
1322 7611 9561
1323 7962 6563
1324 5215 6161
1325 8285 4726
1326 7005 4588
1327 7937 8275
1328 8952 4909
1329 5462 8103
1330 5349 7318
1331 6784 990 
1332 4187 7548
1333 8047 4367
1334 4576 1152
1335 1256 4098
1336 7708 4510
1337 7010 3794
1338 6227 7396
1339 5662 8168
1340 5213 6529
1341 2109 7864
1342 4432 8878
1343 6860 5271
1344 7765 4684
1345 8495 4108
1346 7203 5858
1347 4739 5800
1348 4524 8549
1349 5432 7606
1350 8024 4873
1351 1776 6463
1352 3630 5854
1353 6011 2226
1354 7180 5104
1355 6022 7601
1356 7925 5901
1357 7905 4500
1358 6874 6872
1359 5371 6904
1360 5081 7047
1361 5709 7485
1362 8370 9801
1363 5311 6164
1364 7578 5382
1365 5618 7351
1366 8709 6052
1367 1661 7336
1368 3760 9993
1369 5330 5646
1370 4141 1403
1371 8355 3071
1372 4060 7278
1373 5279 7424
1374 4615 7875
1375 5455 7138
1376 4665 6163
1377 3686 416 
1378 5323 5949
1379 4914 6599
1380 4656 7643
1381 5585 6605
1382 1522 8355
1383 5791 8018
1384 1779 4135
1385 4752 7228
1386 5577 7639
1387 5504 4171
1388 9751 7835
1389 4764 5804
1390 5145 7126
1391 7278 5032
1392 5162 8354
1393 5380 8445
1394 563  8530
1395 1332 588 
1396 8115 3123
1397 9189 7032
1398 8464 4544
1399 7662 4949
1400 4879 6644
1401 7612 4329
1402 7197 4704
1403 4236 5909
1404 216  1321
1405 5608 8313
1406 5753 5393
1407 5697 7885
1408 5615 8542
1409 5764 5836
1410 5205 1279
1411 6027 1953
1412 7915 4725
1413 4556 5482
1414 2508 8410
1415 6304 1614
1416 4923 7110
1417 4940 7064
1418 5030 6686
1419 5489 8212
1420 2076 8229
1421 8926 4698
1422 2125 5667
1423 4732 7132
1424 4546 2625
1425 5793 7570
1426 4905 7997
1427 5608 1755
1428 5487 5925
1429 4888 8267
1430 2461 3941
1431 764  2822
1432 4881 7006
1433 7892 4778
1434 5150 6271
1435 5498 5226
1436 5185 7943
1437 6205 1146
1438 7558 2443
1439 6715 8658
1440 4614 6016
1441 6147 725 
1442 1286 7234
1443 5430 6077
1444 1079 6892
1445 5170 5195
1446 4837 5634
1447 8997 4297
1448 6790 2568
1449 8437 4695
1450 2367 379 
1451 5075 6999
1452 4930 7214
1453 9735 136 
1454 6219 2445
1455 4744 4899
1456 7511 5215
1457 7778 4617
1458 4535 2897
1459 8278 5400
1460 4993 5992
1461 7313 6659
1462 6410 4890
1463 4707 5776
1464 5230 4503
1465 7328 5312
1466 7292 5361
1467 2930 7779
1468 7784 4045
1469 6003 1041
1470 3928 4805
1471 7262 752 
1472 6157 925 
1473 4181 6040
1474 9089 4159
1475 8687 6476
1476 5749 5519
1477 5210 6670
1478 8324 4892
1479 3883 5535
1480 1147 1164
1481 8786 2846
1482 5297 7950
1483 7997 2833
1484 5076 5878
1485 2000 1411
1486 4560 8887
1487 3406 7974
1488 7987 5071
1489 4816 7456
1490 7356 4985
1491 3334 8293
1492 7788 5173
1493 9056 315 
1494 5129 6946
1495 7888 5022
1496 5676 8167
1497 4018 678 
1498 8161 3850
1499 5119 8053
1500 5546 8995
1501 5563 7465
1502 4723 8414
1503 2264 9748
1504 5228 6754
1505 9690 3189
1506 5572 7932
1507 5869 7810
1508 7916 5408
1509 7834 631 
1510 9849 2808
1511 7446 1605
1512 8192 5009
1513 148  4970
1514 9541 2874
1515 4840 6706
1516 3729 9818
1517 9629 2863
1518 5580 6851
1519 7579 9178
1520 4660 5260
1521 5426 5772
1522 6931 4486
1523 1764 8079
1524 6174 8169
1525 4776 5642
1526 7789 4432
1527 2244 278 
1528 4810 7348
1529 7024 5901
1530 4968 7461
1531 4896 6594
1532 4416 156 
1533 7734 4706
1534 5375 6025
1535 8889 6630
1536 7253 3848
1537 8019 4805
1538 5401 4411
1539 7842 4611
1540 3435 8590
1541 4318 5267
1542 9905 8015
1543 8252 4165
1544 5617 5458
1545 6012 6174
1546 4725 7328
1547 1717 8695
1548 5321 5718
1549 5108 5620
1550 5050 7062
1551 7933 8683
1552 4740 813 
1553 4882 7066
1554 7984 4794
1555 4908 7659
1556 2858 2851
1557 7323 1084
1558 4829 6778
1559 8122 4632
1560 7025 7880
1561 5926 7464
1562 4115 4337
1563 7969 4846
1564 5051 7417
1565 6973 6347
1566 4813 3123
1567 5518 7182
1568 2178 9144
1569 931  647 
1570 7948 4380
1571 7766 4607
1572 5153 6018
1573 4079 6907
1574 3774 6223
1575 5882 8890
1576 6652 7196
1577 3459 6869
1578 5223 5413
1579 614  7340
1580 6046 8568
1581 8212 5086
1582 5790 1116
1583 4285 8620
1584 2913 8616
1585 8806 4098
1586 4306 316 
1587 5374 6961
1588 7776 5064
1589 9923 2500
1590 6670 3592
1591 5360 6514
1592 9245 5373
1593 5053 7368
1594 4367 5955
1595 5437 6453
1596 8010 3864
1597 7521 6789
1598 6146 5571
1599 2280 4860
1600 5157 5403
1601 8291 9144
1602 665  9917
1603 5493 6862
1604 6991 685 
1605 6887 2272
1606 7562 689 
1607 5082 5626
1608 603  376 
1609 5975 331 
1610 6106 7702
1611 8600 9742
1612 5163 6874
1613 5768 7762
1614 6017 5148
1615 3999 8117
1616 1670 9402
1617 8078 5020
1618 2954 8580
1619 1857 3692
1620 5816 4326
1621 6762 2285
1622 6840 1091
1623 9883 874 
1624 5994 8232
1625 8469 5263
1626 8806 3496
1627 4976 5439
1628 7872 4025
1629 5197 6023
1630 3115 9339
1631 5401 7945
1632 6189 5355
1633 1961 673 
1634 8275 4113
1635 4029 7733
1636 18   2513
1637 8317 5782
1638 5130 6744
1639 7185 3436
1640 8688 2253
1641 7734 4857
1642 8875 9412
1643 8208 3620
1644 693  3361
1645 3732 6978
1646 7803 5011
1647 1268 7595
1648 1992 4564
1649 5133 5533
1650 5976 2283
1651 2242 5636
1652 1893 7229
1653 9378 2385
1654 6252 6901
1655 5961 7853
1656 5244 7743
1657 5504 7085
1658 3137 1061
1659 7747 4937
1660 9916 9377
1661 4724 5235
1662 5208 7020
1663 2699 8687
1664 8408 5014
1665 5687 3896
1666 4352 3552
1667 497  4947
1668 9640 529 
1669 6102 924 
1670 4609 7286
1671 5061 7307
1672 6343 5606
1673 5945 6680
1674 4742 5975
1675 9054 5221
1676 5967 7012
1677 4416 7260
1678 6085 7012
1679 1354 4715
1680 4923 7534
1681 9524 9698
1682 5729 7419
1683 2873 6171
1684 5334 7239
1685 5128 6641
1686 5312 6782
1687 5896 9359
1688 5474 1370
1689 5209 5687
1690 7928 4553
1691 7802 4590
1692 5363 7025
1693 5506 8212
1694 7905 5103
1695 5094 5566
1696 5905 8506
1697 4519 6646
1698 8078 5065
1699 509  2053
1700 6696 8506
1701 4153 2450
1702 7984 4425
1703 5588 8116
1704 4975 7041
1705 8195 520 
1706 7716 4653
1707 7373 4467
1708 5882 8679
1709 8019 4417
1710 4119 5630
1711 5504 8475
1712 7441 4646
1713 8725 3392
1714 9434 1306
1715 5386 5393
1716 7684 4933
1717 665  7800
1718 5618 2382
1719 9023 3916
1720 1086 8209
1721 2906 6053
1722 1645 947 
1723 4561 4816
1724 4219 7580
1725 5090 6662
1726 4810 9866
1727 7935 5230
1728 6205 8704
1729 8927 4209
1730 4894 4541
1731 5650 8998
1732 12   1220
1733 5196 5585
1734 4249 5283
1735 5185 7339
1736 5876 8462
1737 8028 4915
1738 8951 7588
1739 5947 6208
1740 5375 6633
1741 3799 956 
1742 7540 4760
1743 6047 7428
1744 3920 6428
1745 3904 6065
1746 8883 6383
1747 5624 8063
1748 3760 7148
1749 2742 7299
1750 4791 6468
1751 4811 7178
1752 7408 4517
1753 7963 6939
1754 8046 3941
1755 5648 2762
1756 5138 5196
1757 5282 7112
1758 5122 6729
1759 4986 4906
1760 7642 4042
1761 6910 5266
1762 4563 7467
1763 7859 4178
1764 5534 2766
1765 8886 4187
1766 9232 1469
1767 4803 6997
1768 9403 1104
1769 4998 5243
1770 8672 1662
1771 2108 4339
1772 3134 3949
1773 8319 4842
1774 2357 239 
1775 845  7074
1776 6241 4086
1777 4604 9046
1778 6023 8039
1779 5105 6145
1780 5708 7966
1781 8026 4902
1782 7577 4421
1783 5723 8562
1784 9959 690 
1785 5780 8427
1786 3333 5338
1787 4989 7182
1788 7519 4693
1789 7915 4583
1790 5546 8068
1791 5839 7843
1792 8103 7897
1793 6103 6805
1794 2769 9270
1795 6336 7658
1796 4341 7444
1797 5005 5815
1798 4927 6633
1799 9182 3651
1800 5061 1831
1801 8156 4841
1802 5270 7450
1803 4965 6767
1804 5583 5874
1805 5350 6363
1806 8029 5370
1807 1674 3106
1808 8061 4093
1809 8217 5329
1810 6095 7883
1811 9700 2042
1812 2532 4191
1813 5088 5693
1814 3632 7815
1815 4775 7459
1816 5272 7240
1817 7090 4419
1818 7456 4144
1819 8461 4755
1820 5204 9520
1821 5914 4469
1822 5968 9695
1823 2545 4158
1824 1059 4134
1825 5453 7914
1826 7828 4654
1827 5365 6866
1828 4820 4688
1829 2979 239 
1830 1520 9904
1831 5445 6367
1832 7967 4873
1833 7843 4919
1834 6022 8158
1835 4165 7086
1836 5804 7973
1837 4979 9250
1838 8157 5100
1839 8357 4858
1840 4640 7433
1841 6947 7015
1842 473  8264
1843 4238 3394
1844 5703 6824
1845 2525 9381
1846 4976 6034
1847 8459 4333
1848 4554 6856
1849 7833 5163
1850 7869 4541
1851 4859 7448
1852 6126 7492
1853 7980 82  
1854 4968 6896
1855 4836 8715
1856 6552 5940
1857 3725 5338
1858 4648 5842
1859 3860 2195
1860 8765 4753
1861 2709 8276
1862 5533 8423
1863 9518 2213
1864 5623 6908
1865 6005 7127
1866 8318 5154
1867 4966 5940
1868 9243 4682
1869 4990 5578
1870 7484 2861
1871 4207 5523
1872 4906 7136
1873 7191 3597
1874 2654 5613
1875 5099 9456
1876 6900 3032
1877 5113 7205
1878 8951 1460
1879 8015 4521
1880 5283 7632
1881 1070 273 
1882 4867 6604
1883 2556 1117
1884 5788 5967
1885 5073 5772
1886 5748 7154
1887 3100 4775
1888 2057 7737
1889 2347 7955
1890 5590 8471
1891 6248 5772
1892 883  3933
1893 8134 5276
1894 8881 9182
1895 1588 8011
1896 3070 8310
1897 5229 4891
1898 5202 8273
1899 8048 9883
1900 5001 177 
1901 4869 6421
1902 8221 5176
1903 5935 5522
1904 5403 7397
1905 8639 7669
1906 8059 8067
1907 4971 6800
1908 3680 6299
1909 9969 2695
1910 7906 9864
1911 7516 9308
1912 3964 2312
1913 7974 3138
1914 655  9582
1915 4596 7791
1916 5919 7967
1917 5494 7232
1918 4384 9308
1919 4554 7208
1920 1332 7116
1921 4833 6435
1922 6076 7825
1923 9044 9525
1924 3848 9035
1925 7909 4108
1926 8074 4307
1927 5940 8756
1928 4336 5692
1929 5522 7253
1930 5832 1989
1931 6151 6548
1932 558  2890
1933 4967 5403
1934 3233 6512
1935 4911 7787
1936 9017 8987
1937 7804 5057
1938 4904 7472
1939 5284 5566
1940 4732 5843
1941 6222 438 
1942 4585 7098
1943 9731 3791
1944 6751 4189
1945 5849 7967
1946 5274 7549
1947 5094 3658
1948 8316 4380
1949 5053 5962
1950 4955 7885
1951 8198 4653
1952 9026 4719
1953 7619 4753
1954 9438 5560
1955 5270 6709
1956 7306 7522
1957 6043 7159
1958 8077 1100
1959 5250 5672
1960 7100 3850
1961 5816 8229
1962 5592 8021
1963 4184 5386
1964 6959 383 
1965 4799 7510
1966 8133 4314
1967 4487 2108
1968 2390 5816
1969 7164 574 
1970 5181 6878
1971 6215 9613
1972 7975 5401
1973 7538 4954
1974 5263 7997
1975 4498 5202
1976 4422 6293
1977 4555 5312
1978 7824 9275
1979 2598 2722
1980 8724 4295
1981 5436 8481
1982 5433 6996
1983 3345 7235
1984 7185 4882
1985 5638 8562
1986 4833 7043
1987 5309 893 
1988 8814 4863
1989 8629 4790
1990 9977 5586
1991 5355 7395
1992 3979 800 
1993 5042 8445
1994 4812 5183
1995 4874 5149
1996 9888 7688
1997 7560 4740
1998 4212 7578
1999 7258 7886
2000 9958 4006
2001 6836 2968
2002 7099 6901
2003 9685 8599
2004 7906 4769
2005 5203 5740
2006 6307 231 
2007 8514 4933
2008 5768 1008
2009 6530 8273
2010 2255 7469
2011 3929 9279
2012 7352 785 
2013 5854 9251
2014 1123 9642
2015 4063 6116
2016 5893 7961
2017 4062 9745
2018 9760 7140
2019 5104 4814
2020 3188 7249
2021 3103 6045
2022 8194 4412
2023 8421 912 
2024 5640 5484
2025 8776 9014
2026 5058 7358
2027 9969 4674
2028 7290 7112
2029 7811 4572
2030 544  9801
2031 7333 5921
2032 4337 3515
2033 8507 4252
2034 7472 4844
2035 5258 7103
2036 761  287 
2037 7887 7423
2038 4782 6424
2039 7575 4361
2040 5242 6949
2041 4592 4335
2042 3040 4958
2043 2653 1306
2044 7726 4094
2045 5271 5564
2046 9576 821 
2047 5359 8028
2048 5045 5860
2049 3200 3620
2050 8096 5731
2051 7642 5081
2052 7851 5060
2053 7942 1729
2054 7254 5370
2055 3791 4416
2056 4885 6007
2057 7921 5151
2058 8697 5613
2059 5643 1620
2060 7112 8134
2061 5397 5457
2062 9617 2491
2063 6772 4452
2064 5051 5524
2065 7868 4592
2066 8507 6994
2067 4292 7407
2068 9244 4969
2069 5213 5461
2070 4707 6879
2071 5690 8389
2072 1458 757 
2073 6488 7466
2074 5586 6573
2075 5669 8079
2076 4890 6855
2077 3725 3882
2078 5838 7377
2079 8841 4481
2080 5475 6048
2081 5438 5172
2082 5935 8000
2083 3184 1589
2084 5466 6992
2085 7968 4707
2086 8949 3949
2087 6502 2021
2088 7901 4839
2089 7759 4226
2090 9899 1855
2091 8215 5814
2092 5088 5650
2093 1166 5670
2094 7898 5023
2095 5293 6461
2096 8401 1840
2097 5124 5812
2098 5726 8513
2099 5447 5414
2100 2392 4162
2101 7657 4869
2102 6133 2003
2103 6272 7388
2104 5728 7451
2105 3282 2269
2106 5447 7536
2107 7648 4874
2108 7679 1566
2109 4865 6593
2110 3774 6491
2111 9785 9021
2112 5220 582 
2113 6231 4959
2114 3687 8582
2115 6158 4398
2116 8248 5900
2117 4859 7551
2118 5631 5877
2119 5169 6929
2120 6760 7449
2121 46   7185
2122 6129 8264
2123 8354 4201
2124 5577 7637
2125 2105 7904
2126 5403 5832
2127 3894 9404
2128 3992 341 
2129 2635 8691
2130 8901 5610
2131 5103 4921
2132 5768 7092
2133 2925 8095
2134 2230 4223
2135 9131 8563
2136 5883 8564
2137 7970 5054
2138 6774 370 
2139 6846 8458
2140 7688 4882
2141 5925 7419
2142 2462 6465
2143 6330 1082
2144 5829 8556
2145 8230 9845
2146 5767 5348
2147 7722 4800
2148 8774 239 
2149 3008 8189
2150 4827 5244
2151 7725 3319
2152 7199 7879
2153 5197 5275
2154 4749 6833
2155 9919 8717
2156 8136 4934
2157 8497 5486
2158 8423 5864
2159 8011 2471
2160 6943 295 
2161 8352 1114
2162 4542 6656
2163 3789 5636
2164 4654 6034
2165 5914 7817
2166 6015 4940
2167 4838 7382
2168 2826 6039
2169 8915 3178
2170 8496 4557
2171 5499 6620
2172 8581 6659
2173 4982 3833
2174 3190 81  
2175 6464 4107
2176 8454 2225
2177 5704 8229
2178 5039 6959
2179 5147 5181
2180 7281 4970
2181 8449 4656
2182 9001 4195
2183 5115 7206
2184 6109 3458
2185 2483 4406
2186 8688 4785
2187 6930 4496
2188 2438 9765
2189 6965 5614
2190 5557 7994
2191 8964 1874
2192 5514 6828
2193 564  6698
2194 2865 7926
2195 8089 4929
2196 1711 7753
2197 1759 7900
2198 2690 5788
2199 5488 6847
2200 161  1787
2201 7673 4832
2202 2651 226 
2203 267  499 
2204 7896 4808
2205 3514 4436
2206 8043 4971
2207 9002 9159
2208 6041 7129
2209 8931 7477
2210 8200 5011
2211 7482 9835
2212 8992 4932
2213 5398 5835
2214 4976 6574
2215 5139 6462
2216 1431 6009
2217 5553 7943
2218 5352 6956
2219 7400 4577
2220 4963 7009
2221 7495 5106
2222 9511 4132
2223 5487 7339
2224 5790 8368
2225 4905 3076
2226 1875 52  
2227 5077 5679
2228 5322 5766
2229 5764 5681
2230 4576 781 
2231 6599 9982
2232 5748 156 
2233 2041 1834
2234 5451 1579
2235 6092 8302
2236 5521 5821
2237 6245 9593
2238 5    2421
2239 4896 6485
2240 1299 6675
2241 7377 4185
2242 5958 8493
2243 7887 270 
2244 9330 5323
2245 5625 5270
2246 4660 5036
2247 7751 4903
2248 7014 4638
2249 6039 7311
2250 7234 2725
2251 5001 7064
2252 8195 5828
2253 7540 4817
2254 6462 7212
2255 7873 4859
2256 7877 4718
2257 6699 9755
2258 5378 7320
2259 2630 529 
2260 7723 4185
2261 5319 6702
2262 1986 1625
2263 5825 8065
2264 6316 3522
2265 6518 8685
2266 2851 4298
2267 547  7169
2268 3403 4489
2269 8203 4508
2270 8281 5708
2271 2291 5538
2272 4454 7671
2273 4880 7386
2274 8390 4777
2275 5524 7414
2276 1430 5846
2277 4563 7089
2278 5331 7791
2279 7826 4851
2280 5260 5649
2281 560  7289
2282 3068 9690
2283 2133 7057
2284 4791 2029
2285 8637 4977
2286 139  4849
2287 5187 7276
2288 408  1906
2289 4695 2673
2290 7958 3643
2291 5917 9343
2292 4973 5712
2293 2937 2555
2294 6449 8310
2295 5200 6457
2296 1155 4378
2297 5293 6932
2298 9017 1093
2299 626  1381
2300 8134 5087
2301 6852 5115
2302 6946 4279
2303 8690 6726
2304 6430 6512
2305 7612 4704
2306 8477 7279
2307 807  9064
2308 9325 7851
2309 6810 7855
2310 2863 17  
2311 504  9843
2312 9438 2741
2313 5123 5888
2314 9885 2026
2315 2925 4880
2316 4937 6994
2317 2545 6893
2318 8579 5905
2319 9144 8703
2320 6553 6492
2321 8652 4568
2322 7439 7947
2323 8471 4387
2324 4797 8130
2325 888  1132
2326 5065 8581
2327 7466 4962
2328 7183 1302
2329 714  8357
2330 5698 7870
2331 4808 6335
2332 4890 2242
2333 7170 5514
2334 7597 2876
2335 5572 7318
2336 7569 7671
2337 3198 2131
2338 7614 4830
2339 7840 9307
2340 9936 522 
2341 5017 6949
2342 5331 7409
2343 6544 8892
2344 5398 6862
2345 3937 9929
2346 5452 7134
2347 5025 5707
2348 5050 5363
2349 4668 5926
2350 5192 7440
2351 9226 4063
2352 4851 6332
2353 5101 8045
2354 7768 8434
2355 5455 7096
2356 4752 6980
2357 1945 9523
2358 5832 1216
2359 4363 2237
2360 9136 1400
2361 5634 6353
2362 190  5057
2363 8601 4651
2364 5701 5542
2365 7820 4799
2366 5160 6035
2367 5353 8049
2368 3920 9383
2369 8095 8252
2370 7735 4068
2371 7615 4649
2372 6081 7697
2373 8923 4486
2374 3498 5394
2375 7588 4314
2376 4917 6730
2377 5481 6758
2378 8207 4214
2379 2907 8206
2380 914  1009
2381 7133 4064
2382 574  3435
2383 8852 3484
2384 9749 6282
2385 2689 3371
2386 4468 7057
2387 659  747 
2388 5315 7800
2389 5511 7701
2390 4828 8336
2391 4812 762 
2392 3943 5656
2393 7226 3696
2394 5078 7296
2395 5246 5350
2396 5783 5715
2397 5006 6129
2398 1126 8540
2399 4975 7043
2400 9073 3838
2401 7284 1153
2402 8422 1621
2403 2351 8394
2404 5109 2462
2405 7631 3721
2406 5998 9955
2407 1450 8224
2408 1735 8681
2409 2278 7273
2410 4022 5974
2411 7101 4298
2412 5401 8058
2413 3801 5147
2414 8635 7006
2415 4435 4429
2416 752  6956
2417 6149 4830
2418 2201 5311
2419 5490 6744
2420 3780 5711
2421 8130 4577
2422 1315 5845
2423 4383 7395
2424 9767 9238
2425 7386 1529
2426 7224 7400
2427 3139 1078
2428 8550 793 
2429 2843 9739
2430 5281 8233
2431 6333 7908
2432 5295 5422
2433 5469 7312
2434 3420 9599
2435 753  7657
2436 7488 4687
2437 5311 6468
2438 407  2234
2439 4394 1178
2440 7620 4768
2441 2371 9068
2442 6111 7783
2443 4255 7528
2444 5249 7161
2445 9937 7074
2446 7726 3867
2447 7345 7715
2448 4664 6198
2449 6533 8535
2450 7611 4713
2451 7104 3298
2452 7871 4575
2453 8289 4417
2454 4945 6994
2455 5221 754 
2456 5855 7855
2457 4823 7938
2458 5138 7994
2459 7375 4449
2460 2149 5172
2461 2766 7930
2462 4778 7898
2463 5417 7544
2464 5434 7212
2465 5516 5315
2466 6660 4649
2467 8816 6953
2468 5034 5619
2469 8138 4857
2470 4171 5592
2471 4513 1729
2472 8086 4535
2473 5176 6982
2474 8128 593 
2475 4400 3745
2476 6989 8764
2477 758  9138
2478 2151 1393
2479 8387 8231
2480 6427 9279
2481 6032 7911
2482 5108 8045
2483 2548 8268
2484 2410 6833
2485 4975 7170
2486 3632 3843
2487 7943 4984
2488 6305 1285
2489 4194 7424
2490 7561 5085
2491 2260 1958
2492 6696 8871
2493 3368 357 
2494 8435 4786
2495 453  901 
2496 5780 8856
2497 1403 9138
2498 999  1490
2499 5161 7050
2500 4733 7319
2501 7489 4380
2502 8513 4640
2503 2899 9387
2504 8935 9161
2505 5355 6820
2506 9479 4783
2507 4776 5792
2508 170  431 
2509 7234 9046
2510 8471 8821
2511 4604 6171
2512 1949 2362
2513 4828 8158
2514 1635 9386
2515 5339 7641
2516 4259 3188
2517 7835 5196
2518 5589 8707
2519 6248 5373
2520 2478 7989
2521 5065 5497
2522 7710 4603
2523 1215 2726
2524 7807 4552
2525 5506 7185
2526 7350 8141
2527 7558 3750
2528 5495 6524
2529 1607 2182
2530 7676 4924
2531 4742 9144
2532 3746 6178
2533 7432 4273
2534 8471 5133
2535 8983 786 
2536 7637 4755
2537 2847 8198
2538 5089 6158
2539 5297 7713
2540 7765 2472
2541 3961 7015
2542 8162 4216
2543 776  5872
2544 855  1863
2545 7670 5876
2546 4509 7967
2547 6841 5191
2548 5475 5695
2549 246  4274
2550 4956 5409
2551 7068 4635
2552 8453 7927
2553 2335 8543
2554 5840 8018
2555 5764 5916
2556 3412 9241
2557 5060 2662
2558 9054 8437
2559 7864 5125
2560 5756 8591
2561 4584 5906
2562 8624 5543
2563 7722 4773
2564 5819 7297
2565 7723 5252
2566 4390 360 
2567 5564 8181
2568 1246 4095
2569 5341 6562
2570 7664 4916
2571 6935 5380
2572 9379 7663
2573 7996 3775
2574 8393 5173
2575 4961 5586
2576 1443 7977
2577 49   9901
2578 4377 7626
2579 1163 5319
2580 4914 5678
2581 1016 8869
2582 6075 8147
2583 5355 6784
2584 700  6484
2585 8765 975 
2586 6146 8347
2587 7021 4993
2588 9725 49  
2589 1831 6625
2590 6077 6901
2591 2538 6937
2592 4500 5867
2593 7571 4153
2594 8599 2016
2595 5546 2170
2596 7934 4871
2597 5029 5544
2598 7069 5595
2599 5587 8250
2600 3722 9958
2601 8020 5503
2602 4931 927 
2603 4029 2926
2604 6783 6869
2605 5307 5641
2606 7318 5152
2607 5061 5661
2608 1962 3344
2609 3444 2593
2610 7980 5080
2611 8576 9797
2612 863  9368
2613 9596 9049
2614 7554 4817
2615 3241 3949
2616 7890 5101
2617 5368 2760
2618 5724 8081
2619 7911 4821
2620 4996 6803
2621 9710 5810
2622 7121 2188
2623 190  6264
2624 7956 4688
2625 7852 5268
2626 3277 8898
2627 4052 7285
2628 8238 5394
2629 5425 5589
2630 5384 7123
2631 192  7440
2632 2193 2070
2633 5711 7076
2634 3853 6889
2635 2965 9841
2636 5867 8141
2637 4537 7837
2638 454  3719
2639 6123 4747
2640 5070 5381
2641 4953 6834
2642 5627 6521
2643 5745 7614
2644 4390 7234
2645 7223 4283
2646 6271 7392
2647 5308 9337
2648 5397 6834
2649 8756 3504
2650 7008 4342
2651 5605 7882
2652 5782 6863
2653 2584 3866
2654 5994 8565
2655 6628 7235
2656 5290 5050
2657 7879 4860
2658 5044 7312
2659 4846 6940
2660 4983 6544
2661 5756 8305
2662 1564 8829
2663 5087 7621
2664 7742 2987
2665 2163 545 
2666 2026 3574
2667 8419 4836
2668 8149 5587
2669 2647 1203
2670 4225 6552
2671 4686 6801
2672 4147 7100
2673 5689 5695
2674 4512 3239
2675 4141 8976
2676 8410 8521
2677 3688 6313
2678 8548 3742
2679 7580 2712
2680 5226 7976
2681 2844 752 
2682 5326 7908
2683 5144 5070
2684 9074 233 
2685 3112 5596
2686 7267 3133
2687 5598 6884
2688 5033 2209
2689 8533 7516
2690 5269 1282
2691 5269 7715
2692 5873 7542
2693 1712 7129
2694 9472 2025
2695 5904 7379
2696 5680 7015
2697 4856 5183
2698 1486 2684
2699 8535 4499
2700 4528 6821
2701 5468 6545
2702 300  1435
2703 1997 9539
2704 6393 8517
2705 3144 9693
2706 601  9236
2707 8636 9248
2708 5485 7774
2709 1226 8477
2710 3747 7898
2711 7714 5073
2712 992  950 
2713 679  878 
2714 7536 3359
2715 8559 4416
2716 4334 5516
2717 5222 7223
2718 6423 4865
2719 7537 5488
2720 6861 7882
2721 5745 7123
2722 1850 6836
2723 5311 6887
2724 726  5078
2725 9007 7456
2726 4915 6203
2727 7905 4753
2728 7468 4721
2729 7548 7072
2730 4870 6742
2731 4335 8621
2732 8375 4592
2733 8921 6213
2734 4960 5784
2735 746  7314
2736 2006 841 
2737 5401 7072
2738 7938 4397
2739 5594 7978
2740 5477 8481
2741 5940 7278
2742 5073 5672
2743 6764 3905
2744 4825 6596
2745 3556 5253
2746 2201 6969
2747 8055 4962
2748 1000 5620
2749 5573 7160
2750 345  6925
2751 5799 6098
2752 7366 5026
2753 8794 4395
2754 1953 1609
2755 6897 9452
2756 6067 4301
2757 5576 2556
2758 9880 3541
2759 1284 5633
2760 4696 7871
2761 8356 4740
2762 1668 8890
2763 1440 4703
2764 1106 9151
2765 4975 7375
2766 4661 7353
2767 9286 2098
2768 7521 4662
2769 7785 4865
2770 9074 9999
2771 7733 5084
2772 6001 8427
2773 8134 5237
2774 9651 4244
2775 4883 7231
2776 8676 19  
2777 9628 4035
2778 5598 6705
2779 5333 5892
2780 7537 4570
2781 4866 8208
2782 7696 5232
2783 4919 6943
2784 4868 6931
2785 5017 5631
2786 5623 9027
2787 4808 2803
2788 5463 7267
2789 4999 7152
2790 2282 7514
2791 6088 4432
2792 5283 6498
2793 5502 7034
2794 5062 2763
2795 2125 2553
2796 4594 5432
2797 1280 5778
2798 4503 5187
2799 7669 4528
2800 5284 1944
2801 2579 6080
2802 4707 6352
2803 6595 7590
2804 5008 5615
2805 4482 4859
2806 5644 7881
2807 612  8363
2808 5442 6097
2809 3081 8322
2810 8072 2475
2811 8757 4899
2812 4425 6871
2813 8121 5101
2814 7998 4932
2815 5653 6919
2816 8586 6857
2817 9665 7280
2818 6606 7084
2819 6933 1125
2820 162  5273
2821 1111 8012
2822 5806 9833
2823 4912 6956
2824 5366 5945
2825 7326 4864
2826 5927 8513
2827 6584 1297
2828 9869 1391
2829 7446 4196
2830 9187 4006
2831 9081 5346
2832 4883 7105
2833 9700 1441
2834 7598 1611
2835 7835 4980
2836 3284 6425
2837 7414 4059
2838 5759 6160
2839 9728 7974
2840 326  5656
2841 1762 9369
2842 4104 7066
2843 483  5614
2844 8028 3614
2845 5705 7881
2846 5698 7971
2847 5266 7998
2848 7853 4106
2849 4717 5728
2850 878  9578
2851 2040 2300
2852 392  7649
2853 9591 9873
2854 2280 7723
2855 5456 40  
2856 5368 1232
2857 5901 6115
2858 7922 5403
2859 1425 5462
2860 971  2648
2861 9927 1227
2862 9691 5442
2863 5563 7048
2864 7593 7834
2865 7347 9875
2866 5125 6930
2867 5239 7240
2868 2055 1586
2869 1316 3319
2870 4987 7300
2871 3238 2221
2872 7670 5116
2873 2467 8154
2874 8462 6818
2875 4890 7536
2876 5127 9071
2877 1094 3868
2878 8019 4762
2879 5890 7112
2880 5128 5056
2881 1587 1945
2882 5095 5951
2883 8744 5681
2884 6894 7988
2885 5179 4124
2886 1622 2293
2887 7493 4991
2888 8138 4452
2889 8352 5167
2890 7679 4617
2891 8065 2331
2892 8123 4921
2893 5534 7990
2894 9750 6564
2895 7614 5105
2896 8564 1041
2897 4851 9099
2898 6191 7511
2899 6405 7084
2900 3513 6662
2901 4994 7066
2902 6604 8916
2903 6267 6907
2904 5169 442 
2905 2564 1749
2906 6841 5333
2907 5480 7237
2908 4814 7185
2909 5257 6158
2910 8051 4915
2911 4699 7896
2912 1188 8805
2913 1310 5865
2914 7555 4018
2915 8387 4764
2916 3108 8758
2917 4186 7184
2918 4197 2379
2919 929  5466
2920 5754 585 
2921 388  5744
2922 5614 6797
2923 1074 3155
2924 5549 6269
2925 5198 7017
2926 4424 7973
2927 9748 9819
2928 7335 5513
2929 7942 4723
2930 3579 5396
2931 4049 4459
2932 2623 2554
2933 7420 6056
2934 4625 7157
2935 4874 5269
2936 5904 6450
2937 5216 8289
2938 5801 6651
2939 5425 7870
2940 8485 9485
2941 7579 4812
2942 5094 803 
2943 966  1786
2944 5278 9330
2945 5621 7802
2946 8902 4135
2947 3129 8997
2948 6890 8786
2949 1374 8427
2950 5636 6074
2951 7427 3942
2952 2676 5349
2953 4715 5657
2954 5463 5369
2955 1873 1746
2956 9108 4976
2957 5371 8858
2958 5196 5396
2959 5022 7137
2960 5028 6895
2961 4917 6558
2962 5078 7908
2963 7689 4605
2964 3954 5119
2965 8080 4723
2966 5826 7579
2967 1341 5074
2968 5686 7062
2969 1210 6908
2970 7981 102 
2971 5199 8264
2972 5642 564 
2973 5232 7162
2974 5279 5945
2975 4690 1023
2976 3268 7733
2977 7932 5752
2978 8238 4651
2979 5054 5772
2980 5861 6404
2981 2052 3849
2982 3852 3694
2983 200  6059
2984 8748 7751
2985 5038 8152
2986 7446 5957
2987 3901 5963
2988 4473 9453
2989 7952 4955
2990 4923 7179
2991 9369 7197
2992 229  4752
2993 3397 1617
2994 7603 4730
2995 7387 3948
2996 1618 3025
2997 7761 4703
2998 4909 6526
2999 5666 8499
3000 6913 5772
3001 5262 7237
3002 2164 1205
3003 4338 7342
3004 4387 6836
3005 7585 4561
3006 5170 5777
3007 9377 7503
3008 8265 4720
3009 2867 3136
3010 4125 6393
3011 7771 4675
3012 9056 4033
3013 5639 7215
3014 4045 4036
3015 5500 8291
3016 4834 6689
3017 5569 7858
3018 7475 7471
3019 5690 8351
3020 7957 4496
3021 4312 2366
3022 5397 3417
3023 7858 5011
3024 4830 5744
3025 5404 7579
3026 4779 8078
3027 9504 8445
3028 7922 5185
3029 8359 4462
3030 5331 6854
3031 2229 6683
3032 5228 6865
3033 5179 5675
3034 4193 8043
3035 970  9731
3036 5441 7179
3037 5355 7426
3038 4263 6328
3039 6715 3859
3040 8058 1599
3041 5048 7267
3042 4097 6262
3043 4981 4896
3044 7802 5379
3045 7561 4560
3046 9820 5140
3047 5179 6915
3048 5514 8456
3049 5957 7019
3050 4445 2421
3051 5101 6406
3052 5027 5887
3053 905  5701
3054 4475 962 
3055 5097 8357
3056 4891 6335
3057 4472 5524
3058 206  6858
3059 4731 5537
3060 5192 7053
3061 7856 4708
3062 5154 8114
3063 5032 5675
3064 4515 7211
3065 279  8885
3066 3184 672 
3067 6026 8577
3068 7748 5365
3069 5730 6059
3070 4813 5520
3071 6437 2292
3072 5590 3656
3073 5542 7990
3074 4765 6490
3075 5887 6975
3076 8839 4258
3077 7930 5074
3078 9939 1180
3079 2723 6806
3080 5599 7026
3081 7372 4723
3082 9468 5696
3083 5471 6580
3084 103  5565
3085 8615 4512
3086 7597 4462
3087 2733 2683
3088 3514 5904
3089 5477 6721
3090 8151 4920
3091 207  9004
3092 5434 7643
3093 5176 4551
3094 7984 4606
3095 4428 4741
3096 4215 2595
3097 5346 7040
3098 4740 7661
3099 1828 7673
3100 5063 7338
3101 5448 7355
3102 6232 7925
3103 5227 8525
3104 5148 6981
3105 5584 7280
3106 7092 2499
3107 2031 5348
3108 8808 8187
3109 4897 7329
3110 4697 7927
3111 7984 4267
3112 5033 5108
3113 8723 5991
3114 2295 9846
3115 6271 6639
3116 2602 3225
3117 5488 5941
3118 7297 8295
3119 3175 3528
3120 5231 6828
3121 2510 7345
3122 7687 4160
3123 4235 9449
3124 9918 5526
3125 4284 5896
3126 8754 8774
3127 5148 2356
3128 5271 5913
3129 5459 8149
3130 9240 4936
3131 6096 8421
3132 3197 3831
3133 5493 7946
3134 9641 3428
3135 8613 7036
3136 9064 4707
3137 5418 6737
3138 5238 7286
3139 5099 7113
3140 4880 5787
3141 7097 1923
3142 5108 5326
3143 7066 1266
3144 1400 7124
3145 5183 5865
3146 8473 4690
3147 4403 3399
3148 1525 1804
3149 4801 6612
3150 2538 9931
3151 127  2102
3152 6517 5930
3153 3937 9020
3154 658  1150
3155 5397 5490
3156 2903 4441
3157 3968 6862
3158 5003 5567
3159 6432 5106
3160 6207 9307
3161 4983 3227
3162 364  6741
3163 1301 2030
3164 1037 2020
3165 4554 7917
3166 3544 9338
3167 5195 7005
3168 4603 5521
3169 5457 5805
3170 5387 6610
3171 7757 4310
3172 9940 5562
3173 5009 6761
3174 3792 2308
3175 3835 9587
3176 813  1382
3177 736  4837
3178 4989 7010
3179 5492 8371
3180 4951 7937
3181 220  946 
3182 5585 6982
3183 281  8703
3184 5896 1366
3185 7376 4488
3186 1234 7259
3187 8437 4126
3188 5563 7051
3189 3003 8122
3190 5494 7288
3191 787  214 
3192 2643 9933
3193 8331 4463
3194 5969 9134
3195 4478 7815
3196 4859 5501
3197 8222 271 
3198 4172 5901
3199 7825 4939
3200 5735 4472
3201 8291 5437
3202 4784 7630
3203 9291 9746
3204 9862 8497
3205 5152 6498
3206 1766 3058
3207 4748 5792
3208 5282 7348
3209 5756 4431
3210 7900 5627
3211 5507 8752
3212 457  27  
3213 9040 9982
3214 7459 3105
3215 4737 7643
3216 7865 2042
3217 6226 9680
3218 4655 7100
3219 5035 6997
3220 9616 7160
3221 8549 4428
3222 5599 6949
3223 8194 3755
3224 5750 6697
3225 5706 7092
3226 3937 6772
3227 6039 6783
3228 5496 6448
3229 1842 2500
3230 9387 1654
3231 6312 5098
3232 4982 5651
3233 5104 6390
3234 7773 2797
3235 4733 5560
3236 4782 5294
3237 4730 5863
3238 1850 8272
3239 4564 5071
3240 6010 9002
3241 9693 794 
3242 7575 4967
3243 8145 5134
3244 7668 4241
3245 5272 6781
3246 5310 7061
3247 4871 6160
3248 5285 7159
3249 4184 6581
3250 3928 4277
3251 1519 2490
3252 1269 6959
3253 7940 8713
3254 5341 5351
3255 4896 751 
3256 3061 256 
3257 5823 6574
3258 4522 4742
3259 6783 5676
3260 5051 6629
3261 7600 4691
3262 5604 7903
3263 6214 5316
3264 5019 7832
3265 9406 8642
3266 5336 7152
3267 5447 5829
3268 8990 144 
3269 4214 7147
3270 5097 7429
3271 587  754 
3272 5514 6185
3273 5127 7790
3274 8660 4439
3275 4603 1012
3276 4675 5344
3277 3711 7982
3278 7691 4220
3279 6304 7495
3280 6391 7401
3281 2450 5734
3282 6154 5006
3283 200  2589
3284 4408 7682
3285 6183 8252
3286 4931 5863
3287 6436 6495
3288 5849 2152
3289 8581 1666
3290 5451 7148
3291 4192 1180
3292 4739 5007
3293 285  6300
3294 2026 1521
3295 7396 741 
3296 4752 7101
3297 8304 4258
3298 7440 8896
3299 7967 4952
3300 5186 6531
3301 8631 4542
3302 7606 6423
3303 5293 5486
3304 7256 4187
3305 7231 922 
3306 8354 4554
3307 4366 8091
3308 3681 8869
3309 9446 6516
3310 4035 5087
3311 172  8863
3312 5342 8028
3313 7393 5223
3314 216  6304
3315 7236 2415
3316 3393 1167
3317 8925 6404
3318 680  25  
3319 4999 6766
3320 7327 8189
3321 9191 9868
3322 9139 2394
3323 7355 4665
3324 4448 6544
3325 6091 3701
3326 5061 6903
3327 5593 8093
3328 5742 8170
3329 5050 5761
3330 2134 5307
3331 5237 6913
3332 5222 5215
3333 6003 7663
3334 5109 7595
3335 7960 331 
3336 5318 4836
3337 2159 3350
3338 5812 3703
3339 5269 7444
3340 5743 8089
3341 5211 6264
3342 5690 6167
3343 7285 4347
3344 3728 9928
3345 6105 7507
3346 574  3549
3347 5392 6989
3348 9089 8436
3349 4996 7264
3350 5574 8516
3351 9608 4726
3352 5059 8434
3353 3272 1149
3354 2655 5655
3355 7046 9612
3356 5656 7488
3357 8302 6390
3358 4260 5862
3359 5363 7207
3360 496  4470
3361 5606 8535
3362 5832 7153
3363 9446 8721
3364 5254 7473
3365 8356 3873
3366 377  637 
3367 2184 3147
3368 1142 3088
3369 4975 6847
3370 7378 4501
3371 4205 7404
3372 731  2936
3373 9894 3996
3374 7803 4665
3375 9062 4309
3376 4944 7031
3377 6213 1678
3378 5322 8309
3379 4255 1773
3380 7811 4531
3381 4810 7607
3382 9435 34  
3383 650  2917
3384 9932 2821
3385 7215 3804
3386 927  9974
3387 5136 3091
3388 1725 2107
3389 4768 7034
3390 9370 9850
3391 4807 8216
3392 88   290 
3393 1907 1357
3394 5632 7550
3395 5995 7730
3396 4330 8767
3397 6719 6955
3398 7924 5591
3399 1645 7074
3400 6728 5197
3401 4802 7624
3402 8476 2103
3403 5127 5613
3404 4442 6888
3405 3481 4384
3406 4394 2874
3407 5768 7068
3408 5790 6854
3409 8946 576 
3410 7792 4453
3411 5398 7416
3412 2423 10  
3413 5415 8506
3414 5282 5896
3415 5669 6124
3416 2930 2798
3417 8338 7546
3418 986  7368
3419 4889 7117
3420 8005 4591
3421 5530 7915
3422 8550 4918
3423 5121 5483
3424 5141 7000
3425 6178 7879
3426 354  4477
3427 973  8366
3428 5988 6386
3429 107  4258
3430 5374 2377
3431 8251 1612
3432 4555 5506
3433 8234 4469
3434 4164 5337
3435 9878 1384
3436 5094 7032
3437 4355 6139
3438 9086 2497
3439 7942 4777
3440 2832 4068
3441 5391 3489
3442 7748 4607
3443 8729 8828
3444 5746 8266
3445 1339 2048
3446 9851 2452
3447 346  3771
3448 1135 2242
3449 1423 404 
3450 7624 2337
3451 4659 6308
3452 6818 7719
3453 4921 5553
3454 2206 521 
3455 6332 1399
3456 9824 8519
3457 4953 5517
3458 9483 89  
3459 5062 7184
3460 1294 2769
3461 8824 5427
3462 9421 9154
3463 6012 8798
3464 5274 5409
3465 6475 4581
3466 1138 5851
3467 6739 889 
3468 5605 8475
3469 4462 5812
3470 5048 8030
3471 474  4846
3472 1284 4681
3473 1386 1348
3474 3263 5810
3475 7111 690 
3476 3140 9136
3477 5790 8075
3478 2565 6105
3479 8765 6032
3480 3074 6045
3481 7552 3860
3482 8740 1326
3483 5552 8700
3484 7789 5820
3485 5944 9506
3486 9239 4141
3487 6348 9161
3488 4786 5630
3489 9175 6442
3490 8559 6282
3491 7533 8008
3492 923  5730
3493 2734 8567
3494 4480 8949
3495 7312 1865
3496 6939 5625
3497 6310 7043
3498 963  6898
3499 3281 8795
3500 568  6697
3501 4999 6484
3502 5533 5308
3503 6102 7122
3504 4648 6056
3505 316  8891
3506 8367 5737
3507 8263 3996
3508 5670 7813
3509 7320 5417
3510 5005 5665
3511 4774 6443
3512 6166 8858
3513 4645 7687
3514 5267 6715
3515 8017 4820
3516 5622 2002
3517 5431 5120
3518 9025 2855
3519 7821 5843
3520 46   7970
3521 8383 4837
3522 7565 5050
3523 9742 1773
3524 7808 6033
3525 7666 4380
3526 5349 8469
3527 9280 6782
3528 8426 5887
3529 6436 7750
3530 4425 8321
3531 2664 7820
3532 8968 6487
3533 4622 6567
3534 8988 8571
3535 7870 4772
3536 7556 4628
3537 7836 4940
3538 6584 8273
3539 4444 9239
3540 4934 7903
3541 8140 1886
3542 5412 8632
3543 6052 8167
3544 6784 1812
3545 5387 6783
3546 7659 4604
3547 7967 5152
3548 8399 9434
3549 7812 4522
3550 7790 8485
3551 8013 6211
3552 5636 2308
3553 6548 7644
3554 7756 4740
3555 7744 4767
3556 5231 4947
3557 4599 5656
3558 6534 8057
3559 4591 7656
3560 6197 8944
3561 7484 9792
3562 7846 4588
3563 5073 2094
3564 1792 9378
3565 9027 699 
3566 7522 4135
3567 7825 4391
3568 5700 7717
3569 8482 7811
3570 8215 4815
3571 4921 5858
3572 5659 9308
3573 91   3139
3574 6771 1022
3575 5141 6959
3576 4397 7266
3577 6902 3640
3578 7995 5409
3579 4936 5612
3580 8809 4584
3581 5472 7141
3582 3301 6806
3583 6421 3436
3584 4535 7032
3585 5259 6604
3586 6611 4946
3587 8978 4342
3588 7533 4888
3589 166  4252
3590 942  2290
3591 5662 7978
3592 9395 7203
3593 4786 7796
3594 6388 5527
3595 5141 7703
3596 6198 7727
3597 8178 5297
3598 4911 6364
3599 7273 2800
3600 3365 4975
3601 5167 8082
3602 5027 1063
3603 5255 6806
3604 6165 1774
3605 4017 6533
3606 5469 5927
3607 5090 7221
3608 4286 2274
3609 8162 5152
3610 8557 4444
3611 4917 5989
3612 5475 5338
3613 884  3089
3614 7988 4305
3615 1714 8513
3616 1147 9558
3617 4437 5340
3618 7783 4557
3619 5705 8022
3620 5921 8049
3621 4630 6578
3622 5139 7245
3623 8060 4434
3624 9599 4125
3625 5839 1944
3626 4321 5315
3627 6133 7066
3628 7630 7667
3629 8639 1604
3630 3725 5796
3631 7870 4514
3632 7917 4552
3633 703  8259
3634 8066 3640
3635 4507 5404
3636 6305 4628
3637 7021 4256
3638 7924 4731
3639 5534 6125
3640 8338 2712
3641 4226 7221
3642 7721 4598
3643 6559 4844
3644 5118 5905
3645 9448 5522
3646 4824 6711
3647 6991 4132
3648 1538 5912
3649 4705 7103
3650 2462 826 
3651 6092 7585
3652 9162 6372
3653 8060 5194
3654 647  3853
3655 4444 27  
3656 8547 3056
3657 5860 5981
3658 6696 9901
3659 6902 9453
3660 4920 7687
3661 5142 7606
3662 9843 689 
3663 4950 9683
3664 5297 7746
3665 4508 1467
3666 4905 6948
3667 3841 7837
3668 4500 2351
3669 7705 5174
3670 8386 4004
3671 5007 6896
3672 8809 4411
3673 5054 5326
3674 817  9918
3675 7706 4604
3676 1443 1737
3677 1529 9237
3678 9695 2110
3679 3738 6867
3680 6022 8229
3681 5371 7224
3682 8497 5247
3683 6374 3907
3684 7207 5395
3685 6084 56  
3686 5160 5510
3687 7686 688 
3688 5575 6848
3689 5587 7877
3690 6872 3351
3691 4930 5711
3692 5278 6977
3693 5606 6514
3694 5179 5677
3695 7713 4488
3696 6848 5712
3697 7473 5219
3698 4800 7103
3699 3154 3956
3700 2452 6298
3701 6810 6944
3702 8709 3527
3703 6795 5308
3704 9355 6934
3705 9049 3776
3706 6145 7368
3707 5133 8360
3708 5705 8511
3709 6017 1930
3710 7934 5188
3711 7094 159 
3712 9111 873 
3713 5602 7594
3714 2528 289 
3715 4626 6754
3716 2303 1690
3717 59   2224
3718 5851 8592
3719 8980 2099
3720 7683 4893
3721 2707 564 
3722 4695 6852
3723 5294 9276
3724 7735 6917
3725 4499 7132
3726 8488 9153
3727 9166 8516
3728 8034 4513
3729 6141 823 
3730 8691 4556
3731 7827 7139
3732 4314 4721
3733 5225 6981
3734 6707 5450
3735 8449 3083
3736 7265 4693
3737 8550 9064
3738 4278 5199
3739 4509 8672
3740 4192 5260
3741 6148 7856
3742 7794 3760
3743 5231 6557
3744 4802 6060
3745 3843 2909
3746 5667 8199
3747 400  9490
3748 5049 5596
3749 5550 6568
3750 5109 7096
3751 5515 6707
3752 5253 7166
3753 2451 3689
3754 6741 8988
3755 5964 5849
3756 5188 7888
3757 3348 8060
3758 7917 4882
3759 7578 8049
3760 1731 4314
3761 3625 6355
3762 4368 2477
3763 7995 5481
3764 6399 2182
3765 6049 5433
3766 479  9234
3767 4976 6634
3768 4357 2040
3769 3350 1188
3770 5030 5570
3771 7108 9667
3772 3433 4647
3773 7871 6088
3774 8323 5228
3775 5438 7810
3776 4833 6961
3777 4623 1994
3778 5956 5211
3779 1913 5914
3780 2704 9398
3781 5268 7356
3782 5252 5849
3783 5284 6915
3784 7892 4936
3785 5005 7127
3786 5520 7913
3787 4605 6454
3788 5202 7760
3789 7368 4616
3790 4855 6803
3791 7862 4855
3792 6101 5781
3793 9681 342 
3794 5901 7666
3795 5052 5901
3796 5379 5637
3797 8053 4750
3798 8072 3319
3799 3053 8046
3800 5215 7418
3801 5269 4874
3802 4966 4580
3803 6785 7481
3804 5572 7429
3805 7472 5218
3806 4746 5689
3807 7659 3201
3808 1482 2107
3809 3711 5240
3810 7320 4641
3811 3312 4301
3812 7877 4642
3813 7833 4965
3814 1859 572 
3815 6315 204 
3816 5366 2531
3817 5092 7228
3818 4954 8538
3819 393  6197
3820 7977 5027
3821 1817 9184
3822 4460 4254
3823 5830 6637
3824 5828 4639
3825 5183 6144
3826 6292 8078
3827 4559 5627
3828 8519 5219
3829 8903 9743
3830 5020 7435
3831 6721 7387
3832 8155 4684
3833 8121 4812
3834 6921 2290
3835 5479 6647
3836 7977 3981
3837 5791 6896
3838 9397 6623
3839 541  8995
3840 5397 6790
3841 5266 4488
3842 5707 6962
3843 5087 7403
3844 6692 3433
3845 5146 6875
3846 5721 8825
3847 7230 5256
3848 5973 1155
3849 5572 7792
3850 5427 1059
3851 5221 7222
3852 1850 1582
3853 7510 6360
3854 807  5362
3855 5392 5852
3856 6114 7777
3857 7795 5807
3858 1463 1326
3859 4683 5857
3860 1280 1727
3861 8051 877 
3862 6544 2638
3863 5356 3497
3864 7954 5035
3865 4280 7509
3866 5596 6335
3867 9928 2058
3868 4308 8395
3869 7606 4392
3870 5409 5948
3871 2645 7915
3872 5212 6951
3873 1821 6362
3874 4851 6972
3875 7639 5216
3876 7260 4987
3877 2373 8354
3878 1720 9237
3879 5188 7463
3880 5346 6140
3881 4244 6196
3882 6576 5207
3883 4039 4740
3884 5653 7524
3885 3601 8471
3886 7101 1691
3887 9845 9056
3888 8077 4548
3889 4807 8274
3890 4716 9765
3891 4351 7244
3892 8184 7683
3893 8066 3959
3894 1978 8906
3895 5265 6797
3896 4900 3828
3897 7840 4456
3898 4976 6119
3899 4900 7091
3900 6864 7007
3901 7576 5041
3902 8386 4887
3903 5451 7992
3904 8137 3480
3905 1322 8392
3906 4832 5141
3907 5223 5519
3908 4424 907 
3909 9684 7199
3910 7366 8478
3911 9984 4880
3912 4047 6557
3913 4391 5009
3914 8372 4164
3915 5504 7639
3916 1409 9589
3917 4894 7119
3918 5811 4433
3919 9112 1146
3920 5432 6969
3921 7942 4948
3922 7962 4286
3923 2774 3371
3924 8773 7389
3925 5730 8209
3926 9259 5995
3927 3976 343 
3928 4161 6359
3929 7720 4680
3930 1211 195 
3931 7498 873 
3932 2697 2145
3933 9013 2401
3934 5793 6898
3935 4633 5978
3936 6121 6941
3937 8535 4961
3938 7857 9082
3939 6092 1418
3940 3107 1095
3941 587  2355
3942 5607 5879
3943 4499 8350
3944 8040 4622
3945 8325 4292
3946 2641 8934
3947 6802 578 
3948 8492 7340
3949 4499 5841
3950 4547 6302
3951 9263 4683
3952 2056 7336
3953 2133 1170
3954 7349 4888
3955 7501 4130
3956 2230 344 
3957 5065 6062
3958 9692 9712
3959 9984 6572
3960 7828 4842
3961 4810 7182
3962 5750 7474
3963 1566 2906
3964 7428 4434
3965 605  7094
3966 9880 7459
3967 6865 1018
3968 4693 6712
3969 5024 3631
3970 4938 6986
3971 2192 7081
3972 4920 8913
3973 1312 115 
3974 2729 3715
3975 7275 5695
3976 934  6850
3977 3622 3351
3978 5167 6984
3979 3089 3543
3980 5253 6742
3981 1473 160 
3982 6880 1608
3983 4772 5351
3984 7856 4810
3985 4623 6071
3986 5958 6748
3987 9148 8393
3988 3504 2402
3989 5502 6547
3990 7837 4846
3991 9746 8983
3992 5860 8476
3993 5553 6623
3994 5973 7998
3995 6694 1623
3996 6475 219 
3997 4776 7357
3998 5821 7779
3999 5082 6704
4000 2050 9445
4001 2885 2615
4002 5460 8433
4003 9299 6507
4004 162  292 
4005 5416 5936
4006 4185 1726
4007 4153 6719
4008 6176 3636
4009 8902 8853
4010 723  5614
4011 6911 6577
4012 1490 1749
4013 5089 5792
4014 4679 6504
4015 3822 7485
4016 6365 5830
4017 6816 9088
4018 5650 7628
4019 8096 5145
4020 7973 5137
4021 8293 600 
4022 4748 7039
4023 5373 9187
4024 5089 7146
4025 7711 4569
4026 2532 2032
4027 8310 7913
4028 1218 1517
4029 8034 4610
4030 4856 7637
4031 5260 6901
4032 7517 3644
4033 6483 4617
4034 5364 7446
4035 974  7109
4036 209  8999
4037 5689 6098
4038 1802 4688
4039 5876 8120
4040 4559 6933
4041 5675 5859
4042 3558 6912
4043 6155 6711
4044 8495 4807
4045 5050 6513
4046 7286 7713
4047 324  9963
4048 4572 5380
4049 4739 7831
4050 4694 4974
4051 6521 7905
4052 270  6435
4053 7672 5185
4054 5315 5905
4055 6829 9536
4056 6724 8764
4057 1283 8598
4058 5667 7565
4059 5624 5839
4060 7131 2477
4061 9121 2792
4062 6355 1155
4063 4637 7107
4064 6175 8084
4065 6212 8575
4066 370  8906
4067 7185 4210
4068 1013 9966
4069 4571 7130
4070 6079 7708
4071 4383 7208
4072 1851 3189
4073 8697 3647
4074 4471 6902
4075 7710 4407
4076 5776 7554
4077 7558 9913
4078 6925 5724
4079 5806 6447
4080 5855 7171
4081 1800 6512
4082 9546 9698
4083 7641 4722
4084 5464 5392
4085 5800 4522
4086 6086 6453
4087 8070 4670
4088 6168 4408
4089 653  5586
4090 5305 1160
4091 6811 9244
4092 5097 6638
4093 7125 6779
4094 6865 5533
4095 6204 7945
4096 3194 4962
4097 5640 7881
4098 2207 886 
4099 7655 9546
4100 8042 4416
4101 5143 5997
4102 9582 4872
4103 6186 7583
4104 5527 1299
4105 974  7967
4106 5575 8079
4107 200  8171
4108 3893 7504
4109 7823 8516
4110 6587 3394
4111 5130 5122
4112 7399 4771
4113 7538 3949
4114 2304 4149
4115 5382 6717
4116 5097 5570
4117 8793 8248
4118 5286 6048
4119 1245 6561
4120 3321 9600
4121 5442 7043
4122 5315 5523
4123 6542 9646
4124 5396 7343
4125 8504 4245
4126 2131 2492
4127 5994 4711
4128 3305 2819
4129 5254 6794
4130 5007 5259
4131 1535 8374
4132 7308 3903
4133 4805 7151
4134 5015 7055
4135 2678 8733
4136 1686 7165
4137 4309 7481
4138 7987 4174
4139 9656 7888
4140 1144 325 
4141 7859 5220
4142 9137 825 
4143 2307 5523
4144 3781 6523
4145 6429 7748
4146 4051 8020
4147 4581 3165
4148 5033 5113
4149 5125 7081
4150 8818 3094
4151 2656 654 
4152 5962 7789
4153 4680 5493
4154 5736 6855
4155 7865 3810
4156 1403 7135
4157 5162 7008
4158 7317 4487
4159 7726 5661
4160 5237 5711
4161 7746 3571
4162 586  5508
4163 7335 3098
4164 7306 6929
4165 5073 7142
4166 6533 4811
4167 3153 2976
4168 5940 7116
4169 8431 4864
4170 5924 6832
4171 8542 4523
4172 4987 7277
4173 4509 2711
4174 4871 7184
4175 8656 5487
4176 8229 8987
4177 5422 5538
4178 6368 8168
4179 8266 4137
4180 8307 4799
4181 4193 6764
4182 9698 2002
4183 4738 5439
4184 5576 8470
4185 8249 5370
4186 8162 4653
4187 2090 544 
4188 3854 1204
4189 7526 6097
4190 5858 7421
4191 8667 4532
4192 7798 4728
4193 7779 4364
4194 2114 4981
4195 1243 4173
4196 4332 7428
4197 7555 6547
4198 8105 4452
4199 6291 5162
4200 8036 4404
4201 2374 8794
4202 6821 6429
4203 865  2036
4204 5576 6618
4205 7405 5186
4206 5992 6423
4207 5585 960 
4208 5998 7896
4209 4254 8478
4210 5546 1257
4211 7502 5110
4212 8936 2873
4213 9902 3123
4214 5974 4241
4215 9310 5367
4216 5162 8140
4217 6797 3014
4218 111  4491
4219 488  1011
4220 5669 6030
4221 8368 6036
4222 2856 7451
4223 5309 6618
4224 8082 4938
4225 5503 7837
4226 7251 6332
4227 7998 4661
4228 5623 7403
4229 8757 6615
4230 1858 8564
4231 8193 2724
4232 3118 2630
4233 7812 4793
4234 8151 4313
4235 3040 6070
4236 3336 5475
4237 3036 2494
4238 3093 9856
4239 5932 8955
4240 2931 7416
4241 5559 9408
4242 5433 1953
4243 9823 5474
4244 4927 4802
4245 5346 7075
4246 4986 6061
4247 903  6749
4248 489  2918
4249 5218 6249
4250 8343 8694
4251 824  3824
4252 518  7264
4253 7752 4412
4254 2754 8632
4255 6096 8824
4256 5320 6999
4257 1563 7512
4258 5086 5315
4259 5687 8220
4260 7683 5387
4261 5468 1667
4262 2578 9191
4263 8338 4349
4264 4868 89  
4265 860  7200
4266 5501 7161
4267 1484 1686
4268 5680 8357
4269 6794 3053
4270 57   9433
4271 5660 7732
4272 3440 8692
4273 42   8612
4274 4921 8536
4275 2509 7717
4276 6929 9923
4277 3961 5634
4278 7600 39  
4279 725  2521
4280 6129 5256
4281 5448 6595
4282 9346 9427
4283 9472 2005
4284 5926 9405
4285 8671 5163
4286 5890 8319
4287 5954 7582
4288 183  4494
4289 5462 8427
4290 5370 8080
4291 8624 4914
4292 5626 4818
4293 9975 6085
4294 2178 7486
4295 5475 6815
4296 4901 7956
4297 4908 4868
4298 5451 7995
4299 5139 5537
4300 5277 1210
4301 2803 308 
4302 4447 6891
4303 1195 4036
4304 8618 4601
4305 4411 5950
4306 9583 4201
4307 6504 5317
4308 6792 2959
4309 5610 8191
4310 4871 7023
4311 2287 5945
4312 8781 3588
4313 5851 6320
4314 1255 5203
4315 5915 2410
4316 5629 6946
4317 1711 9234
4318 9885 665 
4319 9721 9763
4320 5331 5771
4321 3868 2098
4322 3943 7354
4323 2989 6115
4324 8344 4359
4325 6737 5982
4326 7818 5025
4327 8190 1028
4328 6427 8994
4329 5131 7065
4330 5333 4719
4331 9101 3416
4332 5422 7899
4333 8480 6918
4334 5595 8554
4335 4993 6888
4336 5592 4577
4337 5711 8036
4338 7857 5819
4339 4980 7735
4340 3346 5494
4341 4785 9702
4342 6172 4272
4343 2866 15  
4344 339  1329
4345 2668 2483
4346 4972 4498
4347 5023 5654
4348 7581 4355
4349 8577 9085
4350 8030 4909
4351 7697 239 
4352 5195 6790
4353 5776 6686
4354 5208 5232
4355 7861 9534
4356 8164 8090
4357 9657 2944
4358 3960 621 
4359 8204 894 
4360 1211 1067
4361 5691 7006
4362 5065 3858
4363 4999 7190
4364 7874 816 
4365 759  7120
4366 4420 6854
4367 5876 5941
4368 6360 848 
4369 4984 6938
4370 7001 3328
4371 8942 3712
4372 3459 3014
4373 5620 8328
4374 8774 8817
4375 5495 6574
4376 2332 2433
4377 7917 4840
4378 1094 8346
4379 4555 1287
4380 7804 4798
4381 612  1700
4382 7700 5089
4383 6130 6161
4384 4382 7627
4385 6123 9882
4386 5522 5436
4387 2392 5591
4388 5089 6588
4389 3668 8101
4390 8443 4873
4391 8007 5000
4392 7482 5432
4393 5895 1237
4394 8194 4870
4395 5135 7252
4396 7200 5166
4397 8254 5655
4398 5331 8704
4399 7731 3543
4400 5999 6446
4401 1765 7415
4402 2726 1530
4403 5606 6821
4404 7821 6145
4405 7979 5150
4406 2241 7434
4407 1260 9693
4408 5097 1613
4409 5547 8062
4410 4849 6951
4411 7828 4469
4412 3994 7857
4413 7792 7252
4414 8699 5448
4415 6571 7854
4416 7083 8018
4417 2894 4520
4418 6075 7734
4419 5812 7416
4420 8421 5259
4421 6317 6691
4422 7220 4500
4423 5301 5470
4424 5516 5828
4425 4826 7294
4426 8061 4045
4427 4951 5537
4428 7733 4946
4429 5308 6547
4430 7992 4436
4431 5031 6932
4432 9570 4774
4433 8612 4678
4434 4841 7119
4435 3371 9544
4436 7591 4449
4437 3981 6212
4438 3427 7157
4439 1190 7043
4440 5551 5190
4441 6055 7039
4442 4424 8626
4443 5767 362 
4444 6439 3234
4445 8075 4720
4446 4168 7681
4447 3260 2826
4448 78   8153
4449 4329 7093
4450 7996 5033
4451 9002 4460
4452 5944 8004
4453 5196 5541
4454 8368 4949
4455 8720 4602
4456 6056 8455
4457 826  2512
4458 2294 6559
4459 9593 4810
4460 6467 6479
4461 6698 4485
4462 8233 4282
4463 7760 8639
4464 7471 6549
4465 6013 6639
4466 7976 4484
4467 6053 7781
4468 7319 4671
4469 4545 9808
4470 6624 4205
4471 5748 8928
4472 7679 4813
4473 7479 5313
4474 4942 8195
4475 4838 6267
4476 9693 8868
4477 5356 6908
4478 4222 5444
4479 8224 5269
4480 5177 7896
4481 4687 8693
4482 2702 2855
4483 4495 5670
4484 5072 5807
4485 5753 7700
4486 5399 7505
4487 8121 4933
4488 1466 7018
4489 8315 4319
4490 9609 9176
4491 6322 3124
4492 4920 7572
4493 5510 8201
4494 1851 8276
4495 5373 6162
4496 5699 6357
4497 8687 1500
4498 5764 6394
4499 1321 5195
4500 7813 4634
4501 5735 8703
4502 6741 80  
4503 6982 6262
4504 2464 5725
4505 5709 8078
4506 8769 5869
4507 3553 1070
4508 7513 4800
4509 6659 9395
4510 2064 1689
4511 8744 4945
4512 5230 7938
4513 8128 5890
4514 292  1117
4515 5590 8308
4516 6020 9449
4517 6889 5839
4518 8542 1998
4519 6795 2367
4520 5027 7060
4521 4948 7083
4522 2000 609 
4523 8135 9828
4524 7693 5106
4525 851  7658
4526 6329 8086
4527 5217 6335
4528 5350 8201
4529 5511 4422
4530 5109 5404
4531 7388 4456
4532 8306 4755
4533 8143 4840
4534 8146 4284
4535 1929 1669
4536 4982 6881
4537 9221 1276
4538 68   4318
4539 4987 5178
4540 2395 3969
4541 4025 6289
4542 4626 7340
4543 4501 8860
4544 7010 6634
4545 6237 6584
4546 5411 6769
4547 6991 4826
4548 4473 413 
4549 6122 7144
4550 1208 5053
4551 75   3748
4552 283  7054
4553 2730 4497
4554 1406 8724
4555 6055 7341
4556 4886 5161
4557 4919 6938
4558 988  3456
4559 1041 752 
4560 7873 5464
4561 5338 6997
4562 5840 6658
4563 8089 5196
4564 5834 8602
4565 8124 4690
4566 5022 6510
4567 8292 4421
4568 2995 4442
4569 5036 7431
4570 5473 5307
4571 5141 6853
4572 7039 4247
4573 5133 6912
4574 4245 7507
4575 7059 63  
4576 7868 4830
4577 8042 4370
4578 9445 3406
4579 7740 4480
4580 1078 1500
4581 5396 6756
4582 5894 5935
4583 2827 9003
4584 1549 9678
4585 3477 5633
4586 5885 5065
4587 7663 4768
4588 6691 8114
4589 6137 2208
4590 5259 6740
4591 7713 5244
4592 5000 5489
4593 5769 7782
4594 5840 8044
4595 7340 6632
4596 3484 4837
4597 9235 434 
4598 7075 6988
4599 7345 4413
4600 8297 4790
4601 9490 5777
4602 2383 1866
4603 1824 7057
4604 4552 8286
4605 4445 5963
4606 3962 2366
4607 3884 6154
4608 5359 7126
4609 2687 477 
4610 1226 519 
4611 4598 7121
4612 5166 6631
4613 614  1588
4614 7405 5031
4615 8348 6388
4616 5454 7215
4617 5524 6888
4618 5037 5470
4619 8015 4339
4620 5426 5567
4621 5978 396 
4622 9406 1030
4623 8203 5520
4624 9990 7283
4625 7527 5268
4626 5000 7769
4627 4688 7205
4628 2247 5761
4629 8813 890 
4630 1116 1740
4631 5315 2638
4632 4845 5259
4633 5415 5123
4634 8005 5130
4635 6165 7100
4636 978  1093
4637 7293 4724
4638 5105 9205
4639 4268 5714
4640 1687 9749
4641 5710 7436
4642 5984 3486
4643 4974 5705
4644 6405 7746
4645 6758 7280
4646 4377 6142
4647 7690 4228
4648 6361 1459
4649 7306 4806
4650 9327 7423
4651 5437 7584
4652 4424 7156
4653 6188 7141
4654 7734 4622
4655 4858 3461
4656 5338 5470
4657 7745 5568
4658 1545 371 
4659 9079 6718
4660 8409 5360
4661 7758 4478
4662 5057 6798
4663 6489 6380
4664 441  5836
4665 5353 3640
4666 7997 4751
4667 5075 7006
4668 5888 7265
4669 5074 7075
4670 8855 3615
4671 7892 9464
4672 5270 3209
4673 5424 7157
4674 1890 7769
4675 1503 2270
4676 1112 8768
4677 8155 5155
4678 8135 3010
4679 4992 7452
4680 647  6883
4681 7541 4949
4682 6950 320 
4683 8742 5113
4684 4875 5633
4685 8664 1634
4686 6370 3490
4687 4279 2956
4688 5690 7850
4689 428  5495
4690 6149 5751
4691 5480 7227
4692 5815 8129
4693 7090 5271
4694 1301 4079
4695 6032 9502
4696 4966 7809
4697 7507 4462
4698 443  299 
4699 6026 535 
4700 84   559 
4701 3216 5080
4702 5332 9595
4703 8918 3061
4704 7648 3483
4705 3442 1752
4706 126  3433
4707 5017 9209
4708 3851 1750
4709 7749 5039
4710 5817 8048
4711 8073 4942
4712 580  4774
4713 8581 5104
4714 5225 7860
4715 7818 5131
4716 3995 7547
4717 7927 3857
4718 5717 2019
4719 1232 5084
4720 8252 4916
4721 7680 3984
4722 4148 2884
4723 8170 5014
4724 9554 2698
4725 5638 6984
4726 7988 5054
4727 6364 7585
4728 5764 6902
4729 5234 5311
4730 5997 7081
4731 5519 7795
4732 4369 6066
4733 8383 4971
4734 2856 4803
4735 5140 6723
4736 5478 3430
4737 9253 530 
4738 604  520 
4739 1267 376 
4740 7763 3756
4741 3085 5300
4742 5258 6366
4743 5594 7237
4744 4488 7517
4745 3941 7381
4746 7788 5776
4747 4157 7022
4748 7698 4264
4749 7717 4764
4750 4756 6415
4751 8261 2723
4752 5575 7235
4753 8338 6316
4754 3839 4807
4755 4871 7259
4756 7671 4541
4757 3316 5373
4758 912  2240
4759 8013 4519
4760 4972 5291
4761 7267 4445
4762 783  9038
4763 5002 7485
4764 2074 7126
4765 4456 3998
4766 4964 5687
4767 5620 6803
4768 2645 7014
4769 4986 7442
4770 7324 4639
4771 6097 6633
4772 7868 4631
4773 7630 5446
4774 555  6903
4775 7174 12  
4776 3156 4497
4777 1695 4134
4778 7378 4726
4779 4945 7232
4780 5197 1722
4781 5260 5817
4782 7793 5169
4783 8624 4748
4784 5440 6689
4785 1661 7954
4786 7925 4341
4787 944  2596
4788 5689 6783
4789 5405 5558
4790 4384 6793
4791 3950 5364
4792 5020 6983
4793 4617 8243
4794 7748 4833
4795 7429 5309
4796 7820 4310
4797 4833 6841
4798 9906 1721
4799 5733 395 
4800 2632 790 
4801 2871 3933
4802 4659 6574
4803 7910 4437
4804 6010 8068
4805 7496 5522
4806 5402 7047
4807 9961 4268
4808 6071 7652
4809 8677 7440
4810 5638 7168
4811 7660 3347
4812 7644 6024
4813 8086 4947
4814 7464 4670
4815 857  8224
4816 2322 9533
4817 5140 7261
4818 4916 5641
4819 3935 5150
4820 8838 8431
4821 6099 3580
4822 5893 2130
4823 5312 6214
4824 6733 6089
4825 7827 1610
4826 3760 6668
4827 5753 7165
4828 3646 7457
4829 5880 8029
4830 1843 6416
4831 7800 4379
4832 5483 6441
4833 3759 6987
4834 9293 6130
4835 2499 327 
4836 5889 7457
4837 5740 7983
4838 6066 7404
4839 848  996 
4840 8157 4874
4841 4413 5589
4842 4987 7216
4843 255  9112
4844 5686 8359
4845 3943 1724
4846 1503 3043
4847 2663 9949
4848 6062 587 
4849 5969 6469
4850 2763 8881
4851 5215 5213
4852 1632 2511
4853 4810 4010
4854 1930 9383
4855 5292 9701
4856 8140 6974
4857 7911 4881
4858 8365 5802
4859 7484 4957
4860 5410 8136
4861 5240 6594
4862 3103 1569
4863 4640 7302
4864 6069 7465
4865 5145 5582
4866 4481 5405
4867 7319 7815
4868 6902 288 
4869 3468 8104
4870 5517 5227
4871 5510 8206
4872 6343 7234
4873 7481 4983
4874 8741 6987
4875 1934 9362
4876 5824 7128
4877 5862 6656
4878 8040 5245
4879 7952 4472
4880 4612 6187
4881 7922 4909
4882 8970 1086
4883 8107 4997
4884 6982 9185
4885 843  1955
4886 1381 9236
4887 7779 4637
4888 5333 8556
4889 2592 4028
4890 6631 8948
4891 6934 2004
4892 5366 7988
4893 8441 7755
4894 5015 5808
4895 5541 8741
4896 8922 2753
4897 216  2492
4898 5042 6009
4899 8013 4728
4900 5554 8081
4901 5535 7482
4902 7461 8942
4903 9550 2991
4904 4628 7091
4905 7103 3872
4906 7681 3998
4907 6544 8516
4908 6132 6400
4909 6650 1287
4910 8084 4347
4911 5005 6838
4912 5323 8071
4913 7482 4437
4914 243  3376
4915 5651 5657
4916 5169 3225
4917 7150 4270
4918 7115 4405
4919 3796 7793
4920 5459 8043
4921 7122 4692
4922 5000 6394
4923 4999 5620
4924 5222 4070
4925 8479 1107
4926 4683 5122
4927 7876 4816
4928 6585 7662
4929 8766 9328
4930 7424 4580
4931 5523 8128
4932 8250 5040
4933 3841 6656
4934 4563 7636
4935 5287 5527
4936 4836 6876
4937 5298 5625
4938 8204 8920
4939 6356 829 
4940 5209 6695
4941 5309 7075
4942 4255 2019
4943 5752 7936
4944 8709 5341
4945 5507 8923
4946 7424 4610
4947 5603 8216
4948 6229 6902
4949 5873 8426
4950 4674 6069
4951 3629 5178
4952 6400 7857
4953 4485 5839
4954 4182 5031
4955 7930 4881
4956 7953 4465
4957 7837 4820
4958 4962 7019
4959 3954 5572
4960 7131 9203
4961 280  2095
4962 5106 7783
4963 4502 6286
4964 3192 4835
4965 5457 6947
4966 361  9125
4967 5247 7427
4968 8857 5961
4969 2980 4476
4970 8020 1305
4971 2577 6291
4972 5343 7945
4973 5444 4805
4974 5083 7055
4975 4918 5520
4976 8373 8740
4977 5604 7404
4978 6341 3872
4979 4930 4079
4980 4842 5334
4981 8050 5387
4982 6182 5619
4983 8259 5452
4984 5109 6843
4985 8070 9473
4986 8121 4531
4987 3841 9038
4988 7722 4665
4989 5440 8876
4990 6556 512 
4991 6815 7385
4992 4535 7041
4993 4945 4667
4994 6771 6546
4995 8467 4137
4996 7448 4861
4997 5609 6753
4998 2102 7866
4999 5662 8029
5000 6134 8078
5001 5753 7486
5002 4809 6351
5003 2819 9793
5004 7971 9121
5005 3813 6382
5006 2573 2353
5007 8575 8571
5008 5157 6646
5009 4638 5234
5010 7014 8879
5011 5207 6759
5012 8099 5792
5013 8234 2132
5014 698  1553
5015 3574 3036
5016 4878 7179
5017 8455 2176
5018 4532 5048
5019 7681 5553
5020 5375 5740
5021 5912 7886
5022 5208 6752
5023 7899 4733
5024 5294 5771
5025 9827 3660
5026 5715 8732
5027 7114 4586
5028 5714 4965
5029 4779 7043
5030 5388 6963
5031 7792 5014
5032 1091 8242
5033 5446 5464
5034 5724 5722
5035 1163 4409
5036 5399 7237
5037 5658 8385
5038 6251 8182
5039 4304 8508
5040 5974 8197
5041 5850 7752
5042 7178 3637
5043 8505 5319
5044 4427 6098
5045 7463 5416
5046 5871 7931
5047 8381 5361
5048 7028 4214
5049 5602 4425
5050 5181 5502
5051 7306 7622
5052 1082 6102
5053 4472 5295
5054 209  1314
5055 6920 5468
5056 878  1204
5057 8865 6708
5058 4457 6938
5059 5635 7875
5060 5515 8901
5061 4351 4197
5062 6285 8442
5063 3134 5149
5064 5181 6720
5065 3977 4912
5066 9718 8157
5067 5066 2688
5068 7799 4859
5069 899  7591
5070 3224 6293
5071 5190 7921
5072 6264 8020
5073 1972 7609
5074 9032 5709
5075 7414 7638
5076 729  3218
5077 7813 4689
5078 5476 7258
5079 5750 1352
5080 2238 9541
5081 4512 7230
5082 6733 6324
5083 4754 7147
5084 8872 3052
5085 3327 7536
5086 7280 4669
5087 1851 6923
5088 9412 2453
5089 5105 7309
5090 7886 4406
5091 4915 6709
5092 7797 4249
5093 5324 6831
5094 8159 4870
5095 7827 8348
5096 8395 4903
5097 6629 7824
5098 3846 6086
5099 3036 7351
5100 8383 4869
5101 5547 7235
5102 5505 8196
5103 802  3638
5104 6086 5847
5105 7844 438 
5106 3692 6269
5107 7558 4492
5108 1923 7844
5109 2797 4330
5110 7636 4625
5111 4963 5413
5112 7091 4649
5113 5006 7018
5114 7522 4959
5115 5057 6957
5116 4860 7370
5117 6685 9695
5118 2641 4300
5119 5462 7103
5120 5166 7100
5121 7814 4223
5122 4609 7086
5123 4233 7581
5124 5398 6987
5125 4811 7407
5126 266  6973
5127 4298 6966
5128 4937 7302
5129 7888 4338
5130 1982 5741
5131 6013 9692
5132 5372 6943
5133 4523 7364
5134 9127 9530
5135 1600 6035
5136 367  9205
5137 9656 5402
5138 5973 2307
5139 1895 6361
5140 4527 6785
5141 5619 8869
5142 5379 5500
5143 2305 455 
5144 8165 4475
5145 7538 2698
5146 6926 5073
5147 5116 7103
5148 5136 6207
5149 5339 6872
5150 4180 6751
5151 5070 7181
5152 4909 5361
5153 7082 283 
5154 1016 3168
5155 7843 4664
5156 7935 4486
5157 4873 2645
5158 3218 5902
5159 4506 7190
5160 5438 6123
5161 7125 5296
5162 2135 9307
5163 7479 4710
5164 9144 5237
5165 3431 6932
5166 8411 9089
5167 6891 1259
5168 8523 9023
5169 5584 6627
5170 651  9277
5171 4809 5469
5172 8147 4537
5173 4515 5917
5174 2399 9849
5175 5153 5483
5176 5459 5502
5177 5307 6999
5178 1957 287 
5179 5118 5408
5180 7434 4304
5181 4829 7382
5182 857  7561
5183 3953 9746
5184 8062 4571
5185 6938 7333
5186 4078 149 
5187 3965 2200
5188 5928 7055
5189 3227 8320
5190 7937 6678
5191 5165 7651
5192 1859 9133
5193 5055 5488
5194 5968 6839
5195 3018 18  
5196 6156 6616
5197 5235 5592
5198 71   8229
5199 7415 5697
5200 4782 5771
5201 5246 9045
5202 9351 859 
5203 7522 3624
5204 5334 6764
5205 4847 8170
5206 4914 5754
5207 6234 6954
5208 5402 6032
5209 5069 6505
5210 8028 4786
5211 5669 4127
5212 7832 4328
5213 6453 7829
5214 7867 6165
5215 4323 6720
5216 5168 6525
5217 3033 6413
5218 2237 3489
5219 2264 9270
5220 6179 7313
5221 9442 7396
5222 3308 3299
5223 546  6537
5224 7201 6391
5225 4363 6719
5226 4773 6924
5227 5452 6727
5228 8571 8755
5229 7708 5429
5230 5417 6975
5231 625  3629
5232 5614 8151
5233 3737 8617
5234 5049 1404
5235 8191 2730
5236 4746 7588
5237 5474 7467
5238 2393 9127
5239 6003 8165
5240 8014 4684
5241 6347 6138
5242 7305 5680
5243 1998 8751
5244 8273 4662
5245 5722 8977
5246 2171 9402
5247 3653 5508
5248 8977 8327
5249 8512 5266
5250 3189 4547
5251 6094 763 
5252 5545 8125
5253 7356 6196
5254 7317 5418
5255 5837 5759
5256 8343 3672
5257 6190 7255
5258 2667 2758
5259 2209 7573
5260 4586 1640
5261 6255 9494
5262 5202 6787
5263 3030 184 
5264 9920 5934
5265 4114 3483
5266 4008 4148
5267 6887 2507
5268 5660 8314
5269 1226 8777
5270 5229 8096
5271 7615 4774
5272 5552 5988
5273 5662 6633
5274 6129 3415
5275 4123 4246
5276 1197 7607
5277 9020 4977
5278 6206 8162
5279 3405 8047
5280 4798 7266
5281 7785 4703
5282 7501 5438
5283 7248 5204
5284 66   5221
5285 3831 6694
5286 9422 9495
5287 5334 6975
5288 4872 7451
5289 5656 8436
5290 5220 5151
5291 7660 4738
5292 5254 6793
5293 6905 1899
5294 7794 5024
5295 5245 7081
5296 2542 7385
5297 4533 6088
5298 6102 5096
5299 2391 972 
5300 4563 8329
5301 5435 8463
5302 5459 3300
5303 9249 5905
5304 9666 4311
5305 9181 9112
5306 2012 8371
5307 7251 5439
5308 2813 1281
5309 7002 9194
5310 3446 8358
5311 4652 6794
5312 4864 6229
5313 1794 1452
5314 5181 5126
5315 4170 7556
5316 7626 4714
5317 3227 1516
5318 7240 9898
5319 7079 5592
5320 9739 6646
5321 923  3462
5322 4674 8980
5323 5413 5816
5324 2250 6894
5325 5091 7145
5326 1877 1990
5327 1751 6566
5328 6312 1104
5329 6228 8493
5330 8037 4809
5331 8167 4949
5332 7601 4476
5333 666  9302
5334 4652 7261
5335 3502 596 
5336 6013 4496
5337 5129 9946
5338 7744 4694
5339 5340 7077
5340 7022 9197
5341 1257 1756
5342 9364 2954
5343 5560 6392
5344 5343 6295
5345 5451 5845
5346 5535 7988
5347 7709 4505
5348 7897 4700
5349 1180 8261
5350 7736 4958
5351 9814 9561
5352 6984 3779
5353 5402 9082
5354 8575 4932
5355 4288 7245
5356 1508 6965
5357 5090 1434
5358 9903 1005
5359 2403 214 
5360 643  4045
5361 5573 7192
5362 7450 5833
5363 2698 1531
5364 9242 2599
5365 5642 6880
5366 5805 7508
5367 5748 7025
5368 2480 3344
5369 6934 3757
5370 1022 4936
5371 6270 5611
5372 6041 6656
5373 4736 5541
5374 9513 9144
5375 5488 8519
5376 7716 4683
5377 5392 5840
5378 5426 5644
5379 2588 8080
5380 5571 8033
5381 8215 3912
5382 5367 5614
5383 9743 6185
5384 5615 5477
5385 457  8506
5386 1124 317 
5387 7379 5288
5388 9234 6476
5389 141  4057
5390 5186 5199
5391 5579 8025
5392 4866 3229
5393 7177 3585
5394 8075 4875
5395 3239 4257
5396 6220 8217
5397 4914 5988
5398 6216 5247
5399 6125 5542
5400 6325 4831
5401 6875 6532
5402 4573 6840
5403 5516 1386
5404 4269 9428
5405 1098 7734
5406 6282 6019
5407 5529 7132
5408 7203 5157
5409 4295 4347
5410 6292 3455
5411 4979 5466
5412 5421 7503
5413 3360 9457
5414 6497 1939
5415 9886 7167
5416 2685 5614
5417 5553 8283
5418 2696 7440
5419 2200 3859
5420 5416 8055
5421 5236 9496
5422 8251 4306
5423 7695 4646
5424 4760 7704
5425 7240 5404
5426 4449 9281
5427 4836 7242
5428 1075 3570
5429 8145 28  
5430 5179 7225
5431 5916 8246
5432 4943 6567
5433 7038 1518
5434 331  6272
5435 9842 1607
5436 4327 6468
5437 9578 1102
5438 8573 4246
5439 7424 5163
5440 7372 9916
5441 4882 3051
5442 4805 8317
5443 5620 5636
5444 5665 6891
5445 8262 4627
5446 7771 1633
5447 4689 9600
5448 7240 9312
5449 5498 7459
5450 7099 4691
5451 5188 5975
5452 2836 2886
5453 4261 5315
5454 2472 441 
5455 4791 5662
5456 4191 7174
5457 8074 1995
5458 4364 1504
5459 9744 7848
5460 8385 814 
5461 7283 4977
5462 979  2926
5463 6692 6256
5464 4568 5658
5465 5218 4429
5466 5504 2768
5467 3678 1587
5468 4520 5638
5469 4185 6935
5470 6316 8213
5471 5375 7046
5472 9561 6616
5473 8975 4544
5474 4755 27  
5475 5115 5197
5476 5568 3910
5477 4896 6399
5478 8157 8323
5479 7825 4845
5480 5149 7663
5481 5388 5737
5482 2172 773 
5483 8893 4381
5484 6517 411 
5485 5835 8284
5486 4088 4675
5487 7684 5014
5488 9095 5078
5489 5423 7930
5490 4543 3334
5491 5128 7725
5492 9169 8103
5493 6506 7366
5494 5198 5946
5495 7705 2990
5496 4390 4439
5497 9199 343 
5498 5400 6940
5499 5481 5711
5500 4893 7170
5501 7799 5760
5502 4928 6436
5503 6457 5263
5504 5336 4853
5505 5529 6953
5506 5906 7884
5507 5922 7967
5508 5239 3738
5509 4766 7966
5510 7763 5536
5511 4567 6724
5512 7836 8043
5513 4165 5362
5514 5371 7923
5515 4388 8172
5516 7613 8429
5517 2300 2182
5518 2610 6318
5519 6670 2488
5520 4372 9088
5521 2377 8471
5522 6991 3403
5523 8572 8084
5524 5980 8558
5525 5750 9340
5526 8528 8077
5527 883  7839
5528 6111 6022
5529 2811 4820
5530 4681 5198
5531 1668 7155
5532 4658 8418
5533 5772 4781
5534 2953 200 
5535 5419 6467
5536 7783 4938
5537 4925 7919
5538 4617 7174
5539 9549 2592
5540 5562 6907
5541 8128 5945
5542 7531 5117
5543 4975 6913
5544 5250 8192
5545 6607 5181
5546 5457 9804
5547 7978 4887
5548 7875 4721
5549 3642 1333
5550 4776 6232
5551 4536 7325
5552 578  700 
5553 4831 6898
5554 3258 1082
5555 2420 6805
5556 7818 4819
5557 4795 4209
5558 5570 5945
5559 4459 9141
5560 5502 2340
5561 5709 5375
5562 4961 5622
5563 7020 2183
5564 6129 6996
5565 80   5334
5566 9554 7581
5567 8876 9   
5568 7515 4285
5569 4390 840 
5570 7862 2006
5571 7792 9705
5572 8492 6790
5573 4963 5694
5574 4653 3719
5575 5655 8032
5576 5946 7780
5577 4842 6848
5578 8277 5133
5579 6161 3557
5580 5220 8138
5581 3951 7799
5582 4619 5768
5583 1156 1970
5584 3772 2743
5585 5179 6936
5586 8621 3908
5587 3862 4869
5588 5349 7059
5589 3050 5336
5590 7842 4781
5591 4241 282 
5592 7137 4149
5593 8627 1660
5594 6007 8424
5595 5547 8534
5596 5190 6371
5597 7849 7229
5598 8513 2405
5599 5214 3813
5600 7887 809 
5601 4539 5602
5602 7865 5078
5603 5121 5793
5604 7571 4776
5605 5191 6863
5606 1736 3521
5607 6299 7250
5608 4828 5358
5609 5422 9966
5610 7905 4664
5611 9363 2588
5612 5227 6792
5613 2571 5183
5614 8112 4990
5615 4365 4537
5616 4770 2123
5617 8445 5889
5618 8533 4873
5619 5674 8376
5620 8119 4544
5621 6707 2144
5622 5470 6963
5623 6904 3243
5624 3928 6731
5625 4609 5248
5626 4936 5594
5627 4576 642 
5628 4710 6409
5629 5987 7606
5630 6904 8699
5631 7604 2433
5632 5048 7148
5633 8297 4831
5634 3718 229 
5635 5464 7187
5636 4318 7477
5637 2830 5150
5638 8220 4203
5639 401  4191
5640 7975 5252
5641 7944 4648
5642 1133 2792
5643 628  1640
5644 7918 4759
5645 3204 9642
5646 6447 5133
5647 6076 7044
5648 2838 9976
5649 9208 3793
5650 5842 3631
5651 5522 8314
5652 5437 6305
5653 4821 6085
5654 7874 5391
5655 5549 8681
5656 3780 747 
5657 5642 5186
5658 4669 7120
5659 4946 5091
5660 4544 5006
5661 8895 5710
5662 5504 8014
5663 8935 6896
5664 5591 2074
5665 6701 3648
5666 2859 7463
5667 9798 380 
5668 3625 8821
5669 4985 3077
5670 2553 9433
5671 3673 2280
5672 7914 9224
5673 9839 3501
5674 7556 4956
5675 4999 8570
5676 9127 1825
5677 6352 6089
5678 9482 2352
5679 995  9364
5680 2777 864 
5681 5577 6672
5682 5622 6849
5683 4167 5751
5684 5218 7143
5685 4778 6696
5686 6271 6184
5687 4954 6228
5688 4230 5990
5689 1343 3409
5690 7972 4855
5691 6289 9059
5692 5794 4163
5693 9740 1941
5694 5571 7311
5695 1347 1059
5696 5839 4907
5697 8993 6344
5698 5145 7074
5699 9984 7235
5700 3358 5368
5701 6310 1710
5702 5850 1144
5703 5352 8622
5704 6747 8590
5705 6766 979 
5706 46   9421
5707 9786 613 
5708 5742 5857
5709 8097 2441
5710 4029 4453
5711 4649 6873
5712 7792 2726
5713 677  3071
5714 5192 5816
5715 6063 6293
5716 7931 5068
5717 6602 6913
5718 8017 4908
5719 6316 6792
5720 609  2294
5721 7408 4010
5722 6458 9178
5723 6902 3824
5724 4902 5506
5725 8574 2832
5726 4575 5506
5727 166  1270
5728 4826 7955
5729 6127 4625
5730 6227 9992
5731 3923 8639
5732 4727 5148
5733 447  7347
5734 8802 9538
5735 7087 6148
5736 4351 8636
5737 5135 6231
5738 5075 8528
5739 5183 5486
5740 4981 6914
5741 3537 5665
5742 8560 4570
5743 293  6172
5744 5647 8080
5745 7850 4779
5746 4711 6907
5747 6744 8240
5748 5182 5437
5749 3900 7311
5750 7960 2871
5751 7707 5087
5752 6650 6739
5753 3340 9858
5754 2575 4347
5755 8408 7308
5756 7586 5336
5757 4363 9964
5758 7044 1504
5759 2247 3892
5760 9088 7919
5761 1453 3428
5762 4423 6893
5763 1832 5339
5764 1974 4106
5765 6313 6407
5766 1419 9200
5767 2992 7051
5768 7665 4476
5769 8388 5911
5770 9206 9350
5771 6265 9301
5772 195  1476
5773 8740 7307
5774 5925 7634
5775 2292 7499
5776 5871 7786
5777 9069 294 
5778 4873 7248
5779 5386 7419
5780 7770 4868
5781 5379 9341
5782 66   6191
5783 5237 7633
5784 5485 8000
5785 6236 1097
5786 8395 4765
5787 7872 8070
5788 4583 6021
5789 5000 7228
5790 2649 2472
5791 8944 4679
5792 4402 970 
5793 2800 9937
5794 7344 8358
5795 3778 2077
5796 4883 1897
5797 5451 6378
5798 7408 4966
5799 6418 7744
5800 7551 4508
5801 7911 4460
5802 5421 6553
5803 5386 6768
5804 5153 7003
5805 1477 7512
5806 5617 8035
5807 9548 3569
5808 6301 1049
5809 9362 2142
5810 8374 288 
5811 5190 1605
5812 7477 6350
5813 7716 4490
5814 3012 1000
5815 7098 6784
5816 8868 9583
5817 9723 3065
5818 5816 6843
5819 5292 5701
5820 5899 5111
5821 5153 7077
5822 6030 5487
5823 966  3628
5824 6812 8217
5825 5205 7161
5826 9007 4205
5827 6571 8036
5828 2434 8646
5829 5461 7535
5830 160  5998
5831 6736 8675
5832 5317 5912
5833 2742 3123
5834 5079 5173
5835 8148 5139
5836 1131 6008
5837 5918 7731
5838 1750 6910
5839 8024 4732
5840 5280 6670
5841 2128 904 
5842 7105 4302
5843 6899 8357
5844 7019 5217
5845 2133 9683
5846 5798 5874
5847 5890 4329
5848 5430 7894
5849 7912 4459
5850 4071 9604
5851 4093 5784
5852 309  1780
5853 3032 5992
5854 7335 4280
5855 9204 4587
5856 4793 2764
5857 5372 7304
5858 7396 4538
5859 5296 7893
5860 2161 6135
5861 5215 7647
5862 3773 731 
5863 5871 7995
5864 8281 208 
5865 5167 6999
5866 7917 4836
5867 7015 4248
5868 5783 7266
5869 7850 4178
5870 6054 7956
5871 3646 5662
5872 5094 9819
5873 5260 7786
5874 5394 8299
5875 141  5781
5876 118  8436
5877 257  6133
5878 4859 5978
5879 4637 5650
5880 7421 339 
5881 1620 6168
5882 4678 5030
5883 5783 7488
5884 5357 6900
5885 4160 2331
5886 5369 5905
5887 502  9691
5888 4592 1250
5889 1931 6013
5890 4560 8545
5891 7365 4949
5892 8954 173 
5893 8793 8374
5894 5792 8695
5895 4913 6789
5896 8201 5019
5897 4907 7582
5898 3634 5653
5899 3049 1523
5900 7811 5297
5901 5581 8768
5902 4936 6724
5903 7923 5266
5904 2720 5152
5905 7943 4757
5906 6157 7821
5907 8748 2253
5908 618  5712
5909 5054 5565
5910 8488 9428
5911 8176 3606
5912 8003 562 
5913 8579 8009
5914 3449 4283
5915 9011 621 
5916 7803 5125
5917 5806 8293
5918 4458 7082
5919 5703 1350
5920 5773 8484
5921 602  7583
5922 5255 6896
5923 5740 9596
5924 5243 5531
5925 7923 5050
5926 8129 7931
5927 5766 7658
5928 5022 6955
5929 5628 7746
5930 8002 4663
5931 7613 4758
5932 3435 3931
5933 4953 7191
5934 9137 2982
5935 7711 5033
5936 5895 7538
5937 2872 942 
5938 4554 8629
5939 8746 6529
5940 7774 862 
5941 7362 4453
5942 2443 5548
5943 5011 6763
5944 564  8566
5945 773  7973
5946 5019 6549
5947 8246 5368
5948 7815 4417
5949 5759 7151
5950 1487 5832
5951 946  223 
5952 8308 4356
5953 3368 2085
5954 4560 7469
5955 5872 8120
5956 4686 7729
5957 2917 8543
5958 4485 5703
5959 1344 8880
5960 5152 5860
5961 8263 4797
5962 7485 6949
5963 6821 4104
5964 9920 7382
5965 9688 3155
5966 5707 139 
5967 2678 9773
5968 1111 6001
5969 5165 7886
5970 7673 4420
5971 5275 6962
5972 4296 6838
5973 4795 6860
5974 5219 7380
5975 5361 6388
5976 7576 5102
5977 1893 7828
5978 8311 4374
5979 1123 1953
5980 7239 4755
5981 5247 7417
5982 5195 5906
5983 1330 5441
5984 4987 8406
5985 8095 4202
5986 7115 42  
5987 8334 3237
5988 4984 6211
5989 6329 8929
5990 8037 640 
5991 9801 8018
5992 9411 6170
5993 8034 4974
5994 6660 4957
5995 9082 4373
5996 4757 5780
5997 8601 5150
5998 2402 124 
5999 2548 8387
6000 8178 4901
6001 2523 7396
6002 2831 5927
6003 4182 8131
6004 7741 4550
6005 3071 8550
6006 2177 1987
6007 7955 851 
6008 5127 5708
6009 2074 8832
6010 4807 440 
6011 7441 3938
6012 7689 4880
6013 6625 230 
6014 5983 2334
6015 7800 3477
6016 8480 6978
6017 4243 7989
6018 7826 5920
6019 6908 4447
6020 9196 3713
6021 5931 5288
6022 8057 4723
6023 7190 9775
6024 5872 893 
6025 5621 7817
6026 5203 6604
6027 5023 6274
6028 7909 4503
6029 5502 6823
6030 7865 796 
6031 9334 1278
6032 5974 6750
6033 2609 2023
6034 8337 4170
6035 2019 5111
6036 6354 3685
6037 4160 4814
6038 7957 6333
6039 7443 6715
6040 5800 6868
6041 5477 9422
6042 5100 2910
6043 4378 2609
6044 5189 5563
6045 4586 8285
6046 3699 8756
6047 6886 2959
6048 4292 4202
6049 4213 8820
6050 5528 3763
6051 5745 6472
6052 4716 2830
6053 7916 4896
6054 1839 2997
6055 3517 1175
6056 5139 5068
6057 5337 6638
6058 5277 9432
6059 3895 4762
6060 5278 6642
6061 6772 8624
6062 9908 7469
6063 5756 2751
6064 1175 4414
6065 4049 8314
6066 5169 6926
6067 8238 4715
6068 7485 9617
6069 7950 4875
6070 9514 3332
6071 9109 6685
6072 4801 6451
6073 5537 6612
6074 5246 6214
6075 4132 5587
6076 5843 7719
6077 8833 2628
6078 5317 7161
6079 8026 4906
6080 4723 7383
6081 216  4160
6082 7606 4693
6083 8772 1063
6084 4936 7171
6085 5866 8395
6086 5086 7094
6087 9695 5368
6088 5929 1613
6089 6858 2792
6090 6392 5555
6091 7737 5355
6092 7656 3777
6093 5427 7652
6094 4518 7380
6095 4636 6063
6096 4793 7099
6097 9423 8844
6098 8009 4724
6099 3481 4850
6100 5447 6075
6101 4325 5996
6102 4936 6635
6103 5168 9910
6104 4789 3813
6105 9056 5245
6106 5049 9687
6107 8216 8763
6108 5031 7128
6109 1877 4287
6110 7180 3697
6111 5409 6569
6112 4231 6853
6113 9944 3467
6114 2559 6261
6115 1680 2925
6116 8273 7539
6117 5765 6917
6118 2537 3695
6119 7937 5359
6120 4722 6874
6121 6498 8074
6122 7143 5118
6123 5382 8214
6124 5397 6182
6125 5593 6998
6126 201  633 
6127 2535 5897
6128 5345 8076
6129 1721 9842
6130 7828 4658
6131 6386 949 
6132 8267 5011
6133 5191 6627
6134 4579 7362
6135 9804 5268
6136 5590 7956
6137 5531 7605
6138 4772 9938
6139 5697 7085
6140 5934 6962
6141 4923 781 
6142 1097 9194
6143 5097 8293
6144 5415 7945
6145 5135 5261
6146 5463 6672
6147 8049 9289
6148 2103 721 
6149 5091 6804
6150 7579 9924
6151 4558 6510
6152 8160 1730
6153 5383 7223
6154 5765 2883
6155 5434 8180
6156 8016 5033
6157 5041 6849
6158 8060 5103
6159 4001 5543
6160 1615 4019
6161 5313 8350
6162 4873 8327
6163 5461 8121
6164 8589 4718
6165 338  8558
6166 2433 5585
6167 4852 9149
6168 3667 4480
6169 1671 3222
6170 5268 7104
6171 7165 4257
6172 5027 7026
6173 5344 6026
6174 6798 372 
6175 2029 6015
6176 2088 5540
6177 1143 4266
6178 9227 4264
6179 5984 5422
6180 7137 5604
6181 7073 1316
6182 7755 4864
6183 3042 2368
6184 9467 8548
6185 3701 9605
6186 5262 6921
6187 5191 8029
6188 4702 7055
6189 5995 6779
6190 7827 4461
6191 5874 7019
6192 7413 5235
6193 3113 3789
6194 5475 5315
6195 3616 6452
6196 7748 2440
6197 952  3973
6198 7453 3180
6199 8307 5315
6200 4831 5876
6201 7383 2340
6202 1594 817 
6203 4603 5855
6204 7764 5252
6205 7751 5033
6206 5002 6861
6207 1746 7291
6208 1695 5402
6209 4672 7052
6210 9924 3053
6211 1878 3972
6212 8473 4423
6213 6427 7629
6214 4675 5668
6215 5573 1855
6216 6537 6894
6217 4699 846 
6218 5275 7352
6219 5028 6981
6220 9727 3473
6221 5961 6314
6222 4531 5888
6223 6309 5604
6224 7519 4317
6225 8994 2012
6226 8881 4041
6227 4471 7103
6228 7719 5159
6229 5074 5073
6230 6779 5293
6231 6187 8321
6232 3415 7584
6233 6810 3815
6234 7672 4192
6235 9377 7637
6236 5001 5967
6237 4609 5306
6238 9914 4223
6239 4278 7044
6240 1832 1799
6241 9733 3798
6242 5053 1295
6243 3264 1309
6244 8092 3832
6245 3244 4411
6246 5007 7363
6247 5024 5870
6248 4970 7186
6249 805  9397
6250 7491 5011
6251 1518 4040
6252 5102 2795
6253 7909 5054
6254 5929 3170
6255 1596 769 
6256 3030 3942
6257 8442 5967
6258 5076 4204
6259 7590 4978
6260 5670 8102
6261 5285 6901
6262 2221 7475
6263 8594 4274
6264 5267 4650
6265 956  2694
6266 5383 8099
6267 6466 4105
6268 4822 5206
6269 9595 6009
6270 5820 4393
6271 4642 1376
6272 8966 3929
6273 5336 6979
6274 5187 6559
6275 1228 5342
6276 838  5654
6277 8929 2282
6278 9767 6204
6279 5581 7358
6280 5608 9316
6281 4863 7248
6282 6417 5109
6283 5480 8648
6284 5624 7937
6285 7497 4569
6286 3868 3160
6287 609  7993
6288 2510 2596
6289 7562 5107
6290 255  8052
6291 691  2807
6292 4961 7413
6293 2504 3756
6294 5195 7397
6295 6561 7440
6296 1196 9752
6297 7236 5840
6298 4802 7249
6299 6573 7329
6300 4741 6697
6301 8406 4397
6302 6133 7611
6303 1675 2655
6304 3362 7669
6305 4827 6707
6306 9058 4727
6307 3888 182 
6308 7142 889 
6309 5702 8532
6310 5604 7574
6311 7462 5551
6312 5146 8780
6313 3344 5707
6314 2811 2296
6315 8081 7498
6316 5991 8059
6317 8408 3619
6318 5949 3172
6319 2889 4870
6320 4404 6875
6321 3177 3975
6322 1576 7086
6323 5061 7012
6324 8135 2101
6325 7922 4822
6326 2859 5259
6327 1204 3682
6328 374  4389
6329 5295 4134
6330 5771 6740
6331 9676 648 
6332 4891 7293
6333 5370 6648
6334 1778 4470
6335 1039 6200
6336 9745 425 
6337 6421 2882
6338 181  7133
6339 4060 4547
6340 4542 6454
6341 5462 7827
6342 5734 7160
6343 7954 4764
6344 6862 7618
6345 5016 6173
6346 9351 922 
6347 7859 5629
6348 5867 6018
6349 1945 4691
6350 56   3493
6351 4726 7133
6352 34   6168
6353 8130 9902
6354 5546 7657
6355 5491 8296
6356 5162 7240
6357 7060 6764
6358 4303 7093
6359 7769 5110
6360 7293 4828
6361 4849 7315
6362 5532 8149
6363 3604 1244
6364 6717 9348
6365 7907 4634
6366 8111 4411
6367 3933 3793
6368 5420 4526
6369 4225 4729
6370 1916 9904
6371 4968 4768
6372 4779 3523
6373 124  9064
6374 9348 8396
6375 3153 7351
6376 8032 4860
6377 7662 4395
6378 4720 5264
6379 6105 8913
6380 6051 7670
6381 5981 7005
6382 3771 5583
6383 5130 8166
6384 5032 7317
6385 4511 6998
6386 1028 2553
6387 9481 12  
6388 5021 4221
6389 8123 5109
6390 6262 8219
6391 4287 8051
6392 6917 5139
6393 5578 6657
6394 2837 3969
6395 3749 6252
6396 6506 4294
6397 3727 4480
6398 6882 3082
6399 283  2320
6400 6291 1462
6401 8249 2568
6402 8375 4537
6403 2726 8420
6404 5494 6520
6405 5132 5639
6406 8121 4678
6407 4804 5147
6408 2976 5349
6409 8304 5510
6410 4842 7185
6411 4811 2821
6412 4696 7751
6413 4894 6900
6414 7947 4744
6415 9330 6788
6416 7680 4466
6417 3369 4874
6418 6748 6439
6419 292  3370
6420 4987 7078
6421 4683 3965
6422 5976 7715
6423 5328 5307
6424 4952 5718
6425 1781 9965
6426 8146 4106
6427 8594 1475
6428 8259 5260
6429 7403 5186
6430 5913 7020
6431 1089 4143
6432 6694 7774
6433 7648 4838
6434 4330 6101
6435 5721 1518
6436 6475 4443
6437 5200 5140
6438 4200 486 
6439 7920 4627
6440 4521 5875
6441 7435 3972
6442 250  9300
6443 8038 4454
6444 5403 7218
6445 1654 5712
6446 7971 4990
6447 5573 8059
6448 5231 5235
6449 7652 4673
6450 8458 5020
6451 7419 4278
6452 4990 8332
6453 8445 4892
6454 5941 5504
6455 2137 3250
6456 5269 4919
6457 4546 5963
6458 6466 9258
6459 151  2531
6460 6483 6447
6461 4888 6103
6462 5784 6924
6463 5063 7147
6464 7738 8184
6465 7418 4324
6466 2205 9710
6467 8108 8072
6468 8652 5442
6469 5286 5444
6470 5449 7821
6471 8362 3268
6472 5481 7407
6473 5907 8272
6474 5704 7062
6475 7811 4158
6476 7701 4035
6477 77   6950
6478 5268 8042
6479 6504 6834
6480 7270 4475
6481 8843 5071
6482 4938 5590
6483 9357 6453
6484 8955 7523
6485 7776 4828
6486 4884 8144
6487 5542 8420
6488 5804 7887
6489 4395 6206
6490 5582 4934
6491 6582 1444
6492 6924 5092
6493 1199 5299
6494 5535 2429
6495 1287 1359
6496 6602 177 
6497 4487 5932
6498 796  2614
6499 8619 3830
6500 5756 6831
6501 4907 7604
6502 8270 8206
6503 7576 4724
6504 4326 7379
6505 6050 7933
6506 6601 7401
6507 9382 9364
6508 7981 4476
6509 7817 4843
6510 6843 2440
6511 6738 5759
6512 4977 5485
6513 5358 8418
6514 4998 5679
6515 961  8885
6516 398  1991
6517 3944 6549
6518 9803 1812
6519 5969 6919
6520 5173 6498
6521 4557 8357
6522 2853 6648
6523 4566 3310
6524 4711 7399
6525 6563 2463
6526 4028 8052
6527 5395 6925
6528 5269 6956
6529 9315 7288
6530 8991 6884
6531 9171 7943
6532 4289 5136
6533 4933 6760
6534 7103 3755
6535 7741 5041
6536 8344 5587
6537 8240 2053
6538 5098 8678
6539 5053 5642
6540 7468 5918
6541 5162 5345
6542 5934 5428
6543 913  6619
6544 9054 9080
6545 7721 4461
6546 7217 2378
6547 5874 7615
6548 9350 132 
6549 8072 3939
6550 3873 4112
6551 5816 7844
6552 4161 1926
6553 5399 7078
6554 5484 5417
6555 4164 7550
6556 7890 5088
6557 8630 9368
6558 7672 4338
6559 5233 3975
6560 5148 8125
6561 6131 9255
6562 1107 5774
6563 2799 989 
6564 8017 7651
6565 5673 7531
6566 4348 7173
6567 5393 7356
6568 5087 9860
6569 4982 8524
6570 4832 4691
6571 1681 3936
6572 859  7545
6573 4652 8006
6574 5667 7809
6575 5236 6909
6576 7718 5081
6577 471  152 
6578 5726 731 
6579 8069 5163
6580 2751 8165
6581 9972 9985
6582 9039 5695
6583 2851 3038
6584 7619 5941
6585 5030 5598
6586 3840 3654
6587 3410 5811
6588 133  640 
6589 1690 6516
6590 5236 7170
6591 7942 4693
6592 4492 6515
6593 5652 6343
6594 8473 3675
6595 5054 7134
6596 6600 315 
6597 7821 6655
6598 4833 7070
6599 5783 6372
6600 5093 5129
6601 5154 6835
6602 8692 4600
6603 7137 5232
6604 2859 9609
6605 7065 5331
6606 7093 4138
6607 7647 4855
6608 1578 1047
6609 5425 7888
6610 2588 1767
6611 5759 7509
6612 5466 8825
6613 5968 8971
6614 5635 6698
6615 5212 7031
6616 7894 4272
6617 5310 5949
6618 4940 7519
6619 2528 5027
6620 987  9865
6621 9710 1687
6622 3130 1069
6623 4064 3319
6624 4562 6644
6625 6447 8859
6626 5400 6749
6627 7899 4763
6628 4529 7614
6629 3670 6990
6630 115  2690
6631 8457 5771
6632 7967 5014
6633 4812 7152
6634 8550 5914
6635 3540 8186
6636 654  1919
6637 7898 4544
6638 4697 5434
6639 7837 4152
6640 1722 2378
6641 4583 4881
6642 5309 4814
6643 2054 8785
6644 7305 4255
6645 7931 6236
6646 5265 8859
6647 5986 250 
6648 6654 763 
6649 4591 6065
6650 7550 361 
6651 4816 8060
6652 777  1194
6653 7938 4941
6654 7836 4327
6655 5632 7543
6656 7217 4356
6657 7844 4455
6658 6275 6937
6659 5214 5334
6660 928  5969
6661 9878 4445
6662 2080 6687
6663 4921 4061
6664 4878 5745
6665 5611 6890
6666 5393 8220
6667 1493 7548
6668 994  1653
6669 6908 9327
6670 5320 6280
6671 5533 8354
6672 7914 4993
6673 1283 6631
6674 2427 6978
6675 5769 6552
6676 5586 8104
6677 7844 5076
6678 8381 4744
6679 4959 5395
6680 9004 3879
6681 7111 440 
6682 5241 7942
6683 5606 4670
6684 6438 674 
6685 8576 4938
6686 2192 3449
6687 8942 1155
6688 9190 5306
6689 5275 6625
6690 3101 7775
6691 8075 4566
6692 5355 7213
6693 5023 5921
6694 5148 7007
6695 4072 2082
6696 4846 7111
6697 7961 4185
6698 598  9189
6699 8344 4707
6700 57   9595
6701 7732 4553
6702 4541 6471
6703 7051 8676
6704 4641 6777
6705 1939 9925
6706 5642 47  
6707 2832 2805
6708 3556 7224
6709 8796 6572
6710 7811 4856
6711 7850 4677
6712 1527 110 
6713 4778 6901
6714 8542 1439
6715 7883 3579
6716 6948 5016
6717 5686 5350
6718 5039 7055
6719 5102 6986
6720 7736 4552
6721 3968 9679
6722 4444 6576
6723 5952 8249
6724 5893 7921
6725 7972 4079
6726 7746 4404
6727 8200 4030
6728 4781 7964
6729 1228 6468
6730 2504 4711
6731 8138 4471
6732 6604 6794
6733 8029 4686
6734 8611 6116
6735 9349 8485
6736 5494 7894
6737 304  9212
6738 8014 4780
6739 9877 9829
6740 5555 6723
6741 5443 8125
6742 8799 1972
6743 5295 5648
6744 9981 8389
6745 4211 5982
6746 5923 5932
6747 5149 8456
6748 8047 4988
6749 8082 4624
6750 5177 5699
6751 4085 6989
6752 8026 5049
6753 6046 7462
6754 5102 5661
6755 8238 1854
6756 4867 8256
6757 9587 7195
6758 902  4224
6759 8195 9   
6760 5912 1485
6761 715  5433
6762 7770 3609
6763 3982 6411
6764 2620 4791
6765 3666 1998
6766 7708 7862
6767 9245 4035
6768 8933 2747
6769 6387 1534
6770 8702 4780
6771 4509 7249
6772 5120 5078
6773 5744 8074
6774 4337 7393
6775 7852 4612
6776 1150 2309
6777 8865 7924
6778 5470 7738
6779 7663 6718
6780 7118 6118
6781 6264 7417
6782 9435 7687
6783 4442 7211
6784 7388 4571
6785 8252 4620
6786 4965 7138
6787 5040 7559
6788 4227 7170
6789 4946 5058
6790 1967 6371
6791 8420 2734
6792 8787 5998
6793 7707 2370
6794 5006 6914
6795 4754 7979
6796 1623 5662
6797 8107 5681
6798 4181 1717
6799 5248 1946
6800 724  6399
6801 5220 7343
6802 2710 8840
6803 3150 9813
6804 8655 3623
6805 9416 7333
6806 4340 5326
6807 7105 4865
6808 8101 4867
6809 6187 6704
6810 7604 4589
6811 7427 3972
6812 2818 3654
6813 8038 5917
6814 7083 4950
6815 5070 5676
6816 762  939 
6817 8393 5118
6818 5134 6868
6819 3868 8332
6820 7058 5995
6821 6179 9947
6822 9884 8467
6823 1293 5611
6824 7858 3979
6825 6380 9204
6826 8984 9874
6827 9009 9735
6828 5324 7885
6829 5822 6740
6830 8577 7952
6831 9727 8869
6832 8665 4850
6833 7542 4563
6834 5084 6747
6835 4928 5663
6836 5617 8698
6837 4586 7030
6838 7467 4807
6839 1743 7181
6840 8198 3431
6841 4774 5106
6842 8312 4509
6843 4430 6768
6844 5990 7782
6845 5783 7624
6846 4512 7148
6847 4772 5210
6848 5136 6390
6849 6005 3423
6850 5115 6769
6851 5217 5957
6852 6676 8868
6853 8493 7029
6854 8523 5035
6855 4917 4224
6856 5552 8094
6857 3930 470 
6858 93   2219
6859 5131 5917
6860 6048 4150
6861 5007 6676
6862 5394 7951
6863 7134 3656
6864 6266 7135
6865 4667 1855
6866 4782 5300
6867 5414 7153
6868 1486 6557
6869 7378 4929
6870 3286 1827
6871 5041 5867
6872 2335 8400
6873 4879 6911
6874 7514 1385
6875 3156 1971
6876 8935 5233
6877 4922 7655
6878 7814 7369
6879 6279 9376
6880 5671 8315
6881 5351 6971
6882 1977 7571
6883 7699 4698
6884 7964 8117
6885 5216 7889
6886 5319 6442
6887 3034 4102
6888 6935 5400
6889 3874 3652
6890 8062 4845
6891 5756 5432
6892 5745 8138
6893 5486 6020
6894 5534 6819
6895 6147 5630
6896 9481 3420
6897 2498 6295
6898 5482 4539
6899 8049 3116
6900 8651 5010
6901 5354 7222
6902 5673 6790
6903 5833 7251
6904 8517 8168
6905 5331 6677
6906 7902 4704
6907 6555 3471
6908 7812 5231
6909 7887 4789
6910 5055 7546
6911 1273 5658
6912 1791 6455
6913 7624 4091
6914 5654 8053
6915 6142 7297
6916 5771 4350
6917 7746 4813
6918 3886 8832
6919 5549 8041
6920 5041 5519
6921 1009 5394
6922 1143 5267
6923 5928 8045
6924 5005 5400
6925 821  598 
6926 5336 6565
6927 7471 4992
6928 845  3952
6929 5146 5603
6930 6511 7196
6931 8789 324 
6932 874  532 
6933 5485 7645
6934 1597 1742
6935 6231 6758
6936 1672 8496
6937 9035 972 
6938 5092 7326
6939 9610 5046
6940 815  7084
6941 4171 7818
6942 9442 4329
6943 6789 1574
6944 9829 915 
6945 1375 8844
6946 5071 8028
6947 5684 6237
6948 5648 5839
6949 5501 3043
6950 5267 6368
6951 5155 5914
6952 7769 4087
6953 5773 6817
6954 7878 4199
6955 5417 7298
6956 4918 7407
6957 2567 5586
6958 7788 3480
6959 5979 1125
6960 1225 1018
6961 3051 9936
6962 6001 6950
6963 2074 6548
6964 1407 1842
6965 4895 7362
6966 374  6371
6967 9170 640 
6968 3983 1558
6969 1582 5712
6970 2322 2617
6971 2331 5333
6972 4730 7645
6973 6984 1033
6974 2053 2063
6975 7988 18  
6976 9305 4060
6977 386  5393
6978 5072 7116
6979 5240 7538
6980 5274 7764
6981 473  4965
6982 2535 8493
6983 7944 4767
6984 5633 7012
6985 4831 5142
6986 4451 8521
6987 4526 4032
6988 3410 5586
6989 7025 1741
6990 4792 7413
6991 4766 6810
6992 5017 7839
6993 8437 6102
6994 4850 7076
6995 6615 7145
6996 7780 5005
6997 7821 3336
6998 4395 9359
6999 4801 6749
7000 6996 5073
7001 6954 7682
7002 5821 7590
7003 1208 3773
7004 7631 4062
7005 8114 4837
7006 5819 624 
7007 4961 572 
7008 5959 8407
7009 8172 4546
7010 7828 4758
7011 7684 5125
7012 5331 6927
7013 5288 8231
7014 1984 1019
7015 4914 6075
7016 7164 7138
7017 4824 6765
7018 4658 8732
7019 8077 4531
7020 7647 9086
7021 5130 6460
7022 7691 7302
7023 8812 2467
7024 7057 4165
7025 1618 1059
7026 5299 7164
7027 5595 5717
7028 4949 6971
7029 5566 6499
7030 9851 6087
7031 8337 4664
7032 9828 2230
7033 5714 6428
7034 7415 3180
7035 2051 7472
7036 5890 6232
7037 7856 4846
7038 7779 3557
7039 4868 6503
7040 8433 2067
7041 9063 1583
7042 5462 6038
7043 7613 5854
7044 4640 4836
7045 8016 4723
7046 8643 817 
7047 4352 3613
7048 5575 8182
7049 5064 5584
7050 2724 2560
7051 2274 9392
7052 5423 7085
7053 6129 8457
7054 8027 5336
7055 4775 8269
7056 8337 5355
7057 3314 8548
7058 8179 7246
7059 7835 4166
7060 5030 5401
7061 5549 6919
7062 1989 2208
7063 2787 2589
7064 5103 7141
7065 7021 8161
7066 8658 3629
7067 6825 4622
7068 8271 3607
7069 388  657 
7070 8279 4695
7071 3692 1962
7072 346  9072
7073 1619 9175
7074 8021 5260
7075 5286 6471
7076 5588 8757
7077 5369 6854
7078 4589 7206
7079 7211 567 
7080 9481 9680
7081 8091 4668
7082 4944 6514
7083 2760 9878
7084 4344 6693
7085 4948 6945
7086 5888 6450
7087 5259 8387
7088 5571 6332
7089 4549 9949
7090 6236 7622
7091 5612 8163
7092 5862 2084
7093 6435 6804
7094 5870 8058
7095 8400 4698
7096 6769 3226
7097 5309 5625
7098 4189 7556
7099 7920 4728
7100 6093 8864
7101 957  7227
7102 437  1206
7103 8581 5127
7104 156  8163
7105 5067 7351
7106 4810 7246
7107 217  2516
7108 6066 8383
7109 5758 7442
7110 8457 5798
7111 5441 7871
7112 1587 8360
7113 1037 9249
7114 5557 7702
7115 2447 6986
7116 4289 8242
7117 4919 6784
7118 6779 2248
7119 5792 7925
7120 8377 4774
7121 3046 5406
7122 5173 7523
7123 1471 2829
7124 7775 5756
7125 5250 7463
7126 8529 4999
7127 4330 8729
7128 5477 8373
7129 3289 1213
7130 5059 5538
7131 3696 6160
7132 4264 737 
7133 5071 8355
7134 6021 3064
7135 8116 5063
7136 8116 2214
7137 4827 6975
7138 1806 5858
7139 5093 8712
7140 7843 4514
7141 7571 5552
7142 2929 4032
7143 5870 6904
7144 5103 5830
7145 8527 5320
7146 5232 7847
7147 5112 7006
7148 2630 6588
7149 8118 4122
7150 1721 9433
7151 5346 8586
7152 1741 8636
7153 2714 6590
7154 1541 1205
7155 5826 2841
7156 9834 8988
7157 7925 5678
7158 2416 8553
7159 5075 8679
7160 7036 924 
7161 4996 7601
7162 761  8717
7163 4370 6973
7164 4353 7013
7165 5732 5781
7166 6288 8057
7167 7854 4093
7168 349  1063
7169 8724 3276
7170 924  779 
7171 4530 7289
7172 8147 5562
7173 486  8639
7174 4485 6866
7175 4805 6893
7176 5016 6937
7177 2716 9154
7178 4571 6494
7179 2041 6807
7180 5588 8205
7181 4833 6008
7182 6910 58  
7183 5966 8260
7184 6922 2054
7185 7624 4032
7186 5095 5709
7187 7376 4257
7188 6401 289 
7189 4012 623 
7190 5402 3547
7191 6313 5813
7192 6299 7890
7193 5388 7002
7194 1658 3491
7195 5779 2395
7196 5417 6889
7197 1200 7158
7198 8632 5155
7199 7039 5069
7200 7868 5505
7201 4701 5528
7202 4517 6620
7203 203  9241
7204 9655 6919
7205 7078 4874
7206 4018 7630
7207 7604 7499
7208 3582 5366
7209 7807 4428
7210 3668 4487
7211 5208 5592
7212 885  7116
7213 8216 4672
7214 3738 2393
7215 5798 274 
7216 4223 5853
7217 6192 4351
7218 2224 6888
7219 4743 2061
7220 9607 5971
7221 8041 5297
7222 8675 9105
7223 8512 2454
7224 7817 4909
7225 1598 271 
7226 5385 6740
7227 9821 960 
7228 5727 7611
7229 4529 4963
7230 5920 6462
7231 6283 5523
7232 4957 7558
7233 7389 4540
7234 6783 6045
7235 1269 4949
7236 7897 5144
7237 4557 6917
7238 7804 5206
7239 5475 7154
7240 9669 8384
7241 6031 8016
7242 4961 5921
7243 8241 4879
7244 5910 8482
7245 6954 2278
7246 1309 4288
7247 7816 5371
7248 5086 1426
7249 3291 6972
7250 9798 7024
7251 6934 5502
7252 2496 4859
7253 5434 1562
7254 6308 7025
7255 5063 7271
7256 5657 7046
7257 6164 7841
7258 8354 4075
7259 1326 3220
7260 8160 4545
7261 8452 7546
7262 59   4382
7263 3838 6820
7264 5075 7850
7265 7060 4466
7266 9597 6791
7267 5711 8066
7268 4704 9497
7269 5341 1048
7270 7518 4772
7271 5267 8074
7272 4189 3717
7273 6849 5666
7274 519  9199
7275 9966 8062
7276 5183 6825
7277 4982 425 
7278 5646 7534
7279 2933 5549
7280 6041 7721
7281 5344 6945
7282 5217 5653
7283 4758 2626
7284 8363 4913
7285 5797 8159
7286 4887 6954
7287 1008 68  
7288 8008 4865
7289 1303 9206
7290 1013 9858
7291 9538 7338
7292 5083 7568
7293 5250 7885
7294 5015 8527
7295 7337 6852
7296 1244 1179
7297 4097 3146
7298 4967 6961
7299 3386 5389
7300 9061 3958
7301 6920 1784
7302 4395 7714
7303 4874 8326
7304 5524 8102
7305 5727 7417
7306 3130 5113
7307 7335 899 
7308 5436 7339
7309 6161 6146
7310 8088 9358
7311 5404 8116
7312 7886 5373
7313 7550 1115
7314 5521 7045
7315 4808 5742
7316 4681 5344
7317 9129 8463
7318 2560 6937
7319 5963 8421
7320 4652 5228
7321 3874 5153
7322 2811 7047
7323 4321 6525
7324 2940 9860
7325 609  7350
7326 599  3562
7327 5227 7006
7328 2171 5420
7329 8131 5739
7330 5237 6696
7331 8334 4108
7332 4953 6702
7333 3468 5980
7334 5395 2539
7335 5133 5782
7336 7699 4616
7337 4665 7423
7338 8730 5411
7339 7986 3172
7340 4785 1941
7341 4547 1638
7342 7242 3607
7343 4951 8045
7344 5312 8701
7345 4828 4632
7346 8195 5317
7347 4120 6376
7348 7911 411 
7349 5665 8370
7350 9178 8197
7351 6876 6644
7352 5845 7697
7353 8254 8312
7354 5904 7940
7355 4798 6435
7356 6119 7739
7357 5661 7295
7358 6287 8373
7359 4963 5588
7360 6596 5242
7361 1932 5118
7362 5289 6033
7363 7857 4461
7364 5205 6764
7365 9550 66  
7366 5916 7507
7367 5108 7105
7368 5014 7374
7369 2294 9448
7370 7707 4872
7371 5356 6614
7372 5428 5378
7373 5880 8731
7374 9707 8828
7375 5136 6530
7376 8038 5301
7377 8837 32  
7378 7772 5210
7379 8726 2593
7380 4017 5521
7381 7584 3836
7382 9526 9721
7383 6595 7609
7384 8300 5324
7385 1127 9031
7386 7300 5883
7387 5184 7154
7388 5457 5591
7389 9815 2459
7390 4387 5521
7391 2491 3836
7392 4363 9139
7393 8978 3923
7394 9821 9976
7395 5179 5448
7396 7766 4853
7397 5936 7622
7398 5657 8427
7399 5088 7488
7400 2101 2683
7401 9939 7153
7402 4270 8410
7403 3176 9448
7404 8774 5069
7405 7280 4366
7406 4059 7235
7407 9457 4458
7408 1381 9356
7409 4990 9026
7410 5266 6726
7411 976  8925
7412 5323 8963
7413 9082 6748
7414 5244 5251
7415 5895 94  
7416 3889 5590
7417 3923 1398
7418 9909 8724
7419 5124 6533
7420 8072 5312
7421 8580 4145
7422 4778 5394
7423 7889 3896
7424 7006 8351
7425 5768 8028
7426 618  8256
7427 3193 8055
7428 7756 680 
7429 8523 3665
7430 8649 750 
7431 8457 4910
7432 4916 6818
7433 8266 4845
7434 6293 2760
7435 7167 5228
7436 7432 4713
7437 4614 4310
7438 8766 638 
7439 6888 3641
7440 5539 8152
7441 8660 1113
7442 5625 5036
7443 6166 7589
7444 2436 4279
7445 7089 2659
7446 7811 1564
7447 6573 7742
7448 8640 4733
7449 8347 7965
7450 8824 553 
7451 4102 4388
7452 9880 5257
7453 6193 3155
7454 8210 3991
7455 6663 2337
7456 5100 5943
7457 4963 6360
7458 7615 5483
7459 7455 4550
7460 4461 8162
7461 2682 9684
7462 5144 8092
7463 8376 5072
7464 5062 5631
7465 7443 6651
7466 4524 6355
7467 9620 7901
7468 8033 9106
7469 5493 5604
7470 5013 5252
7471 6781 4750
7472 7234 1892
7473 7609 4732
7474 2562 3674
7475 8099 312 
7476 5246 6395
7477 6324 7888
7478 5261 6571
7479 9723 5358
7480 5053 6440
7481 2111 83  
7482 535  2365
7483 8352 5485
7484 5979 5043
7485 3364 603 
7486 4868 3415
7487 7075 8752
7488 1605 3644
7489 5806 6813
7490 7856 5097
7491 7984 1506
7492 59   7275
7493 5554 5180
7494 5324 8463
7495 4607 7069
7496 3158 5944
7497 4771 4951
7498 7928 4486
7499 5320 6453
7500 9991 7399
7501 4238 4280
7502 4056 1700
7503 9554 592 
7504 5296 7483
7505 7075 3228
7506 4053 4369
7507 1534 103 
7508 5035 9747
7509 5339 7900
7510 5186 8539
7511 7708 4595
7512 9833 9869
7513 5336 7507
7514 7976 4011
7515 8182 4649
7516 7163 7716
7517 7300 4021
7518 6495 7838
7519 8159 5247
7520 7535 4401
7521 8014 4374
7522 993  1297
7523 4648 8052
7524 2584 9517
7525 7081 4767
7526 5642 7519
7527 7460 4681
7528 5379 5965
7529 4396 6784
7530 1338 278 
7531 3637 1826
7532 9143 8599
7533 8405 4612
7534 7625 4094
7535 8140 4734
7536 2121 8819
7537 5511 6804
7538 5551 7067
7539 7823 4150
7540 5665 8152
7541 5030 7399
7542 7252 5911
7543 4948 5823
7544 8988 3560
7545 7550 7135
7546 5455 6323
7547 2535 706 
7548 6785 7906
7549 8018 4736
7550 7573 4729
7551 5088 5274
7552 1684 4547
7553 4217 8703
7554 5239 7037
7555 3226 132 
7556 5099 5851
7557 5938 7285
7558 2697 3206
7559 7595 4607
7560 5505 3867
7561 5040 8296
7562 6667 7811
7563 5563 8324
7564 7375 4740
7565 4677 7031
7566 5582 5271
7567 3813 6946
7568 9418 4837
7569 6087 5275
7570 779  5850
7571 5568 7760
7572 7151 8210
7573 1511 9661
7574 4435 7294
7575 7998 4973
7576 9943 5267
7577 6105 8317
7578 4116 5260
7579 5902 7120
7580 4902 6347
7581 5561 6855
7582 7742 9573
7583 5137 8268
7584 8198 1338
7585 5155 7939
7586 4973 4344
7587 8043 4841
7588 7231 1616
7589 1213 4000
7590 5487 7243
7591 2515 5654
7592 1021 67  
7593 4195 592 
7594 7709 4761
7595 7625 1177
7596 4776 6980
7597 4872 4611
7598 6277 1930
7599 7814 5384
7600 5344 7866
7601 7787 1061
7602 8052 4867
7603 9992 6678
7604 8880 2979
7605 5670 7900
7606 7539 4464
7607 2831 5866
7608 5270 7495
7609 4565 7216
7610 4736 7876
7611 4132 8693
7612 5027 7111
7613 5377 6876
7614 8040 4954
7615 9915 1814
7616 3090 4714
7617 4103 656 
7618 7128 9037
7619 3382 6566
7620 5298 5650
7621 4514 6850
7622 5159 7560
7623 2946 8486
7624 7786 4817
7625 5448 8257
7626 7247 8341
7627 3528 8522
7628 3367 6535
7629 2049 6794
7630 7864 5098
7631 7524 2792
7632 4640 8057
7633 5759 8691
7634 4974 5741
7635 1712 5301
7636 6909 4717
7637 5897 4825
7638 4904 5050
7639 7800 6929
7640 7939 6827
7641 2115 4040
7642 5293 5585
7643 5757 8044
7644 7263 3959
7645 5303 9071
7646 3400 5391
7647 9456 1062
7648 5147 5940
7649 4944 7077
7650 4984 7058
7651 5028 7154
7652 5293 539 
7653 3241 4029
7654 5757 7758
7655 6063 8179
7656 5769 954 
7657 755  4210
7658 5585 8488
7659 3653 2349
7660 5326 6957
7661 7716 5613
7662 4707 5823
7663 3911 6174
7664 8117 5982
7665 1012 7462
7666 4187 1963
7667 255  5591
7668 5630 4606
7669 5667 8327
7670 2618 6534
7671 9030 7342
7672 4329 186 
7673 4412 6488
7674 5161 8576
7675 8532 5175
7676 595  7315
7677 7635 1328
7678 5668 6322
7679 2742 2095
7680 5461 8168
7681 7383 4543
7682 5679 7906
7683 5435 6997
7684 8334 5107
7685 297  885 
7686 7360 6631
7687 9422 5741
7688 7491 4870
7689 8242 5982
7690 8279 3922
7691 6936 4327
7692 2012 6032
7693 5210 1405
7694 4668 6518
7695 154  8009
7696 7409 5119
7697 7901 4928
7698 8357 5721
7699 5230 5514
7700 792  7133
7701 9466 5110
7702 7374 5714
7703 4498 7184
7704 4687 5928
7705 7423 3671
7706 4437 7398
7707 7427 8783
7708 7734 4226
7709 5842 7212
7710 4475 6840
7711 5197 7929
7712 5158 7745
7713 6327 7435
7714 5176 6065
7715 2563 971 
7716 7952 5307
7717 8384 9431
7718 9328 8364
7719 5852 8222
7720 3977 5992
7721 351  9168
7722 9293 2150
7723 8940 4438
7724 7923 4319
7725 4931 5839
7726 1371 443 
7727 7250 4687
7728 3899 5900
7729 4594 6692
7730 6125 5480
7731 5115 7423
7732 6841 2134
7733 5587 6932
7734 4720 2481
7735 4722 7104
7736 2904 1139
7737 4858 5975
7738 7759 4963
7739 2961 2676
7740 7505 4660
7741 8931 2152
7742 9452 6539
7743 5361 1772
7744 5436 8187
7745 7663 5331
7746 9099 2768
7747 6794 2335
7748 7694 4490
7749 598  5986
7750 7917 4803
7751 7296 5401
7752 7381 6369
7753 6363 9999
7754 5026 6689
7755 4297 5394
7756 3967 7082
7757 5559 7250
7758 8651 8007
7759 7801 5476
7760 9905 8925
7761 6286 6028
7762 4020 6538
7763 1040 9312
7764 8266 5710
7765 4466 6869
7766 6354 8026
7767 6660 9783
7768 2859 2298
7769 8775 5407
7770 9054 5605
7771 5008 6516
7772 5536 7991
7773 5868 7880
7774 7384 5182
7775 3914 1259
7776 7919 4578
7777 5127 3833
7778 7061 2309
7779 5352 7175
7780 8194 2360
7781 7503 7461
7782 5448 7513
7783 4827 5216
7784 5706 7461
7785 9220 9116
7786 5498 7380
7787 9553 1724
7788 5638 8639
7789 9085 887 
7790 5962 7470
7791 5581 4691
7792 3093 4524
7793 5046 5642
7794 5133 5642
7795 5139 6866
7796 6840 4808
7797 7355 4347
7798 6043 4595
7799 1725 6848
7800 8424 7433
7801 3115 626 
7802 5346 5658
7803 7470 8830
7804 8550 2923
7805 4249 2949
7806 8086 4689
7807 6563 5109
7808 5266 6298
7809 5213 5643
7810 3790 5985
7811 48   4123
7812 5141 6311
7813 4405 1778
7814 3243 3251
7815 1502 1344
7816 9602 6281
7817 4766 2441
7818 5321 6987
7819 4784 7488
7820 6058 3444
7821 4618 7508
7822 7587 3707
7823 5210 8033
7824 6645 7671
7825 1685 8130
7826 5437 7285
7827 5566 5707
7828 5798 7885
7829 5723 1445
7830 3891 6922
7831 5809 6139
7832 8167 5117
7833 4163 8462
7834 8080 4551
7835 922  9656
7836 4450 1333
7837 3141 9331
7838 2777 9832
7839 8691 4533
7840 8961 2668
7841 8284 3421
7842 7371 4489
7843 1135 3263
7844 4906 6875
7845 9596 7340
7846 5640 7919
7847 2426 9458
7848 6668 9748
7849 4280 3058
7850 4690 5617
7851 9046 3655
7852 8291 5030
7853 5832 8316
7854 5134 7253
7855 6792 4849
7856 7655 4802
7857 6837 4019
7858 7148 5263
7859 1992 8227
7860 7775 4358
7861 5187 8192
7862 305  6238
7863 1181 2474
7864 5033 5622
7865 690  7696
7866 5292 6801
7867 7728 4782
7868 1901 2463
7869 3787 2020
7870 7382 7032
7871 2633 8386
7872 745  2409
7873 8218 5097
7874 8998 7203
7875 191  5499
7876 7600 5077
7877 8370 4905
7878 827  2463
7879 7843 8891
7880 7927 5406
7881 2640 9846
7882 5021 9336
7883 6482 6578
7884 6794 3249
7885 4504 1095
7886 5125 5319
7887 5953 5582
7888 8568 4464
7889 7989 4264
7890 5672 5949
7891 7857 4443
7892 7612 2776
7893 6308 9181
7894 5875 6835
7895 9275 2607
7896 1065 1571
7897 7710 4296
7898 2496 3276
7899 6372 7639
7900 704  1605
7901 5506 7983
7902 4986 5606
7903 8694 5241
7904 1108 8355
7905 5126 7425
7906 7761 4513
7907 4839 6259
7908 2254 2210
7909 5980 7876
7910 975  4855
7911 7967 4745
7912 8318 7331
7913 5737 4328
7914 4053 4766
7915 8539 5799
7916 1203 9135
7917 5196 6418
7918 7588 5433
7919 5154 5667
7920 4896 7455
7921 8844 3421
7922 2567 8918
7923 8167 4982
7924 7933 5412
7925 5585 8068
7926 5377 8415
7927 4511 7111
7928 7984 5129
7929 4810 5392
7930 7799 4156
7931 6614 1583
7932 5605 7346
7933 8552 4126
7934 5164 8036
7935 2885 7866
7936 5327 7592
7937 6957 9864
7938 5496 7987
7939 5708 5703
7940 4858 5443
7941 9412 1269
7942 3791 7716
7943 4989 8590
7944 7999 7029
7945 7886 4930
7946 5141 6963
7947 2792 2583
7948 6227 7248
7949 5243 7128
7950 3797 5436
7951 1388 6668
7952 7638 4684
7953 5269 7427
7954 3904 4038
7955 7799 4704
7956 6936 4236
7957 6339 1255
7958 4655 1235
7959 4263 7645
7960 4630 7712
7961 7268 7719
7962 8519 3699
7963 5331 5634
7964 5688 4280
7965 5965 8008
7966 4427 1657
7967 7825 5572
7968 4774 5870
7969 2244 3515
7970 8958 6891
7971 8417 2835
7972 7922 2259
7973 3656 6043
7974 5817 6602
7975 5010 6863
7976 6606 5124
7977 6822 7135
7978 414  3319
7979 4915 7131
7980 4500 3104
7981 6368 2385
7982 4873 9437
7983 5768 7957
7984 3606 4637
7985 5559 4090
7986 6464 7972
7987 3252 3540
7988 4773 8787
7989 4418 7715
7990 5020 7757
7991 5827 2151
7992 4689 6843
7993 7470 4482
7994 8762 9817
7995 5565 7174
7996 7689 4591
7997 6072 6725
7998 321  4559
7999 7198 4924
8000 2631 8700
8001 1730 4677
8002 1518 9442
8003 9365 1703
8004 1736 4634
8005 6338 8666
8006 7749 3715
8007 4284 6623
8008 9929 5659
8009 2771 316 
8010 4779 4235
8011 4885 6998
8012 5123 7351
8013 5187 9362
8014 5372 8468
8015 8207 4782
8016 3172 4628
8017 5825 8160
8018 4910 5597
8019 4973 6251
8020 6230 6457
8021 3207 7116
8022 7791 5342
8023 5360 8515
8024 8180 2059
8025 132  6381
8026 1929 7211
8027 5176 7522
8028 4506 6954
8029 4381 1798
8030 9154 1683
8031 7869 4274
8032 5041 7484
8033 5655 7679
8034 5785 6673
8035 6098 316 
8036 5169 8717
8037 4620 7900
8038 4601 5878
8039 8078 5174
8040 5957 8099
8041 8447 2429
8042 4063 6439
8043 8458 9319
8044 6216 9192
8045 4190 7952
8046 5776 5679
8047 5948 8172
8048 5840 7981
8049 8125 4475
8050 6201 9075
8051 8338 4836
8052 5945 7118
8053 371  3286
8054 7146 9623
8055 3946 9894
8056 5646 8178
8057 4588 7717
8058 1133 8872
8059 4954 7217
8060 89   2018
8061 8124 4507
8062 2665 2579
8063 9215 576 
8064 6080 6582
8065 7053 5571
8066 2360 9606
8067 4462 2520
8068 4691 7566
8069 5875 6733
8070 4561 4826
8071 6093 7614
8072 8147 4680
8073 5126 5060
8074 7350 6978
8075 3071 7688
8076 7638 7714
8077 379  4622
8078 5882 6368
8079 6224 8317
8080 6062 775 
8081 3951 6250
8082 7499 7549
8083 6035 8101
8084 7553 4497
8085 5054 298 
8086 8534 7784
8087 7756 4156
8088 5069 6723
8089 5133 7502
8090 4090 9789
8091 4837 6119
8092 4701 8299
8093 5112 4601
8094 7887 5276
8095 5067 8439
8096 5114 5247
8097 5463 6912
8098 5252 5187
8099 5617 5484
8100 5216 6143
8101 3489 2368
8102 2868 5796
8103 8043 4537
8104 8387 8027
8105 5071 5562
8106 7369 4762
8107 6976 9627
8108 7686 4520
8109 4612 5774
8110 9185 3951
8111 7050 4687
8112 7249 885 
8113 926  3538
8114 5618 3070
8115 7508 2766
8116 3267 6244
8117 9288 4900
8118 8038 3950
8119 8397 5280
8120 7563 4999
8121 7770 4661
8122 7975 3194
8123 3649 6071
8124 8376 5457
8125 5319 5947
8126 4221 6826
8127 938  1431
8128 1653 5121
8129 7952 6888
8130 5998 2631
8131 5821 7723
8132 886  7155
8133 4699 7792
8134 4472 7619
8135 2048 8619
8136 9862 9218
8137 4948 5514
8138 4828 5268
8139 3379 3053
8140 5892 9044
8141 5327 7109
8142 4738 7249
8143 2210 1360
8144 5213 7271
8145 3248 7876
8146 4750 8742
8147 4129 271 
8148 8607 5260
8149 9669 1722
8150 4258 7052
8151 5959 5962
8152 376  8940
8153 5109 1094
8154 8775 299 
8155 8012 4689
8156 7616 4855
8157 8275 5128
8158 8549 7785
8159 8053 4156
8160 7810 9899
8161 321  5391
8162 1197 7   
8163 4552 8379
8164 5171 9694
8165 9617 2149
8166 5273 7192
8167 7866 4157
8168 7647 5357
8169 9561 6632
8170 8081 5198
8171 5416 7118
8172 4783 7149
8173 5727 5874
8174 7592 5171
8175 1194 6292
8176 6743 1409
8177 5726 7742
8178 5440 5384
8179 8424 5093
8180 5700 4542
8181 5112 6044
8182 5477 6552
8183 5726 8502
8184 540  9730
8185 8952 1454
8186 5053 2393
8187 4826 7661
8188 6618 7856
8189 2567 756 
8190 4819 7615
8191 8596 4087
8192 7282 3075
8193 4647 6720
8194 7553 4718
8195 4527 7359
8196 5622 8526
8197 5130 5973
8198 5991 6896
8199 5224 4924
8200 133  8220
8201 7671 8921
8202 4738 3302
8203 2619 6446
8204 937  9492
8205 4973 8421
8206 5745 4984
8207 6966 7655
8208 3758 7956
8209 1168 5747
8210 5740 7722
8211 5417 7084
8212 6169 7932
8213 7739 4829
8214 5510 6259
8215 5887 4902
8216 5204 5328
8217 6788 6758
8218 2965 1600
8219 6207 105 
8220 6728 6764
8221 1768 1451
8222 4853 6967
8223 2491 9612
8224 4339 7601
8225 5294 6081
8226 4885 6911
8227 5288 7517
8228 1282 8654
8229 8398 4226
8230 4914 5391
8231 843  5346
8232 5431 5666
8233 914  9309
8234 9658 5700
8235 4825 7945
8236 1027 120 
8237 4695 7091
8238 7436 5684
8239 1746 1196
8240 5990 7979
8241 5456 6366
8242 5729 7332
8243 4409 3994
8244 4451 7007
8245 4641 8202
8246 4854 7132
8247 5067 5784
8248 5991 8171
8249 6082 6353
8250 5493 8244
8251 3286 1819
8252 5400 6032
8253 4963 7441
8254 9382 5924
8255 8009 4845
8256 5453 7137
8257 6901 9686
8258 5015 875 
8259 4969 7573
8260 5591 6856
8261 125  8949
8262 5352 6879
8263 8763 173 
8264 4446 7292
8265 8045 4668
8266 7221 6026
8267 1067 4920
8268 7650 5147
8269 4057 1802
8270 834  5990
8271 3569 6855
8272 3967 7792
8273 4665 5242
8274 5515 8314
8275 4837 6267
8276 9580 6839
8277 5493 6183
8278 5556 6454
8279 4249 7263
8280 5062 7042
8281 3181 6109
8282 4736 5706
8283 7057 1165
8284 3539 234 
8285 7536 2040
8286 1365 2130
8287 1931 2994
8288 4976 5624
8289 6018 8593
8290 4664 7752
8291 5305 7460
8292 4950 7195
8293 5224 7125
8294 8254 5064
8295 3726 5408
8296 5612 7799
8297 7539 4705
8298 4562 6219
8299 4698 5587
8300 6844 4729
8301 246  9777
8302 5385 6557
8303 3779 7218
8304 3253 2527
8305 2863 3111
8306 5188 6742
8307 5299 7048
8308 4582 5636
8309 3781 8714
8310 5848 8060
8311 4247 6161
8312 5600 6862
8313 7972 4370
8314 8032 5388
8315 6998 392 
8316 565  6534
8317 7894 4651
8318 4410 7501
8319 8885 4562
8320 4767 5948
8321 4628 1271
8322 251  3105
8323 6963 6332
8324 8185 5119
8325 4214 9201
8326 7410 8548
8327 4409 2048
8328 2914 2042
8329 5734 8198
8330 5360 7902
8331 5865 5322
8332 1476 5850
8333 7878 4889
8334 5692 961 
8335 7512 4770
8336 8218 8913
8337 5642 8503
8338 5390 6792
8339 5549 6988
8340 5567 5875
8341 1901 7652
8342 4646 7937
8343 3696 6429
8344 9281 7986
8345 879  359 
8346 5370 4262
8347 6133 8114
8348 5602 6638
8349 4752 7782
8350 5433 6877
8351 7521 5059
8352 2368 3886
8353 8600 7235
8354 4900 6233
8355 5791 7166
8356 4355 7579
8357 7864 4639
8358 41   7086
8359 5325 6925
8360 2816 3865
8361 5095 6726
8362 5491 5880
8363 9999 7624
8364 1393 1742
8365 4449 8162
8366 7925 820 
8367 3060 2713
8368 4003 1037
8369 9508 5960
8370 5375 6892
8371 5105 5635
8372 2248 7325
8373 5035 5976
8374 5566 5572
8375 7969 8660
8376 5357 8182
8377 4495 6590
8378 4919 7094
8379 5065 5675
8380 5369 7336
8381 9773 3531
8382 5130 6690
8383 7791 4593
8384 8339 5343
8385 6591 19  
8386 7742 4965
8387 5699 2225
8388 6012 6296
8389 9446 3347
8390 8560 2565
8391 6294 1229
8392 4983 7319
8393 7691 4662
8394 4599 5698
8395 8386 5037
8396 8154 4785
8397 2862 9230
8398 8758 2976
8399 9049 220 
8400 4646 4297
8401 6042 7776
8402 9491 5297
8403 8499 4036
8404 5522 7003
8405 7744 4711
8406 5191 7236
8407 9061 4181
8408 4938 7331
8409 5771 7155
8410 8574 4379
8411 427  1226
8412 6492 6303
8413 906  3985
8414 6881 5068
8415 5019 655 
8416 4714 5176
8417 4928 4075
8418 6055 6309
8419 6706 585 
8420 6088 8368
8421 6108 3634
8422 5327 8535
8423 193  954 
8424 1211 428 
8425 8293 5870
8426 5475 4415
8427 6654 8287
8428 5892 9411
8429 6367 7170
8430 6459 8287
8431 5947 6102
8432 7861 4687
8433 1522 4293
8434 5629 5140
8435 798  5983
8436 1433 8513
8437 9617 4524
8438 5692 6489
8439 4610 6279
8440 5670 7753
8441 4178 8537
8442 7757 6052
8443 5307 6442
8444 1655 5685
8445 5568 8810
8446 4965 7125
8447 828  5728
8448 7906 9816
8449 3831 4016
8450 4944 8511
8451 8108 4992
8452 5497 7852
8453 7976 4915
8454 3296 7088
8455 7705 3355
8456 6335 4717
8457 4444 6164
8458 8674 9807
8459 8949 4689
8460 3415 2674
8461 8639 5052
8462 4678 8233
8463 8482 5256
8464 3212 4780
8465 7945 5482
8466 7843 5170
8467 7842 5059
8468 5182 7376
8469 8224 4836
8470 6238 7929
8471 5617 6830
8472 5719 9177
8473 5439 732 
8474 7728 4497
8475 2760 6039
8476 4982 6957
8477 4801 7148
8478 5452 6776
8479 5233 7362
8480 4383 5563
8481 7528 3891
8482 3345 3319
8483 662  9148
8484 4797 7716
8485 5293 7903
8486 8063 5045
8487 5723 6274
8488 3919 1873
8489 9774 5514
8490 3559 2662
8491 874  5453
8492 3579 3884
8493 9927 2456
8494 6504 2346
8495 5952 6700
8496 5697 5211
8497 7023 7078
8498 6601 4549
8499 4653 7562
8500 1293 5248
8501 8993 7839
8502 9434 6971
8503 5817 7448
8504 5653 7042
8505 8064 4880
8506 4632 6967
8507 7424 4958
8508 4010 5416
8509 4490 7155
8510 5659 6835
8511 5613 4411
8512 2612 5533
8513 5211 6407
8514 5062 5827
8515 5350 6679
8516 1234 713 
8517 2386 991 
8518 5897 6981
8519 9538 7793
8520 5265 5796
8521 3001 3658
8522 5634 8051
8523 5794 7346
8524 5280 5656
8525 4814 7256
8526 5012 7072
8527 156  5594
8528 6882 5038
8529 8513 4222
8530 8086 4536
8531 8779 1352
8532 7908 4882
8533 6531 5675
8534 5582 7628
8535 5378 611 
8536 5096 5362
8537 7935 2327
8538 7037 5048
8539 8016 5263
8540 8164 5195
8541 5295 6710
8542 5099 8034
8543 8185 3789
8544 5607 997 
8545 5241 4308
8546 6059 6773
8547 8199 7484
8548 4462 6851
8549 5106 6943
8550 6493 399 
8551 6093 7551
8552 5555 4267
8553 9964 6710
8554 6677 4569
8555 3648 5274
8556 5662 5461
8557 2677 4643
8558 1629 2146
8559 4881 4601
8560 5421 7070
8561 6763 3847
8562 4897 7459
8563 5081 7230
8564 4135 8207
8565 8469 4949
8566 5409 7799
8567 765  6548
8568 6033 1921
8569 8760 2274
8570 5747 7478
8571 5217 6407
8572 3404 4061
8573 2559 9379
8574 356  2303
8575 6330 3750
8576 140  1980
8577 4856 7242
8578 8079 6874
8579 4487 1730
8580 5476 6209
8581 4046 5992
8582 2478 990 
8583 9486 1049
8584 8105 5192
8585 5264 6920
8586 6986 5388
8587 8614 5632
8588 1698 3466
8589 5613 829 
8590 8372 4883
8591 7405 4382
8592 1747 4951
8593 9810 448 
8594 5526 5464
8595 7588 9350
8596 5031 6598
8597 5343 6874
8598 7294 3837
8599 7585 5117
8600 7760 4108
8601 8501 5300
8602 4838 6162
8603 8640 4053
8604 4853 6966
8605 7934 4649
8606 8297 4310
8607 7676 4905
8608 370  7942
8609 5736 8360
8610 5607 6442
8611 6438 7652
8612 2207 713 
8613 5502 7907
8614 5932 2855
8615 5271 4727
8616 7548 6902
8617 237  8709
8618 4367 5697
8619 5478 7797
8620 5005 8348
8621 5681 7097
8622 7170 4537
8623 3878 7574
8624 7478 5148
8625 5337 5384
8626 5227 6764
8627 7858 4535
8628 5608 7598
8629 527  4311
8630 4648 7596
8631 7567 4857
8632 757  7549
8633 9439 8086
8634 1676 2047
8635 5091 5437
8636 4135 2536
8637 5189 9348
8638 5291 5768
8639 4919 5835
8640 5236 7585
8641 3774 9846
8642 5247 5772
8643 7708 4558
8644 5836 6795
8645 7432 3921
8646 5226 6294
8647 7314 5066
8648 5167 2715
8649 152  7859
8650 4806 7081
8651 2795 3112
8652 4836 8177
8653 5048 5530
8654 8475 4147
8655 5458 6813
8656 6274 7001
8657 8091 4636
8658 8715 5005
8659 1242 4760
8660 6810 7924
8661 944  2046
8662 3659 7426
8663 7943 5112
8664 5156 7534
8665 5722 5572
8666 5292 8107
8667 4318 5630
8668 3579 9919
8669 4981 7099
8670 2584 1923
8671 4860 7215
8672 6682 3684
8673 6881 3964
8674 5133 7603
8675 648  2556
8676 8640 6210
8677 5330 6932
8678 8763 4957
8679 5555 6374
8680 5221 6054
8681 8058 3101
8682 5602 7668
8683 1638 4761
8684 8286 5809
8685 5873 5272
8686 2314 5914
8687 4822 1322
8688 5556 272 
8689 5161 7297
8690 5630 6560
8691 1572 2607
8692 5168 6684
8693 4904 5139
8694 5004 5373
8695 9241 5352
8696 9693 8816
8697 9051 480 
8698 7026 4695
8699 2032 5547
8700 5499 7863
8701 8942 6623
8702 460  1102
8703 3194 2362
8704 4209 6954
8705 6340 7607
8706 4204 2861
8707 4888 7217
8708 1661 1280
8709 6405 1550
8710 6017 7047
8711 3705 6280
8712 5303 2278
8713 5053 6842
8714 9882 5817
8715 9591 9074
8716 8562 1312
8717 4581 7114
8718 3188 917 
8719 4937 5986
8720 5402 4681
8721 7754 4888
8722 4549 7439
8723 1380 6326
8724 5025 7559
8725 5792 8675
8726 3040 7996
8727 5051 5614
8728 5580 8986
8729 7847 4955
8730 7445 4599
8731 7339 4892
8732 6017 8755
8733 7823 4797
8734 5149 5838
8735 9401 3164
8736 5797 1515
8737 7716 4530
8738 8173 3686
8739 8052 5053
8740 5774 6857
8741 1197 2187
8742 8413 7176
8743 2335 5134
8744 5704 7968
8745 3519 1648
8746 5276 7369
8747 4742 7041
8748 8286 3446
8749 5698 7959
8750 8219 4995
8751 659  3654
8752 5251 6999
8753 5945 7832
8754 4811 3427
8755 7401 4619
8756 5447 8325
8757 7797 4658
8758 7933 3525
8759 5738 8636
8760 622  1003
8761 657  1317
8762 5561 3088
8763 507  5784
8764 7455 5235
8765 5710 6866
8766 5267 8078
8767 965  3507
8768 5043 7214
8769 5686 5283
8770 1853 2417
8771 2654 623 
8772 8561 4806
8773 5140 5443
8774 4826 5473
8775 7812 4589
8776 8642 9634
8777 5590 8011
8778 7529 5094
8779 7971 5583
8780 3130 9166
8781 5062 7815
8782 5485 7640
8783 7301 4337
8784 9721 4280
8785 3552 9976
8786 7729 4862
8787 3473 2815
8788 8259 4552
8789 59   9130
8790 5293 7580
8791 6608 376 
8792 6087 7703
8793 5856 6487
8794 4829 8756
8795 5319 8223
8796 2877 9965
8797 4495 5703
8798 1807 7315
8799 4730 5561
8800 7108 5387
8801 5473 6106
8802 7793 4737
8803 5487 7562
8804 7107 4021
8805 1342 4860
8806 4986 7274
8807 5276 6906
8808 5476 6914
8809 8556 2070
8810 4586 9449
8811 5289 6318
8812 1736 6594
8813 2821 6795
8814 2836 1973
8815 3602 9339
8816 664  9573
8817 9885 704 
8818 5690 8252
8819 777  9226
8820 8704 5926
8821 146  3389
8822 6700 1323
8823 6292 6021
8824 4429 6379
8825 7440 4682
8826 6402 201 
8827 4714 5482
8828 10   4847
8829 8574 2896
8830 3171 3857
8831 5917 730 
8832 5231 5772
8833 3983 2808
8834 5109 5531
8835 6430 3298
8836 5196 7608
8837 5920 8073
8838 5880 5814
8839 8101 4738
8840 8841 7040
8841 6160 6692
8842 3515 8185
8843 5156 3918
8844 8582 7427
8845 5648 8082
8846 4739 7810
8847 5437 264 
8848 4990 6446
8849 7560 1085
8850 5665 8705
8851 5721 8681
8852 5229 7115
8853 8074 4322
8854 4631 9846
8855 7290 2367
8856 140  1791
8857 4950 8358
8858 4251 5216
8859 6759 1589
8860 7766 4429
8861 3612 6352
8862 7288 3911
8863 6349 6980
8864 5422 5485
8865 9862 2306
8866 3572 9353
8867 7179 209 
8868 5107 8445
8869 7947 5192
8870 3699 3559
8871 5632 8814
8872 942  4978
8873 5311 6704
8874 3083 8643
8875 5209 7154
8876 8704 4550
8877 2990 1306
8878 3179 7768
8879 2370 3419
8880 3258 5714
8881 5316 7037
8882 5635 8578
8883 4782 3717
8884 1805 7075
8885 8248 4860
8886 2259 6554
8887 3236 6276
8888 7628 4710
8889 1064 9577
8890 7684 4319
8891 4874 4790
8892 5317 5474
8893 6527 4742
8894 7676 4554
8895 5160 8374
8896 5686 7848
8897 4353 4925
8898 8512 6824
8899 4855 2501
8900 3252 5656
8901 9523 4679
8902 7359 5648
8903 4518 7328
8904 5528 7470
8905 7052 3743
8906 8766 7082
8907 8181 4966
8908 2278 4346
8909 4905 5990
8910 9969 4452
8911 5533 6736
8912 9061 6473
8913 4360 3245
8914 5607 5452
8915 7500 3588
8916 7346 7315
8917 3181 8573
8918 6279 791 
8919 9855 5258
8920 8599 5054
8921 8633 2992
8922 2117 2542
8923 5940 871 
8924 9549 8167
8925 1957 4374
8926 6649 2485
8927 7945 1651
8928 6872 4352
8929 7828 4945
8930 7443 4862
8931 9896 366 
8932 7219 3954
8933 7996 4929
8934 5391 8039
8935 2366 4517
8936 5595 6088
8937 8883 5866
8938 5041 1563
8939 223  3712
8940 7371 3792
8941 8724 4761
8942 2372 9833
8943 5362 6796
8944 7653 5266
8945 6549 5864
8946 6153 7223
8947 5953 5298
8948 7641 4878
8949 7758 4462
8950 4983 5612
8951 8100 2594
8952 9781 5708
8953 5389 7103
8954 4479 3840
8955 4784 5870
8956 8590 406 
8957 8097 4611
8958 2615 1788
8959 4180 6018
8960 4720 5271
8961 7649 3465
8962 9560 6284
8963 7143 4502
8964 5834 6248
8965 6411 670 
8966 8406 4561
8967 2220 9734
8968 8292 8315
8969 5038 5452
8970 5683 8610
8971 7700 1833
8972 2175 1271
8973 2985 657 
8974 3701 2117
8975 5534 8638
8976 7451 4776
8977 7320 5069
8978 2528 936 
8979 7206 4553
8980 5161 7776
8981 6769 6920
8982 4972 5659
8983 1973 2427
8984 6272 5550
8985 4926 7593
8986 7956 5034
8987 5215 6978
8988 820  1252
8989 6602 8907
8990 545  8570
8991 1754 7040
8992 5895 1446
8993 5211 1703
8994 9525 6891
8995 52   4709
8996 5217 6699
8997 6730 4931
8998 7395 4687
8999 792  7034
9000 7101 384 
9001 3502 8916
9002 4964 5396
9003 4732 5459
9004 5382 9779
9005 4756 5972
9006 4852 6077
9007 5359 6987
9008 6738 8317
9009 8321 9472
9010 6922 6979
9011 972  854 
9012 7827 4584
9013 6679 7082
9014 523  3836
9015 2320 1757
9016 5980 8962
9017 7876 6167
9018 2416 4442
9019 5720 3446
9020 4807 7478
9021 7915 3660
9022 7017 8141
9023 8855 3326
9024 5832 3083
9025 3580 6236
9026 5579 8130
9027 4877 6236
9028 5377 5480
9029 955  3307
9030 1509 2688
9031 7586 5135
9032 5435 8105
9033 5006 7095
9034 3766 4276
9035 7370 7045
9036 5604 8330
9037 5011 6714
9038 6158 2925
9039 5162 7128
9040 8211 4706
9041 7708 4660
9042 5967 4489
9043 5010 5630
9044 1036 6465
9045 4322 277 
9046 7267 2561
9047 5024 1357
9048 5095 6598
9049 7809 2300
9050 4827 6437
9051 6574 5699
9052 6092 7517
9053 7963 4639
9054 9919 3378
9055 4261 1291
9056 7707 4626
9057 4256 5101
9058 4782 6503
9059 5057 7588
9060 3891 940 
9061 8060 4865
9062 8758 4166
9063 4795 6815
9064 5356 7331
9065 5639 5922
9066 5519 6811
9067 8273 4997
9068 5612 1505
9069 9333 3383
9070 1691 4614
9071 8753 2787
9072 3621 5429
9073 5918 7475
9074 4293 2716
9075 7851 4721
9076 5446 6891
9077 4929 7376
9078 8737 4539
9079 9674 5304
9080 5396 7591
9081 5190 5176
9082 937  7013
9083 8338 7605
9084 5181 5114
9085 1572 5054
9086 5034 7337
9087 7473 4367
9088 5532 7096
9089 5559 7722
9090 1336 4017
9091 544  3661
9092 5403 6797
9093 5148 6728
9094 4857 5883
9095 3226 3664
9096 1892 6849
9097 4059 4924
9098 4687 6523
9099 5647 6871
9100 8611 4894
9101 4410 1576
9102 1690 8453
9103 5408 7723
9104 7881 4677
9105 8445 5380
9106 4829 7706
9107 5112 5769
9108 7485 5244
9109 5969 1899
9110 6198 7849
9111 7831 4853
9112 7827 4469
9113 4548 7719
9114 5326 8298
9115 4969 5646
9116 3882 8849
9117 4894 9206
9118 3755 8344
9119 7696 2611
9120 5748 9036
9121 9740 5370
9122 9988 3249
9123 7708 5301
9124 7162 7496
9125 4709 6837
9126 1414 4013
9127 2429 5134
9128 8268 7797
9129 5931 5415
9130 8495 9366
9131 4721 5511
9132 4811 5381
9133 3660 6309
9134 6741 1029
9135 7414 4840
9136 849  2711
9137 611  8465
9138 2151 547 
9139 965  2121
9140 3519 8261
9141 2895 1632
9142 4814 7558
9143 280  9134
9144 2089 8083
9145 445  7485
9146 5529 6737
9147 7175 5325
9148 9369 1792
9149 7590 8322
9150 4773 1237
9151 5983 6883
9152 7944 5934
9153 8508 4095
9154 7442 4859
9155 6803 5243
9156 5828 1804
9157 8102 5038
9158 8305 4658
9159 7913 6637
9160 8991 491 
9161 5471 4900
9162 4739 4215
9163 7928 3323
9164 1211 6770
9165 6356 6783
9166 7532 5286
9167 9343 9974
9168 4006 1943
9169 6031 6631
9170 3886 1141
9171 1129 4370
9172 6737 4208
9173 9281 2200
9174 2637 3063
9175 9202 5942
9176 4194 4797
9177 5093 7692
9178 8910 6183
9179 5627 7884
9180 8994 7383
9181 5601 6856
9182 5662 8049
9183 5534 7143
9184 4155 6871
9185 3205 5478
9186 436  8617
9187 5597 6331
9188 6161 3616
9189 5714 7088
9190 3259 2859
9191 4650 2388
9192 8114 4767
9193 3239 4157
9194 5200 6919
9195 8451 1496
9196 5306 6350
9197 7580 990 
9198 8830 6178
9199 6754 3499
9200 4520 6848
9201 1310 1419
9202 4560 5844
9203 6684 4026
9204 8567 3053
9205 5331 6933
9206 2521 5003
9207 5859 7584
9208 5389 7066
9209 5139 5051
9210 4536 6041
9211 1220 2935
9212 4644 7202
9213 7631 4812
9214 7983 4635
9215 5006 5361
9216 9094 3122
9217 5263 6966
9218 5232 7191
9219 7122 3664
9220 5357 7196
9221 8358 4857
9222 9168 4057
9223 6579 1419
9224 5050 6809
9225 6938 1458
9226 8228 7049
9227 7751 4064
9228 822  621 
9229 7946 178 
9230 4536 6286
9231 2003 4963
9232 7565 840 
9233 8789 2448
9234 7908 4824
9235 4718 7008
9236 6526 2674
9237 1828 742 
9238 7801 4741
9239 215  7881
9240 7454 4572
9241 9674 5045
9242 4920 7585
9243 8338 5310
9244 6557 7355
9245 2272 8891
9246 2080 5152
9247 5435 7029
9248 9078 6703
9249 6841 7865
9250 4084 3584
9251 5804 5848
9252 5701 8878
9253 6017 6376
9254 5169 6454
9255 7578 4619
9256 7852 3709
9257 5363 6871
9258 5160 7034
9259 4148 7278
9260 8024 9673
9261 9347 2840
9262 304  8561
9263 7537 7429
9264 5692 8037
9265 5139 5939
9266 5400 5158
9267 825  1464
9268 9061 6631
9269 7862 4250
9270 8848 2369
9271 1697 6501
9272 5487 7420
9273 5526 8420
9274 1294 5922
9275 7095 9683
9276 4491 6385
9277 5784 8050
9278 7771 4557
9279 4962 5581
9280 5662 8766
9281 5129 9170
9282 8903 1335
9283 4800 7255
9284 1720 4521
9285 7781 3081
9286 4816 4710
9287 5612 8431
9288 6976 5697
9289 4801 7554
9290 5170 4985
9291 5540 6610
9292 2052 5316
9293 2651 1433
9294 1045 6367
9295 6226 5151
9296 8371 5047
9297 5115 5372
9298 5797 6494
9299 4819 767 
9300 9176 1246
9301 4149 3983
9302 4909 7213
9303 5715 6512
9304 5239 7286
9305 5085 6527
9306 6110 1399
9307 5228 5912
9308 9532 5442
9309 5246 6865
9310 5517 6631
9311 1069 4780
9312 4971 3010
9313 7899 4717
9314 5861 7412
9315 7237 8512
9316 6487 7532
9317 5001 7109
9318 5885 8516
9319 6446 7464
9320 9746 9357
9321 5917 7047
9322 9325 4079
9323 7902 4222
9324 4891 8320
9325 5760 8507
9326 9366 962 
9327 1235 3635
9328 7900 4683
9329 5219 7094
9330 444  8873
9331 6516 3262
9332 4934 4926
9333 4644 5136
9334 3160 7438
9335 5520 5159
9336 7707 4439
9337 5246 6223
9338 8312 5734
9339 7131 3628
9340 6762 4185
9341 7840 1520
9342 6799 6109
9343 4932 7766
9344 5886 9054
9345 6235 5928
9346 5793 7710
9347 7866 5016
9348 8514 8575
9349 6394 6487
9350 4883 3514
9351 4860 6396
9352 8026 4770
9353 5771 7479
9354 5552 5947
9355 5174 2674
9356 4600 2306
9357 9024 8004
9358 1907 2317
9359 7791 9230
9360 5594 6585
9361 6133 4467
9362 5352 6948
9363 4574 6938
9364 7993 4740
9365 5541 8939
9366 4980 5589
9367 9092 7729
9368 1908 6729
9369 4503 9696
9370 7694 5312
9371 8433 6075
9372 9443 5764
9373 3093 1255
9374 8756 5782
9375 8703 9586
9376 1829 4491
9377 1811 5008
9378 188  1207
9379 3741 5727
9380 2451 2426
9381 8148 6655
9382 7407 4353
9383 5534 5387
9384 8908 4504
9385 4844 4529
9386 7783 4202
9387 7732 4613
9388 7742 2950
9389 8420 8231
9390 7521 7459
9391 4107 4785
9392 5325 7159
9393 5142 1043
9394 7917 5820
9395 4281 1838
9396 9611 3987
9397 5056 5216
9398 5661 6877
9399 6466 5909
9400 983  9410
9401 5406 6143
9402 5972 7881
9403 7936 4575
9404 8176 5108
9405 6294 7752
9406 9118 2380
9407 4042 3493
9408 7946 3915
9409 9787 4827
9410 8774 6058
9411 2447 2399
9412 9136 8610
9413 5746 8016
9414 5478 7084
9415 8498 4628
9416 4837 4328
9417 7799 4453
9418 2294 4375
9419 7833 152 
9420 7934 4969
9421 5083 7562
9422 6404 8441
9423 5694 5374
9424 6147 4529
9425 5513 6438
9426 7546 4889
9427 6496 9999
9428 6719 210 
9429 5728 6808
9430 2983 472 
9431 1236 2208
9432 8574 4499
9433 9595 7039
9434 5487 7022
9435 835  3153
9436 9111 3998
9437 6721 5014
9438 9454 5907
9439 5807 9056
9440 1440 4240
9441 5920 6341
9442 183  26  
9443 8769 2780
9444 8401 6103
9445 4886 6849
9446 5568 6120
9447 8158 4184
9448 3389 3792
9449 6702 7897
9450 6002 6919
9451 7961 4653
9452 37   7482
9453 4055 1676
9454 5000 7206
9455 5498 6803
9456 5711 7478
9457 4696 5992
9458 9742 7312
9459 8018 4569
9460 5197 5624
9461 4985 7173
9462 5266 6776
9463 9814 9810
9464 7423 3928
9465 7991 5109
9466 9222 4920
9467 5118 6974
9468 4770 7202
9469 4824 6624
9470 6251 6476
9471 7339 5203
9472 5057 7681
9473 5570 8058
9474 9173 4330
9475 712  4722
9476 7514 6987
9477 2866 9618
9478 8961 3370
9479 4796 6266
9480 5681 7948
9481 8009 4639
9482 6119 8628
9483 4780 4602
9484 8463 4053
9485 8310 7695
9486 6039 8829
9487 7625 4700
9488 5909 8047
9489 1607 5057
9490 6071 7003
9491 8842 3779
9492 5419 6131
9493 1868 7267
9494 8517 5790
9495 4854 5940
9496 4641 6124
9497 2473 4591
9498 8077 782 
9499 4825 7295
9500 634  3171
9501 7138 4343
9502 3596 9833
9503 4565 5549
9504 3526 5413
9505 5597 5658
9506 3922 7203
9507 5455 6915
9508 5095 5965
9509 6829 848 
9510 6831 9533
9511 4335 5479
9512 9661 536 
9513 1534 6896
9514 9574 1243
9515 7201 7933
9516 4867 6099
9517 7149 2783
9518 5081 4656
9519 5065 5531
9520 4517 9386
9521 750  9023
9522 5444 7814
9523 1139 8061
9524 7728 9628
9525 5529 6823
9526 5640 8190
9527 1209 3227
9528 8838 7607
9529 7553 5094
9530 2650 3082
9531 2418 8597
9532 6303 8448
9533 7870 8440
9534 7676 4947
9535 5800 8538
9536 5030 6483
9537 9961 4897
9538 8268 4942
9539 6936 3888
9540 7472 4514
9541 2425 2727
9542 9346 7818
9543 8010 4270
9544 8159 4596
9545 5209 5602
9546 5016 267 
9547 4279 3047
9548 5683 6293
9549 137  6029
9550 5457 7603
9551 8967 1359
9552 7625 5686
9553 5357 6779
9554 7544 4259
9555 8607 5268
9556 9244 1895
9557 9441 6111
9558 3202 3997
9559 5803 4554
9560 1181 777 
9561 810  6425
9562 9467 6800
9563 5319 7760
9564 7709 4984
9565 4368 4340
9566 4997 7163
9567 1003 2896
9568 6765 4950
9569 4511 6536
9570 8185 4421
9571 1165 5701
9572 5296 5307
9573 5414 6902
9574 7648 4585
9575 7134 5284
9576 8485 9981
9577 5800 3598
9578 3171 4975
9579 1041 6617
9580 5488 1241
9581 5364 7525
9582 5615 5425
9583 9225 4316
9584 7766 3975
9585 3443 7501
9586 7174 1040
9587 2069 4819
9588 9091 4879
9589 4219 7543
9590 5966 6143
9591 9020 8950
9592 2155 9719
9593 8471 8910
9594 7742 4650
9595 5377 6248
9596 3064 5068
9597 6845 2755
9598 4783 6409
9599 5388 7305
9600 8138 4552
9601 5001 7080
9602 8581 3602
9603 3445 7070
9604 8695 7572
9605 419  9215
9606 5732 6658
9607 7864 4551
9608 5640 7947
9609 6893 4410
9610 13   123 
9611 9028 4195
9612 5985 458 
9613 4508 858 
9614 5664 7422
9615 2824 2864
9616 3866 312 
9617 6312 2851
9618 7558 5161
9619 4640 7605
9620 9620 7862
9621 5564 5739
9622 7779 4607
9623 5825 5598
9624 5480 6789
9625 2972 8627
9626 7776 4764
9627 6107 4097
9628 6734 7039
9629 7619 3894
9630 8163 5101
9631 7050 1639
9632 5538 7144
9633 4767 7858
9634 8043 3390
9635 4622 8792
9636 350  8918
9637 6388 7808
9638 9527 667 
9639 2732 8200
9640 5306 6966
9641 7364 5965
9642 2802 8189
9643 860  4908
9644 5584 8205
9645 7629 4608
9646 5262 7505
9647 7606 3633
9648 8382 4830
9649 595  958 
9650 5896 1102
9651 2425 7005
9652 8293 9247
9653 74   6699
9654 4463 4511
9655 2258 740 
9656 6855 4830
9657 4749 6921
9658 5490 3499
9659 133  8772
9660 4554 7355
9661 8420 7734
9662 8495 4840
9663 7871 4800
9664 1352 2148
9665 7379 5129
9666 7186 4046
9667 7505 6708
9668 6154 8850
9669 8339 4622
9670 315  3851
9671 5309 5475
9672 3576 2593
9673 7405 5726
9674 9370 2278
9675 4897 7682
9676 1208 1682
9677 2405 3600
9678 6410 3919
9679 6287 7147
9680 8269 8039
9681 5499 6147
9682 3946 2761
9683 5140 6220
9684 7963 5465
9685 8270 3399
9686 7929 5235
9687 6807 6324
9688 8786 5045
9689 7961 7976
9690 5521 7419
9691 4659 7402
9692 6898 2336
9693 5450 5938
9694 4562 7079
9695 1713 9432
9696 8003 5001
9697 4620 3511
9698 5427 7986
9699 1791 5426
9700 7819 2632
9701 3300 5615
9702 7471 7008
9703 1379 5589
9704 5595 6765
9705 4957 5059
9706 5775 8137
9707 4746 7040
9708 4467 5707
9709 3955 8607
9710 6239 75  
9711 4612 8604
9712 9218 9554
9713 8849 3673
9714 8395 4039
9715 5737 6529
9716 5234 6744
9717 8767 6000
9718 3084 9957
9719 4781 7068
9720 5756 4686
9721 4353 1213
9722 5246 7579
9723 3277 4557
9724 3417 18  
9725 4894 5943
9726 4072 7102
9727 3375 9704
9728 7495 4776
9729 7409 4836
9730 4792 7348
9731 4804 6080
9732 4846 5183
9733 7321 4510
9734 5090 7122
9735 2506 6374
9736 3541 1982
9737 5681 8195
9738 3458 8355
9739 4943 999 
9740 5657 5089
9741 3253 6335
9742 4542 7044
9743 5404 6695
9744 717  2465
9745 5531 5783
9746 5395 7017
9747 7110 5799
9748 4915 7027
9749 6165 9472
9750 7818 4592
9751 9060 4497
9752 1027 6824
9753 5639 6859
9754 7691 3975
9755 5598 5100
9756 5429 8239
9757 7067 4308
9758 7734 4632
9759 5646 813 
9760 4074 6159
9761 1183 4310
9762 2116 5238
9763 957  25  
9764 1298 2315
9765 5620 8379
9766 5832 7938
9767 8649 8885
9768 4310 8721
9769 7494 4159
9770 5702 8280
9771 2464 5129
9772 5632 7913
9773 1028 6815
9774 7869 4551
9775 2374 3271
9776 831  4371
9777 3625 3222
9778 4923 5420
9779 5297 5215
9780 6148 8566
9781 5389 6676
9782 7650 4110
9783 5201 5807
9784 4801 6421
9785 5358 6398
9786 6456 7857
9787 3128 5712
9788 1374 1634
9789 51   7970
9790 1657 9339
9791 5319 528 
9792 5028 5804
9793 5143 7169
9794 5436 7181
9795 8893 7194
9796 8017 7439
9797 9903 6235
9798 8008 4407
9799 4721 8897
9800 5553 8153
9801 5424 6703
9802 7992 4875
9803 7922 4887
9804 8054 4408
9805 7906 9471
9806 3720 8170
9807 7279 2282
9808 7755 5376
9809 5115 5770
9810 4755 7417
9811 6074 7403
9812 5131 6969
9813 3574 8447
9814 4860 8710
9815 7666 576 
9816 5031 7171
9817 7333 3871
9818 5809 7621
9819 5506 8358
9820 686  2308
9821 6066 7975
9822 5374 6067
9823 2271 5237
9824 7791 9584
9825 9660 6872
9826 1583 1164
9827 3881 5979
9828 4851 6749
9829 6356 4853
9830 829  4246
9831 7808 4521
9832 7807 7459
9833 296  1936
9834 9154 8401
9835 7134 4730
9836 7966 3514
9837 5316 6351
9838 4415 2906
9839 2765 4705
9840 4807 6926
9841 6096 6821
9842 5196 7259
9843 4950 7227
9844 5388 7398
9845 3132 7055
9846 7253 8869
9847 7986 4833
9848 1506 359 
9849 6676 4055
9850 1151 7090
9851 4797 6120
9852 8827 2668
9853 5245 7307
9854 3118 428 
9855 8813 4989
9856 9499 6825
9857 8665 4822
9858 3689 3033
9859 7679 5386
9860 7374 5596
9861 5588 8684
9862 5832 8077
9863 5421 7224
9864 6487 3900
9865 5435 6831
9866 8138 4102
9867 5755 9318
9868 5583 5412
9869 4857 6376
9870 4021 583 
9871 5883 8034
9872 9854 4073
9873 9098 4141
9874 2330 3388
9875 5164 8005
9876 1089 5478
9877 7461 4314
9878 5162 6529
9879 5650 8254
9880 5072 7340
9881 2076 7358
9882 332  6496
9883 5658 5309
9884 5597 5375
9885 3072 5346
9886 5668 6558
9887 7913 4871
9888 6123 7975
9889 8834 1628
9890 2765 4366
9891 5471 7822
9892 6234 4668
9893 943  9162
9894 4868 3290
9895 379  7272
9896 5757 7406
9897 1027 2767
9898 7857 4937
9899 7596 4416
9900 6411 9663
9901 662  3674
9902 8570 4163
9903 937  3273
9904 5744 5493
9905 7799 5473
9906 9880 1249
9907 8232 3727
9908 9236 4525
9909 8079 3543
9910 8784 4191
9911 1688 5293
9912 7495 4464
9913 6092 7933
9914 8001 5024
9915 5389 6612
9916 7698 4685
9917 4867 6989
9918 8576 5134
9919 8144 5032
9920 7731 2331
9921 3746 8033
9922 353  4178
9923 7683 6812
9924 7828 4911
9925 7896 949 
9926 5462 5376
9927 7629 4225
9928 5020 7743
9929 6751 3463
9930 4451 2090
9931 4539 5170
9932 859  5004
9933 5475 7210
9934 8418 8001
9935 4613 1976
9936 2858 2780
9937 5581 7574
9938 5574 7912
9939 5376 5401
9940 4941 5636
9941 5312 5304
9942 8119 5091
9943 7478 4808
9944 4900 7350
9945 490  2106
9946 1268 9744
9947 6890 6239
9948 4258 9350
9949 7675 4801
9950 5825 8908
9951 7916 1248
9952 6570 141 
9953 462  3128
9954 5228 8102
9955 2695 9401
9956 3258 70  
9957 1299 3380
9958 568  2858
9959 5428 7547
9960 7331 4407
9961 4906 6054
9962 5605 3885
9963 6399 8122
9964 3125 6787
9965 7212 5029
9966 5004 7378
9967 7641 5192
9968 6400 738 
9969 1316 2272
9970 8045 2955
9971 5210 7546
9972 8144 5275
9973 5172 5734
9974 3122 1182
9975 3100 1286
9976 835  3543
9977 6851 9268
9978 8422 5310
9979 7650 7362
9980 8248 4940
9981 1314 8312
9982 6271 7459
9983 9970 6391
9984 174  4106
9985 4170 6193
9986 8943 3417
9987 6335 4297
9988 5073 5660
9989 5456 8100
9990 8189 1151
9991 5567 5508
9992 2063 8255
9993 504  8602
9994 2966 6533
9995 8468 5056
9996 5498 7390
9997 5526 6827
9998 3970 8046
9999 7742 5176
10000 4920 7135
10001 4737 6911
DEMAND_SECTION
1    0   
2    6   
3    7   
4    4   
5    10  
6    4   
7    4   
8    8   
9    7   
10   9   
11   8   
12   2   
13   5   
14   4   
15   7   
16   2   
17   1   
18   2   
19   3   
20   8   
21   10  
22   5   
23   5   
24   3   
25   9   
26   9   
27   10  
28   1   
29   8   
30   9   
31   3   
32   8   
33   6   
34   2   
35   3   
36   7   
37   2   
38   9   
39   3   
40   3   
41   9   
42   1   
43   1   
44   3   
45   4   
46   5   
47   5   
48   9   
49   1   
50   1   
51   8   
52   1   
53   10  
54   5   
55   4   
56   10  
57   4   
58   7   
59   2   
60   6   
61   8   
62   2   
63   4   
64   3   
65   2   
66   7   
67   7   
68   4   
69   7   
70   5   
71   3   
72   6   
73   7   
74   7   
75   1   
76   1   
77   5   
78   10  
79   6   
80   4   
81   10  
82   10  
83   7   
84   1   
85   4   
86   6   
87   5   
88   3   
89   5   
90   2   
91   6   
92   3   
93   2   
94   6   
95   3   
96   7   
97   3   
98   8   
99   9   
100  5   
101  9   
102  3   
103  2   
104  5   
105  4   
106  4   
107  4   
108  4   
109  3   
110  8   
111  9   
112  2   
113  2   
114  1   
115  3   
116  8   
117  3   
118  3   
119  5   
120  6   
121  4   
122  4   
123  6   
124  4   
125  3   
126  2   
127  1   
128  5   
129  3   
130  2   
131  8   
132  4   
133  7   
134  7   
135  5   
136  3   
137  8   
138  10  
139  1   
140  9   
141  1   
142  4   
143  3   
144  1   
145  9   
146  2   
147  9   
148  2   
149  5   
150  4   
151  3   
152  6   
153  8   
154  10  
155  8   
156  9   
157  4   
158  6   
159  4   
160  8   
161  8   
162  8   
163  8   
164  10  
165  9   
166  4   
167  7   
168  7   
169  5   
170  3   
171  8   
172  7   
173  4   
174  6   
175  2   
176  5   
177  7   
178  9   
179  6   
180  1   
181  9   
182  3   
183  2   
184  3   
185  3   
186  5   
187  1   
188  5   
189  10  
190  3   
191  4   
192  9   
193  1   
194  3   
195  2   
196  6   
197  4   
198  2   
199  1   
200  3   
201  9   
202  1   
203  10  
204  8   
205  3   
206  2   
207  10  
208  8   
209  3   
210  4   
211  2   
212  4   
213  5   
214  3   
215  3   
216  9   
217  1   
218  2   
219  8   
220  5   
221  7   
222  6   
223  8   
224  8   
225  2   
226  5   
227  3   
228  6   
229  1   
230  2   
231  10  
232  8   
233  1   
234  6   
235  10  
236  3   
237  9   
238  7   
239  5   
240  3   
241  4   
242  4   
243  5   
244  8   
245  2   
246  5   
247  2   
248  2   
249  2   
250  9   
251  5   
252  4   
253  4   
254  6   
255  3   
256  10  
257  5   
258  5   
259  7   
260  2   
261  6   
262  3   
263  5   
264  5   
265  7   
266  10  
267  3   
268  5   
269  2   
270  5   
271  2   
272  1   
273  9   
274  7   
275  8   
276  1   
277  3   
278  1   
279  1   
280  10  
281  10  
282  3   
283  1   
284  4   
285  1   
286  10  
287  6   
288  9   
289  6   
290  2   
291  5   
292  10  
293  5   
294  7   
295  3   
296  5   
297  7   
298  10  
299  7   
300  6   
301  8   
302  7   
303  4   
304  7   
305  4   
306  2   
307  8   
308  2   
309  4   
310  8   
311  5   
312  1   
313  8   
314  9   
315  8   
316  3   
317  3   
318  8   
319  10  
320  9   
321  4   
322  8   
323  5   
324  4   
325  3   
326  3   
327  1   
328  1   
329  5   
330  6   
331  7   
332  4   
333  9   
334  8   
335  5   
336  1   
337  9   
338  8   
339  1   
340  1   
341  8   
342  8   
343  2   
344  5   
345  2   
346  6   
347  3   
348  5   
349  8   
350  10  
351  4   
352  8   
353  3   
354  5   
355  8   
356  10  
357  7   
358  9   
359  7   
360  7   
361  5   
362  8   
363  1   
364  5   
365  9   
366  5   
367  4   
368  10  
369  2   
370  9   
371  9   
372  3   
373  3   
374  3   
375  2   
376  6   
377  2   
378  2   
379  3   
380  4   
381  8   
382  7   
383  1   
384  8   
385  1   
386  3   
387  9   
388  10  
389  3   
390  7   
391  4   
392  6   
393  4   
394  10  
395  9   
396  10  
397  3   
398  2   
399  1   
400  1   
401  9   
402  3   
403  10  
404  5   
405  7   
406  10  
407  3   
408  1   
409  3   
410  10  
411  3   
412  2   
413  4   
414  3   
415  2   
416  6   
417  6   
418  7   
419  3   
420  3   
421  10  
422  3   
423  5   
424  2   
425  10  
426  2   
427  10  
428  9   
429  8   
430  10  
431  4   
432  3   
433  3   
434  6   
435  7   
436  7   
437  10  
438  5   
439  9   
440  10  
441  1   
442  4   
443  4   
444  4   
445  6   
446  8   
447  9   
448  6   
449  4   
450  7   
451  7   
452  2   
453  7   
454  1   
455  1   
456  6   
457  10  
458  2   
459  8   
460  1   
461  2   
462  8   
463  6   
464  4   
465  8   
466  7   
467  9   
468  8   
469  2   
470  6   
471  3   
472  5   
473  5   
474  7   
475  10  
476  6   
477  9   
478  1   
479  9   
480  5   
481  10  
482  10  
483  1   
484  2   
485  2   
486  9   
487  2   
488  9   
489  8   
490  7   
491  10  
492  8   
493  5   
494  10  
495  5   
496  10  
497  8   
498  3   
499  4   
500  1   
501  2   
502  9   
503  7   
504  5   
505  10  
506  9   
507  8   
508  4   
509  2   
510  7   
511  3   
512  7   
513  9   
514  5   
515  6   
516  1   
517  5   
518  7   
519  10  
520  7   
521  4   
522  5   
523  9   
524  6   
525  3   
526  8   
527  3   
528  6   
529  4   
530  3   
531  9   
532  5   
533  1   
534  3   
535  7   
536  3   
537  2   
538  4   
539  10  
540  4   
541  3   
542  7   
543  5   
544  10  
545  3   
546  6   
547  3   
548  8   
549  7   
550  7   
551  3   
552  8   
553  10  
554  4   
555  6   
556  5   
557  5   
558  1   
559  3   
560  4   
561  7   
562  5   
563  1   
564  10  
565  10  
566  7   
567  2   
568  2   
569  8   
570  4   
571  5   
572  7   
573  6   
574  10  
575  5   
576  4   
577  6   
578  4   
579  5   
580  9   
581  9   
582  3   
583  9   
584  6   
585  7   
586  2   
587  8   
588  1   
589  5   
590  6   
591  9   
592  9   
593  10  
594  4   
595  10  
596  2   
597  6   
598  6   
599  1   
600  2   
601  10  
602  5   
603  1   
604  6   
605  3   
606  10  
607  1   
608  8   
609  1   
610  2   
611  4   
612  8   
613  4   
614  7   
615  3   
616  4   
617  6   
618  7   
619  7   
620  7   
621  2   
622  3   
623  3   
624  3   
625  7   
626  6   
627  2   
628  3   
629  1   
630  2   
631  9   
632  4   
633  2   
634  7   
635  9   
636  3   
637  3   
638  4   
639  10  
640  9   
641  1   
642  3   
643  5   
644  7   
645  8   
646  4   
647  8   
648  10  
649  7   
650  3   
651  6   
652  2   
653  8   
654  7   
655  9   
656  3   
657  2   
658  2   
659  6   
660  4   
661  3   
662  4   
663  3   
664  8   
665  6   
666  4   
667  8   
668  3   
669  8   
670  6   
671  8   
672  7   
673  2   
674  7   
675  2   
676  5   
677  5   
678  3   
679  2   
680  10  
681  2   
682  3   
683  8   
684  10  
685  1   
686  7   
687  6   
688  5   
689  7   
690  2   
691  7   
692  6   
693  3   
694  6   
695  8   
696  5   
697  7   
698  7   
699  6   
700  5   
701  8   
702  4   
703  1   
704  6   
705  7   
706  6   
707  9   
708  3   
709  6   
710  7   
711  9   
712  10  
713  2   
714  1   
715  1   
716  3   
717  3   
718  8   
719  7   
720  6   
721  7   
722  5   
723  7   
724  7   
725  2   
726  1   
727  8   
728  10  
729  8   
730  4   
731  10  
732  6   
733  6   
734  5   
735  8   
736  7   
737  8   
738  1   
739  4   
740  8   
741  8   
742  8   
743  8   
744  6   
745  4   
746  9   
747  2   
748  6   
749  4   
750  6   
751  5   
752  3   
753  9   
754  3   
755  10  
756  3   
757  3   
758  5   
759  6   
760  10  
761  3   
762  1   
763  5   
764  4   
765  1   
766  6   
767  7   
768  9   
769  7   
770  1   
771  4   
772  1   
773  3   
774  4   
775  10  
776  1   
777  8   
778  8   
779  7   
780  8   
781  8   
782  3   
783  6   
784  1   
785  10  
786  10  
787  1   
788  9   
789  6   
790  4   
791  8   
792  8   
793  1   
794  7   
795  3   
796  8   
797  3   
798  2   
799  6   
800  4   
801  7   
802  7   
803  7   
804  4   
805  2   
806  1   
807  8   
808  6   
809  7   
810  4   
811  9   
812  7   
813  10  
814  4   
815  6   
816  8   
817  6   
818  8   
819  4   
820  10  
821  4   
822  9   
823  7   
824  1   
825  5   
826  6   
827  10  
828  7   
829  7   
830  3   
831  7   
832  5   
833  10  
834  1   
835  8   
836  5   
837  5   
838  10  
839  4   
840  2   
841  10  
842  1   
843  3   
844  1   
845  8   
846  7   
847  5   
848  9   
849  5   
850  4   
851  8   
852  9   
853  5   
854  7   
855  6   
856  6   
857  9   
858  9   
859  6   
860  3   
861  6   
862  4   
863  1   
864  9   
865  10  
866  5   
867  8   
868  4   
869  4   
870  9   
871  4   
872  9   
873  6   
874  6   
875  3   
876  5   
877  9   
878  3   
879  10  
880  7   
881  9   
882  4   
883  2   
884  2   
885  1   
886  2   
887  6   
888  7   
889  9   
890  3   
891  5   
892  8   
893  4   
894  2   
895  9   
896  4   
897  4   
898  2   
899  10  
900  6   
901  2   
902  8   
903  3   
904  1   
905  7   
906  1   
907  10  
908  9   
909  7   
910  3   
911  6   
912  8   
913  2   
914  7   
915  4   
916  2   
917  2   
918  7   
919  8   
920  4   
921  3   
922  9   
923  9   
924  9   
925  9   
926  4   
927  5   
928  6   
929  8   
930  3   
931  9   
932  6   
933  3   
934  7   
935  4   
936  10  
937  2   
938  3   
939  9   
940  10  
941  4   
942  6   
943  7   
944  2   
945  1   
946  2   
947  10  
948  5   
949  8   
950  8   
951  5   
952  1   
953  2   
954  10  
955  4   
956  6   
957  3   
958  7   
959  3   
960  10  
961  8   
962  2   
963  5   
964  1   
965  10  
966  2   
967  1   
968  6   
969  4   
970  7   
971  6   
972  6   
973  1   
974  2   
975  4   
976  2   
977  9   
978  1   
979  7   
980  1   
981  5   
982  2   
983  9   
984  1   
985  1   
986  1   
987  8   
988  7   
989  5   
990  8   
991  6   
992  9   
993  7   
994  2   
995  3   
996  6   
997  5   
998  6   
999  6   
1000 10  
1001 6   
1002 4   
1003 1   
1004 4   
1005 9   
1006 1   
1007 2   
1008 10  
1009 7   
1010 2   
1011 8   
1012 2   
1013 8   
1014 3   
1015 5   
1016 2   
1017 7   
1018 7   
1019 3   
1020 10  
1021 8   
1022 1   
1023 7   
1024 4   
1025 6   
1026 3   
1027 4   
1028 7   
1029 9   
1030 3   
1031 5   
1032 1   
1033 10  
1034 9   
1035 1   
1036 10  
1037 8   
1038 7   
1039 8   
1040 6   
1041 8   
1042 4   
1043 4   
1044 6   
1045 8   
1046 1   
1047 7   
1048 2   
1049 9   
1050 7   
1051 8   
1052 5   
1053 9   
1054 4   
1055 5   
1056 5   
1057 10  
1058 3   
1059 3   
1060 9   
1061 4   
1062 5   
1063 8   
1064 6   
1065 2   
1066 9   
1067 2   
1068 9   
1069 7   
1070 4   
1071 5   
1072 9   
1073 9   
1074 3   
1075 10  
1076 1   
1077 4   
1078 8   
1079 5   
1080 7   
1081 5   
1082 3   
1083 4   
1084 7   
1085 5   
1086 6   
1087 1   
1088 5   
1089 6   
1090 6   
1091 1   
1092 9   
1093 7   
1094 7   
1095 1   
1096 1   
1097 4   
1098 7   
1099 6   
1100 5   
1101 6   
1102 1   
1103 6   
1104 1   
1105 7   
1106 5   
1107 7   
1108 5   
1109 5   
1110 3   
1111 10  
1112 10  
1113 3   
1114 2   
1115 7   
1116 1   
1117 4   
1118 3   
1119 2   
1120 5   
1121 10  
1122 3   
1123 7   
1124 10  
1125 7   
1126 7   
1127 7   
1128 2   
1129 4   
1130 10  
1131 2   
1132 1   
1133 8   
1134 9   
1135 5   
1136 6   
1137 8   
1138 5   
1139 5   
1140 8   
1141 3   
1142 2   
1143 2   
1144 5   
1145 2   
1146 6   
1147 7   
1148 1   
1149 3   
1150 5   
1151 6   
1152 3   
1153 5   
1154 4   
1155 1   
1156 3   
1157 10  
1158 1   
1159 4   
1160 7   
1161 8   
1162 4   
1163 4   
1164 4   
1165 10  
1166 2   
1167 4   
1168 9   
1169 2   
1170 1   
1171 4   
1172 3   
1173 8   
1174 9   
1175 8   
1176 6   
1177 9   
1178 1   
1179 1   
1180 8   
1181 10  
1182 5   
1183 7   
1184 1   
1185 10  
1186 3   
1187 4   
1188 1   
1189 6   
1190 5   
1191 4   
1192 7   
1193 7   
1194 4   
1195 3   
1196 3   
1197 2   
1198 2   
1199 3   
1200 1   
1201 3   
1202 10  
1203 8   
1204 2   
1205 6   
1206 7   
1207 10  
1208 2   
1209 8   
1210 5   
1211 1   
1212 2   
1213 3   
1214 6   
1215 4   
1216 7   
1217 10  
1218 7   
1219 7   
1220 7   
1221 2   
1222 5   
1223 3   
1224 10  
1225 5   
1226 5   
1227 5   
1228 6   
1229 6   
1230 2   
1231 1   
1232 7   
1233 10  
1234 10  
1235 9   
1236 9   
1237 8   
1238 4   
1239 9   
1240 10  
1241 9   
1242 5   
1243 9   
1244 7   
1245 10  
1246 1   
1247 10  
1248 8   
1249 5   
1250 2   
1251 8   
1252 4   
1253 4   
1254 2   
1255 8   
1256 10  
1257 4   
1258 2   
1259 9   
1260 10  
1261 4   
1262 1   
1263 4   
1264 8   
1265 10  
1266 8   
1267 2   
1268 5   
1269 6   
1270 3   
1271 10  
1272 2   
1273 5   
1274 10  
1275 8   
1276 7   
1277 1   
1278 4   
1279 5   
1280 9   
1281 2   
1282 4   
1283 3   
1284 9   
1285 5   
1286 10  
1287 10  
1288 8   
1289 7   
1290 10  
1291 1   
1292 8   
1293 10  
1294 7   
1295 1   
1296 3   
1297 1   
1298 5   
1299 10  
1300 7   
1301 1   
1302 5   
1303 4   
1304 5   
1305 5   
1306 8   
1307 2   
1308 3   
1309 5   
1310 2   
1311 4   
1312 6   
1313 4   
1314 1   
1315 7   
1316 7   
1317 9   
1318 5   
1319 7   
1320 6   
1321 7   
1322 7   
1323 1   
1324 6   
1325 4   
1326 4   
1327 7   
1328 9   
1329 3   
1330 1   
1331 1   
1332 3   
1333 7   
1334 5   
1335 6   
1336 6   
1337 9   
1338 3   
1339 6   
1340 5   
1341 10  
1342 8   
1343 5   
1344 1   
1345 3   
1346 7   
1347 9   
1348 4   
1349 2   
1350 10  
1351 3   
1352 6   
1353 5   
1354 1   
1355 1   
1356 5   
1357 10  
1358 3   
1359 8   
1360 3   
1361 7   
1362 9   
1363 3   
1364 5   
1365 9   
1366 6   
1367 7   
1368 3   
1369 6   
1370 6   
1371 7   
1372 3   
1373 5   
1374 6   
1375 3   
1376 2   
1377 8   
1378 6   
1379 9   
1380 10  
1381 6   
1382 9   
1383 2   
1384 8   
1385 1   
1386 9   
1387 4   
1388 4   
1389 10  
1390 9   
1391 9   
1392 10  
1393 1   
1394 5   
1395 2   
1396 10  
1397 10  
1398 8   
1399 5   
1400 7   
1401 4   
1402 9   
1403 3   
1404 10  
1405 2   
1406 5   
1407 4   
1408 10  
1409 10  
1410 6   
1411 8   
1412 4   
1413 2   
1414 3   
1415 7   
1416 7   
1417 3   
1418 2   
1419 2   
1420 2   
1421 7   
1422 3   
1423 1   
1424 3   
1425 5   
1426 1   
1427 2   
1428 3   
1429 10  
1430 5   
1431 5   
1432 10  
1433 2   
1434 1   
1435 8   
1436 2   
1437 1   
1438 5   
1439 6   
1440 2   
1441 8   
1442 2   
1443 5   
1444 8   
1445 5   
1446 2   
1447 5   
1448 9   
1449 6   
1450 3   
1451 5   
1452 6   
1453 2   
1454 2   
1455 5   
1456 4   
1457 3   
1458 10  
1459 3   
1460 5   
1461 6   
1462 6   
1463 6   
1464 4   
1465 9   
1466 3   
1467 3   
1468 4   
1469 6   
1470 2   
1471 8   
1472 1   
1473 2   
1474 9   
1475 2   
1476 9   
1477 2   
1478 6   
1479 4   
1480 1   
1481 3   
1482 5   
1483 10  
1484 4   
1485 1   
1486 3   
1487 3   
1488 4   
1489 3   
1490 6   
1491 4   
1492 7   
1493 1   
1494 1   
1495 6   
1496 3   
1497 6   
1498 5   
1499 7   
1500 9   
1501 4   
1502 10  
1503 2   
1504 3   
1505 5   
1506 1   
1507 2   
1508 6   
1509 3   
1510 7   
1511 5   
1512 6   
1513 3   
1514 5   
1515 8   
1516 7   
1517 3   
1518 10  
1519 1   
1520 6   
1521 2   
1522 5   
1523 3   
1524 1   
1525 3   
1526 10  
1527 2   
1528 10  
1529 1   
1530 6   
1531 8   
1532 2   
1533 6   
1534 3   
1535 10  
1536 3   
1537 3   
1538 9   
1539 1   
1540 1   
1541 3   
1542 4   
1543 7   
1544 7   
1545 8   
1546 10  
1547 9   
1548 10  
1549 6   
1550 6   
1551 6   
1552 7   
1553 7   
1554 3   
1555 8   
1556 9   
1557 5   
1558 8   
1559 2   
1560 8   
1561 6   
1562 9   
1563 10  
1564 10  
1565 9   
1566 7   
1567 6   
1568 6   
1569 6   
1570 1   
1571 5   
1572 10  
1573 2   
1574 3   
1575 9   
1576 10  
1577 9   
1578 10  
1579 10  
1580 1   
1581 3   
1582 5   
1583 9   
1584 2   
1585 7   
1586 3   
1587 3   
1588 9   
1589 9   
1590 3   
1591 3   
1592 1   
1593 4   
1594 4   
1595 9   
1596 8   
1597 8   
1598 5   
1599 4   
1600 4   
1601 2   
1602 10  
1603 8   
1604 7   
1605 6   
1606 5   
1607 5   
1608 2   
1609 9   
1610 6   
1611 4   
1612 4   
1613 5   
1614 9   
1615 5   
1616 8   
1617 4   
1618 1   
1619 1   
1620 2   
1621 7   
1622 3   
1623 2   
1624 5   
1625 6   
1626 7   
1627 3   
1628 7   
1629 3   
1630 6   
1631 8   
1632 7   
1633 5   
1634 1   
1635 10  
1636 2   
1637 6   
1638 8   
1639 6   
1640 1   
1641 10  
1642 8   
1643 2   
1644 7   
1645 10  
1646 9   
1647 5   
1648 1   
1649 1   
1650 5   
1651 9   
1652 10  
1653 9   
1654 7   
1655 10  
1656 8   
1657 7   
1658 8   
1659 5   
1660 6   
1661 10  
1662 9   
1663 6   
1664 8   
1665 6   
1666 5   
1667 1   
1668 5   
1669 2   
1670 2   
1671 1   
1672 10  
1673 3   
1674 6   
1675 2   
1676 7   
1677 10  
1678 8   
1679 5   
1680 8   
1681 3   
1682 3   
1683 5   
1684 2   
1685 5   
1686 3   
1687 8   
1688 1   
1689 9   
1690 6   
1691 9   
1692 4   
1693 7   
1694 6   
1695 3   
1696 7   
1697 5   
1698 4   
1699 10  
1700 2   
1701 3   
1702 3   
1703 3   
1704 1   
1705 6   
1706 10  
1707 8   
1708 6   
1709 6   
1710 8   
1711 9   
1712 10  
1713 8   
1714 1   
1715 6   
1716 7   
1717 1   
1718 6   
1719 3   
1720 8   
1721 6   
1722 10  
1723 1   
1724 9   
1725 2   
1726 3   
1727 1   
1728 5   
1729 4   
1730 9   
1731 6   
1732 1   
1733 1   
1734 9   
1735 4   
1736 10  
1737 2   
1738 9   
1739 2   
1740 1   
1741 6   
1742 2   
1743 2   
1744 1   
1745 1   
1746 5   
1747 10  
1748 1   
1749 1   
1750 9   
1751 4   
1752 2   
1753 7   
1754 8   
1755 2   
1756 9   
1757 4   
1758 8   
1759 2   
1760 10  
1761 9   
1762 5   
1763 5   
1764 3   
1765 8   
1766 2   
1767 5   
1768 10  
1769 3   
1770 7   
1771 7   
1772 10  
1773 7   
1774 8   
1775 8   
1776 6   
1777 5   
1778 3   
1779 8   
1780 7   
1781 9   
1782 6   
1783 10  
1784 5   
1785 4   
1786 2   
1787 2   
1788 9   
1789 7   
1790 5   
1791 8   
1792 2   
1793 4   
1794 10  
1795 10  
1796 2   
1797 4   
1798 10  
1799 9   
1800 3   
1801 9   
1802 5   
1803 10  
1804 1   
1805 6   
1806 6   
1807 7   
1808 10  
1809 4   
1810 4   
1811 2   
1812 1   
1813 1   
1814 3   
1815 8   
1816 1   
1817 2   
1818 4   
1819 4   
1820 8   
1821 5   
1822 8   
1823 4   
1824 5   
1825 8   
1826 8   
1827 5   
1828 3   
1829 4   
1830 4   
1831 9   
1832 4   
1833 9   
1834 4   
1835 4   
1836 1   
1837 9   
1838 9   
1839 7   
1840 6   
1841 1   
1842 10  
1843 2   
1844 2   
1845 8   
1846 2   
1847 6   
1848 6   
1849 3   
1850 6   
1851 9   
1852 2   
1853 6   
1854 6   
1855 6   
1856 9   
1857 10  
1858 9   
1859 2   
1860 8   
1861 2   
1862 7   
1863 6   
1864 9   
1865 2   
1866 6   
1867 3   
1868 8   
1869 6   
1870 1   
1871 9   
1872 7   
1873 6   
1874 4   
1875 1   
1876 7   
1877 4   
1878 7   
1879 4   
1880 3   
1881 4   
1882 10  
1883 7   
1884 4   
1885 3   
1886 7   
1887 4   
1888 4   
1889 6   
1890 7   
1891 9   
1892 5   
1893 10  
1894 3   
1895 8   
1896 9   
1897 8   
1898 10  
1899 10  
1900 3   
1901 7   
1902 6   
1903 6   
1904 2   
1905 6   
1906 3   
1907 2   
1908 7   
1909 7   
1910 9   
1911 3   
1912 2   
1913 1   
1914 9   
1915 7   
1916 7   
1917 4   
1918 3   
1919 6   
1920 1   
1921 4   
1922 1   
1923 5   
1924 2   
1925 2   
1926 1   
1927 7   
1928 5   
1929 6   
1930 7   
1931 9   
1932 10  
1933 3   
1934 7   
1935 5   
1936 3   
1937 8   
1938 7   
1939 4   
1940 10  
1941 6   
1942 6   
1943 4   
1944 4   
1945 9   
1946 5   
1947 5   
1948 6   
1949 4   
1950 8   
1951 5   
1952 8   
1953 7   
1954 10  
1955 9   
1956 7   
1957 10  
1958 9   
1959 2   
1960 8   
1961 2   
1962 3   
1963 9   
1964 2   
1965 6   
1966 6   
1967 7   
1968 8   
1969 3   
1970 6   
1971 2   
1972 7   
1973 4   
1974 5   
1975 5   
1976 4   
1977 9   
1978 5   
1979 7   
1980 3   
1981 6   
1982 10  
1983 6   
1984 2   
1985 6   
1986 6   
1987 6   
1988 3   
1989 3   
1990 1   
1991 6   
1992 10  
1993 8   
1994 9   
1995 4   
1996 5   
1997 6   
1998 3   
1999 2   
2000 7   
2001 10  
2002 6   
2003 3   
2004 6   
2005 9   
2006 10  
2007 1   
2008 1   
2009 8   
2010 6   
2011 2   
2012 9   
2013 10  
2014 10  
2015 5   
2016 5   
2017 2   
2018 9   
2019 1   
2020 2   
2021 7   
2022 5   
2023 7   
2024 9   
2025 6   
2026 8   
2027 9   
2028 10  
2029 2   
2030 7   
2031 5   
2032 5   
2033 9   
2034 8   
2035 8   
2036 10  
2037 9   
2038 10  
2039 10  
2040 6   
2041 2   
2042 6   
2043 8   
2044 8   
2045 3   
2046 4   
2047 5   
2048 10  
2049 2   
2050 1   
2051 3   
2052 4   
2053 6   
2054 4   
2055 2   
2056 4   
2057 1   
2058 9   
2059 2   
2060 10  
2061 2   
2062 7   
2063 10  
2064 8   
2065 1   
2066 4   
2067 9   
2068 7   
2069 5   
2070 5   
2071 8   
2072 8   
2073 9   
2074 3   
2075 5   
2076 5   
2077 5   
2078 4   
2079 2   
2080 9   
2081 2   
2082 5   
2083 10  
2084 8   
2085 5   
2086 7   
2087 6   
2088 8   
2089 7   
2090 9   
2091 10  
2092 9   
2093 10  
2094 9   
2095 6   
2096 10  
2097 8   
2098 4   
2099 1   
2100 1   
2101 6   
2102 8   
2103 1   
2104 9   
2105 3   
2106 8   
2107 2   
2108 9   
2109 4   
2110 8   
2111 6   
2112 3   
2113 3   
2114 3   
2115 5   
2116 9   
2117 2   
2118 5   
2119 10  
2120 10  
2121 7   
2122 6   
2123 7   
2124 7   
2125 7   
2126 6   
2127 6   
2128 10  
2129 2   
2130 2   
2131 3   
2132 4   
2133 7   
2134 5   
2135 8   
2136 6   
2137 7   
2138 5   
2139 5   
2140 1   
2141 8   
2142 9   
2143 9   
2144 8   
2145 3   
2146 8   
2147 7   
2148 8   
2149 4   
2150 2   
2151 4   
2152 10  
2153 7   
2154 2   
2155 1   
2156 4   
2157 5   
2158 4   
2159 8   
2160 5   
2161 10  
2162 4   
2163 9   
2164 4   
2165 9   
2166 10  
2167 3   
2168 10  
2169 3   
2170 9   
2171 6   
2172 9   
2173 3   
2174 2   
2175 8   
2176 7   
2177 2   
2178 2   
2179 9   
2180 10  
2181 3   
2182 8   
2183 4   
2184 2   
2185 3   
2186 7   
2187 1   
2188 10  
2189 3   
2190 8   
2191 5   
2192 2   
2193 4   
2194 3   
2195 6   
2196 8   
2197 6   
2198 2   
2199 2   
2200 4   
2201 1   
2202 7   
2203 8   
2204 9   
2205 4   
2206 6   
2207 4   
2208 1   
2209 4   
2210 3   
2211 1   
2212 2   
2213 1   
2214 2   
2215 3   
2216 5   
2217 4   
2218 9   
2219 9   
2220 1   
2221 3   
2222 6   
2223 8   
2224 9   
2225 3   
2226 9   
2227 9   
2228 10  
2229 3   
2230 2   
2231 9   
2232 10  
2233 7   
2234 10  
2235 3   
2236 5   
2237 4   
2238 8   
2239 7   
2240 2   
2241 4   
2242 3   
2243 10  
2244 9   
2245 9   
2246 4   
2247 2   
2248 5   
2249 8   
2250 7   
2251 1   
2252 8   
2253 9   
2254 8   
2255 3   
2256 8   
2257 7   
2258 7   
2259 7   
2260 6   
2261 4   
2262 2   
2263 7   
2264 8   
2265 8   
2266 10  
2267 3   
2268 3   
2269 7   
2270 8   
2271 4   
2272 8   
2273 7   
2274 6   
2275 5   
2276 3   
2277 10  
2278 1   
2279 9   
2280 8   
2281 3   
2282 4   
2283 8   
2284 3   
2285 8   
2286 4   
2287 3   
2288 1   
2289 7   
2290 10  
2291 5   
2292 6   
2293 9   
2294 9   
2295 10  
2296 10  
2297 3   
2298 6   
2299 7   
2300 4   
2301 4   
2302 8   
2303 9   
2304 3   
2305 10  
2306 7   
2307 6   
2308 10  
2309 4   
2310 1   
2311 2   
2312 10  
2313 7   
2314 8   
2315 9   
2316 9   
2317 5   
2318 5   
2319 5   
2320 8   
2321 7   
2322 9   
2323 6   
2324 3   
2325 5   
2326 6   
2327 9   
2328 3   
2329 1   
2330 2   
2331 10  
2332 4   
2333 3   
2334 3   
2335 10  
2336 3   
2337 3   
2338 5   
2339 8   
2340 6   
2341 5   
2342 7   
2343 10  
2344 9   
2345 9   
2346 2   
2347 3   
2348 9   
2349 10  
2350 3   
2351 8   
2352 3   
2353 6   
2354 9   
2355 3   
2356 4   
2357 6   
2358 7   
2359 2   
2360 1   
2361 9   
2362 5   
2363 7   
2364 8   
2365 8   
2366 8   
2367 1   
2368 2   
2369 10  
2370 5   
2371 7   
2372 4   
2373 6   
2374 3   
2375 6   
2376 7   
2377 3   
2378 7   
2379 3   
2380 5   
2381 7   
2382 6   
2383 5   
2384 4   
2385 9   
2386 6   
2387 3   
2388 8   
2389 5   
2390 6   
2391 7   
2392 5   
2393 8   
2394 7   
2395 2   
2396 6   
2397 8   
2398 10  
2399 6   
2400 9   
2401 4   
2402 10  
2403 2   
2404 2   
2405 8   
2406 10  
2407 5   
2408 2   
2409 5   
2410 10  
2411 6   
2412 10  
2413 6   
2414 6   
2415 10  
2416 10  
2417 2   
2418 3   
2419 8   
2420 7   
2421 3   
2422 1   
2423 3   
2424 5   
2425 1   
2426 2   
2427 8   
2428 9   
2429 3   
2430 2   
2431 2   
2432 10  
2433 9   
2434 3   
2435 6   
2436 5   
2437 5   
2438 2   
2439 8   
2440 1   
2441 7   
2442 1   
2443 1   
2444 5   
2445 6   
2446 3   
2447 9   
2448 6   
2449 10  
2450 4   
2451 6   
2452 2   
2453 9   
2454 8   
2455 1   
2456 3   
2457 10  
2458 10  
2459 2   
2460 8   
2461 3   
2462 1   
2463 10  
2464 9   
2465 7   
2466 10  
2467 1   
2468 3   
2469 7   
2470 7   
2471 6   
2472 7   
2473 10  
2474 9   
2475 9   
2476 6   
2477 4   
2478 7   
2479 10  
2480 5   
2481 2   
2482 3   
2483 7   
2484 7   
2485 6   
2486 1   
2487 10  
2488 1   
2489 9   
2490 6   
2491 1   
2492 4   
2493 8   
2494 2   
2495 4   
2496 8   
2497 7   
2498 5   
2499 2   
2500 4   
2501 4   
2502 6   
2503 7   
2504 7   
2505 8   
2506 10  
2507 9   
2508 5   
2509 2   
2510 8   
2511 3   
2512 4   
2513 3   
2514 6   
2515 10  
2516 2   
2517 6   
2518 4   
2519 3   
2520 3   
2521 8   
2522 9   
2523 5   
2524 6   
2525 2   
2526 5   
2527 1   
2528 7   
2529 2   
2530 1   
2531 1   
2532 10  
2533 7   
2534 4   
2535 8   
2536 10  
2537 8   
2538 7   
2539 1   
2540 3   
2541 10  
2542 9   
2543 9   
2544 9   
2545 10  
2546 6   
2547 5   
2548 3   
2549 8   
2550 8   
2551 8   
2552 9   
2553 4   
2554 10  
2555 9   
2556 3   
2557 4   
2558 2   
2559 7   
2560 8   
2561 2   
2562 1   
2563 1   
2564 2   
2565 1   
2566 1   
2567 6   
2568 5   
2569 10  
2570 3   
2571 9   
2572 7   
2573 3   
2574 9   
2575 3   
2576 5   
2577 2   
2578 2   
2579 7   
2580 2   
2581 8   
2582 6   
2583 4   
2584 6   
2585 5   
2586 4   
2587 7   
2588 6   
2589 2   
2590 8   
2591 7   
2592 5   
2593 4   
2594 4   
2595 1   
2596 3   
2597 3   
2598 2   
2599 4   
2600 8   
2601 10  
2602 7   
2603 3   
2604 10  
2605 1   
2606 3   
2607 1   
2608 7   
2609 8   
2610 9   
2611 1   
2612 3   
2613 3   
2614 2   
2615 7   
2616 9   
2617 2   
2618 6   
2619 3   
2620 8   
2621 2   
2622 8   
2623 5   
2624 2   
2625 3   
2626 9   
2627 8   
2628 2   
2629 1   
2630 1   
2631 6   
2632 3   
2633 9   
2634 1   
2635 4   
2636 6   
2637 2   
2638 6   
2639 3   
2640 2   
2641 3   
2642 6   
2643 3   
2644 10  
2645 9   
2646 4   
2647 3   
2648 9   
2649 4   
2650 3   
2651 4   
2652 6   
2653 5   
2654 4   
2655 5   
2656 7   
2657 3   
2658 8   
2659 10  
2660 1   
2661 6   
2662 5   
2663 4   
2664 1   
2665 9   
2666 2   
2667 2   
2668 8   
2669 10  
2670 10  
2671 6   
2672 6   
2673 10  
2674 6   
2675 2   
2676 1   
2677 8   
2678 5   
2679 5   
2680 4   
2681 3   
2682 4   
2683 4   
2684 9   
2685 2   
2686 6   
2687 2   
2688 4   
2689 6   
2690 3   
2691 9   
2692 2   
2693 1   
2694 10  
2695 7   
2696 6   
2697 7   
2698 3   
2699 10  
2700 10  
2701 4   
2702 8   
2703 4   
2704 6   
2705 7   
2706 8   
2707 4   
2708 7   
2709 10  
2710 5   
2711 6   
2712 1   
2713 5   
2714 10  
2715 6   
2716 3   
2717 3   
2718 7   
2719 3   
2720 3   
2721 9   
2722 7   
2723 3   
2724 1   
2725 4   
2726 2   
2727 10  
2728 10  
2729 3   
2730 6   
2731 4   
2732 9   
2733 3   
2734 9   
2735 1   
2736 1   
2737 1   
2738 2   
2739 3   
2740 1   
2741 8   
2742 7   
2743 9   
2744 5   
2745 7   
2746 3   
2747 4   
2748 1   
2749 8   
2750 7   
2751 10  
2752 5   
2753 4   
2754 7   
2755 7   
2756 5   
2757 2   
2758 1   
2759 8   
2760 1   
2761 9   
2762 4   
2763 9   
2764 6   
2765 5   
2766 7   
2767 6   
2768 9   
2769 1   
2770 4   
2771 10  
2772 9   
2773 4   
2774 7   
2775 8   
2776 8   
2777 9   
2778 8   
2779 6   
2780 8   
2781 7   
2782 10  
2783 3   
2784 10  
2785 5   
2786 4   
2787 6   
2788 7   
2789 9   
2790 1   
2791 1   
2792 1   
2793 9   
2794 3   
2795 5   
2796 10  
2797 4   
2798 8   
2799 5   
2800 6   
2801 10  
2802 9   
2803 7   
2804 6   
2805 4   
2806 6   
2807 3   
2808 4   
2809 1   
2810 9   
2811 10  
2812 10  
2813 6   
2814 7   
2815 6   
2816 9   
2817 9   
2818 4   
2819 6   
2820 7   
2821 10  
2822 10  
2823 3   
2824 5   
2825 10  
2826 4   
2827 1   
2828 5   
2829 1   
2830 5   
2831 3   
2832 1   
2833 4   
2834 8   
2835 2   
2836 1   
2837 2   
2838 7   
2839 9   
2840 6   
2841 10  
2842 1   
2843 4   
2844 7   
2845 8   
2846 10  
2847 2   
2848 7   
2849 10  
2850 4   
2851 5   
2852 10  
2853 3   
2854 1   
2855 4   
2856 1   
2857 2   
2858 10  
2859 10  
2860 9   
2861 9   
2862 1   
2863 4   
2864 1   
2865 1   
2866 2   
2867 8   
2868 6   
2869 10  
2870 6   
2871 1   
2872 7   
2873 7   
2874 3   
2875 1   
2876 6   
2877 6   
2878 4   
2879 2   
2880 4   
2881 5   
2882 1   
2883 7   
2884 4   
2885 5   
2886 10  
2887 10  
2888 4   
2889 1   
2890 1   
2891 9   
2892 6   
2893 1   
2894 2   
2895 10  
2896 4   
2897 1   
2898 5   
2899 5   
2900 3   
2901 10  
2902 8   
2903 4   
2904 6   
2905 10  
2906 5   
2907 4   
2908 9   
2909 5   
2910 6   
2911 3   
2912 10  
2913 3   
2914 8   
2915 1   
2916 3   
2917 8   
2918 8   
2919 2   
2920 5   
2921 7   
2922 7   
2923 7   
2924 8   
2925 3   
2926 9   
2927 7   
2928 9   
2929 1   
2930 7   
2931 6   
2932 8   
2933 2   
2934 7   
2935 6   
2936 6   
2937 8   
2938 6   
2939 8   
2940 2   
2941 5   
2942 8   
2943 7   
2944 9   
2945 9   
2946 1   
2947 7   
2948 5   
2949 4   
2950 8   
2951 3   
2952 3   
2953 8   
2954 1   
2955 8   
2956 2   
2957 8   
2958 3   
2959 6   
2960 5   
2961 9   
2962 6   
2963 10  
2964 8   
2965 3   
2966 10  
2967 8   
2968 8   
2969 6   
2970 7   
2971 9   
2972 7   
2973 5   
2974 3   
2975 2   
2976 9   
2977 2   
2978 2   
2979 1   
2980 8   
2981 9   
2982 1   
2983 2   
2984 6   
2985 8   
2986 7   
2987 3   
2988 8   
2989 9   
2990 2   
2991 1   
2992 6   
2993 5   
2994 2   
2995 7   
2996 1   
2997 5   
2998 4   
2999 8   
3000 6   
3001 7   
3002 3   
3003 6   
3004 1   
3005 9   
3006 1   
3007 5   
3008 1   
3009 7   
3010 9   
3011 1   
3012 3   
3013 4   
3014 2   
3015 10  
3016 7   
3017 4   
3018 8   
3019 3   
3020 5   
3021 6   
3022 5   
3023 4   
3024 9   
3025 7   
3026 9   
3027 6   
3028 9   
3029 9   
3030 10  
3031 2   
3032 10  
3033 9   
3034 10  
3035 10  
3036 3   
3037 3   
3038 10  
3039 10  
3040 4   
3041 3   
3042 5   
3043 3   
3044 6   
3045 6   
3046 4   
3047 2   
3048 3   
3049 4   
3050 1   
3051 3   
3052 6   
3053 1   
3054 7   
3055 3   
3056 5   
3057 2   
3058 5   
3059 6   
3060 4   
3061 6   
3062 1   
3063 4   
3064 10  
3065 2   
3066 1   
3067 7   
3068 5   
3069 3   
3070 6   
3071 5   
3072 9   
3073 6   
3074 4   
3075 4   
3076 7   
3077 8   
3078 8   
3079 5   
3080 8   
3081 3   
3082 7   
3083 1   
3084 7   
3085 3   
3086 3   
3087 6   
3088 8   
3089 3   
3090 6   
3091 3   
3092 3   
3093 6   
3094 9   
3095 5   
3096 1   
3097 9   
3098 3   
3099 10  
3100 3   
3101 3   
3102 9   
3103 3   
3104 4   
3105 3   
3106 9   
3107 8   
3108 7   
3109 8   
3110 3   
3111 3   
3112 4   
3113 5   
3114 6   
3115 3   
3116 6   
3117 2   
3118 2   
3119 4   
3120 4   
3121 7   
3122 6   
3123 8   
3124 1   
3125 10  
3126 5   
3127 10  
3128 8   
3129 7   
3130 10  
3131 1   
3132 7   
3133 2   
3134 3   
3135 4   
3136 2   
3137 6   
3138 2   
3139 6   
3140 4   
3141 1   
3142 5   
3143 9   
3144 7   
3145 2   
3146 9   
3147 9   
3148 9   
3149 10  
3150 3   
3151 9   
3152 1   
3153 7   
3154 10  
3155 9   
3156 9   
3157 3   
3158 3   
3159 7   
3160 10  
3161 3   
3162 4   
3163 7   
3164 9   
3165 2   
3166 1   
3167 7   
3168 3   
3169 8   
3170 4   
3171 4   
3172 4   
3173 5   
3174 2   
3175 9   
3176 5   
3177 9   
3178 5   
3179 7   
3180 9   
3181 3   
3182 9   
3183 9   
3184 5   
3185 10  
3186 8   
3187 6   
3188 9   
3189 8   
3190 2   
3191 5   
3192 8   
3193 2   
3194 10  
3195 7   
3196 4   
3197 6   
3198 6   
3199 7   
3200 8   
3201 1   
3202 1   
3203 6   
3204 8   
3205 7   
3206 9   
3207 5   
3208 5   
3209 4   
3210 9   
3211 8   
3212 3   
3213 8   
3214 6   
3215 3   
3216 10  
3217 9   
3218 8   
3219 8   
3220 3   
3221 10  
3222 8   
3223 4   
3224 7   
3225 6   
3226 10  
3227 9   
3228 6   
3229 5   
3230 9   
3231 9   
3232 10  
3233 10  
3234 2   
3235 7   
3236 8   
3237 1   
3238 8   
3239 1   
3240 10  
3241 7   
3242 10  
3243 6   
3244 8   
3245 1   
3246 4   
3247 9   
3248 1   
3249 8   
3250 1   
3251 8   
3252 6   
3253 7   
3254 9   
3255 2   
3256 3   
3257 3   
3258 4   
3259 4   
3260 6   
3261 8   
3262 5   
3263 8   
3264 5   
3265 5   
3266 1   
3267 10  
3268 3   
3269 1   
3270 2   
3271 7   
3272 1   
3273 8   
3274 10  
3275 9   
3276 8   
3277 1   
3278 10  
3279 3   
3280 9   
3281 2   
3282 4   
3283 3   
3284 9   
3285 8   
3286 10  
3287 9   
3288 4   
3289 4   
3290 8   
3291 1   
3292 6   
3293 6   
3294 8   
3295 9   
3296 1   
3297 5   
3298 5   
3299 9   
3300 4   
3301 8   
3302 10  
3303 8   
3304 1   
3305 2   
3306 6   
3307 6   
3308 9   
3309 9   
3310 9   
3311 8   
3312 3   
3313 10  
3314 10  
3315 1   
3316 4   
3317 5   
3318 5   
3319 10  
3320 9   
3321 6   
3322 9   
3323 7   
3324 3   
3325 3   
3326 2   
3327 8   
3328 2   
3329 10  
3330 7   
3331 6   
3332 8   
3333 4   
3334 5   
3335 1   
3336 4   
3337 6   
3338 2   
3339 5   
3340 10  
3341 7   
3342 10  
3343 5   
3344 10  
3345 5   
3346 3   
3347 3   
3348 6   
3349 5   
3350 5   
3351 9   
3352 3   
3353 10  
3354 1   
3355 6   
3356 4   
3357 6   
3358 9   
3359 10  
3360 1   
3361 5   
3362 3   
3363 2   
3364 7   
3365 9   
3366 9   
3367 1   
3368 6   
3369 6   
3370 8   
3371 8   
3372 8   
3373 6   
3374 3   
3375 9   
3376 8   
3377 10  
3378 8   
3379 4   
3380 3   
3381 4   
3382 10  
3383 10  
3384 4   
3385 10  
3386 2   
3387 3   
3388 3   
3389 1   
3390 4   
3391 1   
3392 8   
3393 5   
3394 4   
3395 7   
3396 7   
3397 9   
3398 4   
3399 9   
3400 7   
3401 10  
3402 4   
3403 7   
3404 3   
3405 5   
3406 4   
3407 3   
3408 6   
3409 9   
3410 3   
3411 7   
3412 10  
3413 10  
3414 9   
3415 7   
3416 1   
3417 5   
3418 1   
3419 9   
3420 6   
3421 4   
3422 7   
3423 3   
3424 5   
3425 2   
3426 8   
3427 9   
3428 6   
3429 5   
3430 6   
3431 8   
3432 8   
3433 4   
3434 5   
3435 2   
3436 4   
3437 2   
3438 10  
3439 9   
3440 8   
3441 6   
3442 2   
3443 4   
3444 9   
3445 3   
3446 7   
3447 8   
3448 6   
3449 2   
3450 10  
3451 9   
3452 4   
3453 5   
3454 5   
3455 2   
3456 7   
3457 10  
3458 2   
3459 6   
3460 5   
3461 5   
3462 6   
3463 4   
3464 4   
3465 7   
3466 10  
3467 6   
3468 10  
3469 8   
3470 1   
3471 6   
3472 6   
3473 7   
3474 3   
3475 8   
3476 3   
3477 6   
3478 3   
3479 5   
3480 10  
3481 8   
3482 9   
3483 1   
3484 2   
3485 3   
3486 10  
3487 3   
3488 2   
3489 4   
3490 1   
3491 9   
3492 6   
3493 2   
3494 10  
3495 6   
3496 10  
3497 3   
3498 4   
3499 7   
3500 5   
3501 4   
3502 1   
3503 4   
3504 4   
3505 4   
3506 10  
3507 3   
3508 8   
3509 7   
3510 8   
3511 2   
3512 4   
3513 2   
3514 10  
3515 7   
3516 4   
3517 1   
3518 3   
3519 5   
3520 5   
3521 7   
3522 5   
3523 1   
3524 8   
3525 2   
3526 9   
3527 1   
3528 9   
3529 8   
3530 6   
3531 3   
3532 10  
3533 5   
3534 4   
3535 8   
3536 7   
3537 7   
3538 8   
3539 1   
3540 2   
3541 9   
3542 2   
3543 8   
3544 2   
3545 4   
3546 7   
3547 7   
3548 7   
3549 4   
3550 1   
3551 10  
3552 9   
3553 1   
3554 8   
3555 7   
3556 8   
3557 1   
3558 2   
3559 4   
3560 3   
3561 3   
3562 5   
3563 3   
3564 2   
3565 5   
3566 8   
3567 3   
3568 1   
3569 2   
3570 5   
3571 1   
3572 6   
3573 8   
3574 7   
3575 3   
3576 10  
3577 2   
3578 9   
3579 8   
3580 9   
3581 7   
3582 2   
3583 8   
3584 4   
3585 5   
3586 4   
3587 9   
3588 2   
3589 6   
3590 2   
3591 6   
3592 10  
3593 4   
3594 4   
3595 9   
3596 8   
3597 8   
3598 7   
3599 10  
3600 9   
3601 5   
3602 7   
3603 9   
3604 7   
3605 9   
3606 6   
3607 7   
3608 5   
3609 2   
3610 10  
3611 8   
3612 8   
3613 9   
3614 10  
3615 3   
3616 1   
3617 8   
3618 3   
3619 8   
3620 7   
3621 3   
3622 6   
3623 10  
3624 7   
3625 1   
3626 10  
3627 9   
3628 8   
3629 6   
3630 6   
3631 4   
3632 4   
3633 3   
3634 4   
3635 7   
3636 7   
3637 10  
3638 9   
3639 10  
3640 4   
3641 2   
3642 9   
3643 3   
3644 8   
3645 2   
3646 3   
3647 5   
3648 1   
3649 4   
3650 2   
3651 1   
3652 7   
3653 7   
3654 7   
3655 3   
3656 3   
3657 2   
3658 2   
3659 4   
3660 8   
3661 4   
3662 6   
3663 2   
3664 7   
3665 1   
3666 7   
3667 4   
3668 4   
3669 5   
3670 10  
3671 9   
3672 2   
3673 2   
3674 5   
3675 10  
3676 6   
3677 8   
3678 1   
3679 9   
3680 10  
3681 4   
3682 2   
3683 10  
3684 8   
3685 5   
3686 5   
3687 2   
3688 1   
3689 7   
3690 8   
3691 1   
3692 9   
3693 8   
3694 4   
3695 1   
3696 10  
3697 2   
3698 2   
3699 10  
3700 2   
3701 1   
3702 4   
3703 3   
3704 3   
3705 1   
3706 9   
3707 7   
3708 3   
3709 7   
3710 2   
3711 1   
3712 10  
3713 8   
3714 1   
3715 10  
3716 3   
3717 4   
3718 7   
3719 1   
3720 8   
3721 5   
3722 4   
3723 1   
3724 8   
3725 9   
3726 1   
3727 6   
3728 3   
3729 10  
3730 7   
3731 3   
3732 6   
3733 3   
3734 6   
3735 6   
3736 8   
3737 4   
3738 10  
3739 1   
3740 8   
3741 4   
3742 1   
3743 8   
3744 1   
3745 3   
3746 1   
3747 10  
3748 2   
3749 9   
3750 8   
3751 1   
3752 1   
3753 2   
3754 4   
3755 5   
3756 9   
3757 7   
3758 5   
3759 1   
3760 5   
3761 4   
3762 1   
3763 6   
3764 9   
3765 4   
3766 6   
3767 8   
3768 8   
3769 8   
3770 9   
3771 6   
3772 8   
3773 10  
3774 1   
3775 7   
3776 3   
3777 9   
3778 3   
3779 2   
3780 5   
3781 5   
3782 4   
3783 2   
3784 6   
3785 7   
3786 5   
3787 7   
3788 5   
3789 3   
3790 2   
3791 8   
3792 5   
3793 1   
3794 7   
3795 3   
3796 5   
3797 9   
3798 7   
3799 10  
3800 6   
3801 5   
3802 6   
3803 1   
3804 9   
3805 4   
3806 10  
3807 6   
3808 10  
3809 4   
3810 8   
3811 7   
3812 8   
3813 4   
3814 4   
3815 3   
3816 5   
3817 6   
3818 9   
3819 10  
3820 2   
3821 3   
3822 8   
3823 10  
3824 10  
3825 4   
3826 9   
3827 6   
3828 2   
3829 6   
3830 8   
3831 10  
3832 1   
3833 2   
3834 3   
3835 2   
3836 6   
3837 9   
3838 2   
3839 10  
3840 4   
3841 2   
3842 9   
3843 2   
3844 9   
3845 4   
3846 2   
3847 9   
3848 4   
3849 7   
3850 8   
3851 1   
3852 4   
3853 8   
3854 4   
3855 7   
3856 7   
3857 9   
3858 8   
3859 3   
3860 7   
3861 4   
3862 9   
3863 2   
3864 5   
3865 2   
3866 10  
3867 9   
3868 5   
3869 2   
3870 5   
3871 4   
3872 3   
3873 5   
3874 4   
3875 9   
3876 4   
3877 8   
3878 10  
3879 7   
3880 10  
3881 9   
3882 8   
3883 7   
3884 5   
3885 10  
3886 7   
3887 10  
3888 9   
3889 8   
3890 3   
3891 5   
3892 6   
3893 7   
3894 7   
3895 6   
3896 2   
3897 5   
3898 8   
3899 6   
3900 5   
3901 10  
3902 3   
3903 1   
3904 10  
3905 3   
3906 2   
3907 7   
3908 4   
3909 5   
3910 8   
3911 3   
3912 9   
3913 5   
3914 7   
3915 9   
3916 9   
3917 9   
3918 6   
3919 1   
3920 8   
3921 6   
3922 6   
3923 10  
3924 4   
3925 2   
3926 5   
3927 5   
3928 7   
3929 4   
3930 2   
3931 2   
3932 1   
3933 1   
3934 2   
3935 4   
3936 1   
3937 8   
3938 1   
3939 5   
3940 8   
3941 4   
3942 2   
3943 7   
3944 7   
3945 4   
3946 4   
3947 5   
3948 8   
3949 7   
3950 5   
3951 5   
3952 1   
3953 9   
3954 7   
3955 6   
3956 5   
3957 8   
3958 3   
3959 10  
3960 5   
3961 6   
3962 9   
3963 2   
3964 10  
3965 4   
3966 8   
3967 10  
3968 6   
3969 4   
3970 1   
3971 3   
3972 4   
3973 4   
3974 7   
3975 9   
3976 9   
3977 9   
3978 7   
3979 3   
3980 4   
3981 2   
3982 9   
3983 5   
3984 10  
3985 10  
3986 5   
3987 6   
3988 8   
3989 9   
3990 8   
3991 8   
3992 6   
3993 6   
3994 4   
3995 4   
3996 6   
3997 4   
3998 2   
3999 6   
4000 9   
4001 3   
4002 1   
4003 5   
4004 5   
4005 1   
4006 4   
4007 8   
4008 5   
4009 6   
4010 9   
4011 1   
4012 6   
4013 1   
4014 9   
4015 1   
4016 10  
4017 2   
4018 5   
4019 3   
4020 1   
4021 10  
4022 4   
4023 3   
4024 6   
4025 4   
4026 9   
4027 7   
4028 8   
4029 5   
4030 6   
4031 6   
4032 8   
4033 1   
4034 8   
4035 8   
4036 9   
4037 7   
4038 6   
4039 2   
4040 4   
4041 8   
4042 6   
4043 4   
4044 2   
4045 7   
4046 4   
4047 4   
4048 2   
4049 5   
4050 4   
4051 5   
4052 2   
4053 8   
4054 5   
4055 6   
4056 2   
4057 10  
4058 2   
4059 8   
4060 6   
4061 1   
4062 4   
4063 9   
4064 10  
4065 4   
4066 8   
4067 7   
4068 2   
4069 10  
4070 4   
4071 7   
4072 4   
4073 1   
4074 2   
4075 9   
4076 1   
4077 6   
4078 3   
4079 6   
4080 8   
4081 10  
4082 2   
4083 10  
4084 8   
4085 7   
4086 6   
4087 3   
4088 6   
4089 10  
4090 2   
4091 7   
4092 6   
4093 6   
4094 10  
4095 6   
4096 10  
4097 6   
4098 3   
4099 2   
4100 10  
4101 4   
4102 9   
4103 5   
4104 9   
4105 10  
4106 3   
4107 2   
4108 3   
4109 7   
4110 7   
4111 10  
4112 6   
4113 2   
4114 2   
4115 9   
4116 6   
4117 3   
4118 2   
4119 4   
4120 3   
4121 10  
4122 10  
4123 5   
4124 2   
4125 9   
4126 9   
4127 7   
4128 5   
4129 3   
4130 9   
4131 1   
4132 4   
4133 4   
4134 5   
4135 9   
4136 8   
4137 10  
4138 1   
4139 10  
4140 1   
4141 4   
4142 2   
4143 1   
4144 8   
4145 9   
4146 5   
4147 6   
4148 5   
4149 1   
4150 8   
4151 8   
4152 3   
4153 9   
4154 10  
4155 10  
4156 10  
4157 3   
4158 5   
4159 4   
4160 8   
4161 4   
4162 10  
4163 5   
4164 7   
4165 8   
4166 2   
4167 8   
4168 5   
4169 6   
4170 5   
4171 9   
4172 1   
4173 9   
4174 5   
4175 5   
4176 10  
4177 4   
4178 6   
4179 1   
4180 7   
4181 6   
4182 1   
4183 7   
4184 10  
4185 7   
4186 10  
4187 10  
4188 2   
4189 9   
4190 6   
4191 7   
4192 2   
4193 8   
4194 1   
4195 6   
4196 8   
4197 5   
4198 5   
4199 2   
4200 10  
4201 7   
4202 5   
4203 3   
4204 9   
4205 10  
4206 9   
4207 8   
4208 5   
4209 1   
4210 4   
4211 8   
4212 7   
4213 4   
4214 5   
4215 10  
4216 1   
4217 7   
4218 5   
4219 9   
4220 5   
4221 6   
4222 10  
4223 10  
4224 7   
4225 8   
4226 5   
4227 10  
4228 1   
4229 1   
4230 4   
4231 9   
4232 5   
4233 1   
4234 5   
4235 4   
4236 4   
4237 4   
4238 2   
4239 6   
4240 8   
4241 4   
4242 1   
4243 9   
4244 10  
4245 2   
4246 7   
4247 6   
4248 4   
4249 6   
4250 6   
4251 4   
4252 9   
4253 8   
4254 2   
4255 7   
4256 9   
4257 9   
4258 1   
4259 8   
4260 1   
4261 9   
4262 8   
4263 9   
4264 2   
4265 6   
4266 2   
4267 5   
4268 2   
4269 9   
4270 8   
4271 10  
4272 6   
4273 5   
4274 8   
4275 4   
4276 6   
4277 5   
4278 6   
4279 4   
4280 10  
4281 1   
4282 7   
4283 1   
4284 1   
4285 1   
4286 7   
4287 3   
4288 9   
4289 5   
4290 4   
4291 9   
4292 3   
4293 3   
4294 10  
4295 10  
4296 9   
4297 4   
4298 2   
4299 2   
4300 9   
4301 1   
4302 8   
4303 1   
4304 8   
4305 6   
4306 10  
4307 8   
4308 6   
4309 6   
4310 2   
4311 1   
4312 2   
4313 4   
4314 2   
4315 3   
4316 5   
4317 7   
4318 2   
4319 5   
4320 8   
4321 6   
4322 10  
4323 6   
4324 7   
4325 8   
4326 5   
4327 7   
4328 6   
4329 3   
4330 7   
4331 4   
4332 3   
4333 3   
4334 1   
4335 7   
4336 10  
4337 10  
4338 10  
4339 2   
4340 10  
4341 2   
4342 1   
4343 9   
4344 4   
4345 6   
4346 5   
4347 1   
4348 5   
4349 3   
4350 9   
4351 6   
4352 1   
4353 8   
4354 7   
4355 7   
4356 4   
4357 2   
4358 10  
4359 10  
4360 1   
4361 4   
4362 2   
4363 10  
4364 6   
4365 10  
4366 10  
4367 10  
4368 9   
4369 5   
4370 8   
4371 6   
4372 1   
4373 3   
4374 3   
4375 6   
4376 3   
4377 2   
4378 1   
4379 5   
4380 1   
4381 3   
4382 4   
4383 4   
4384 1   
4385 2   
4386 9   
4387 3   
4388 8   
4389 2   
4390 9   
4391 9   
4392 8   
4393 5   
4394 3   
4395 3   
4396 10  
4397 4   
4398 10  
4399 2   
4400 10  
4401 1   
4402 10  
4403 5   
4404 4   
4405 7   
4406 7   
4407 8   
4408 6   
4409 10  
4410 7   
4411 1   
4412 5   
4413 8   
4414 3   
4415 6   
4416 4   
4417 5   
4418 6   
4419 4   
4420 4   
4421 1   
4422 6   
4423 6   
4424 4   
4425 5   
4426 1   
4427 4   
4428 3   
4429 7   
4430 2   
4431 7   
4432 5   
4433 1   
4434 6   
4435 1   
4436 6   
4437 1   
4438 5   
4439 9   
4440 1   
4441 10  
4442 2   
4443 8   
4444 3   
4445 6   
4446 10  
4447 8   
4448 10  
4449 5   
4450 3   
4451 10  
4452 2   
4453 6   
4454 7   
4455 10  
4456 3   
4457 1   
4458 3   
4459 6   
4460 2   
4461 8   
4462 1   
4463 5   
4464 5   
4465 2   
4466 2   
4467 1   
4468 9   
4469 1   
4470 4   
4471 4   
4472 2   
4473 8   
4474 5   
4475 3   
4476 7   
4477 1   
4478 8   
4479 4   
4480 9   
4481 8   
4482 3   
4483 7   
4484 5   
4485 5   
4486 7   
4487 8   
4488 6   
4489 2   
4490 6   
4491 5   
4492 10  
4493 1   
4494 3   
4495 3   
4496 7   
4497 6   
4498 2   
4499 4   
4500 7   
4501 8   
4502 5   
4503 1   
4504 4   
4505 8   
4506 8   
4507 8   
4508 2   
4509 6   
4510 7   
4511 1   
4512 6   
4513 9   
4514 7   
4515 6   
4516 7   
4517 10  
4518 3   
4519 9   
4520 1   
4521 7   
4522 8   
4523 10  
4524 5   
4525 7   
4526 9   
4527 2   
4528 9   
4529 3   
4530 4   
4531 10  
4532 2   
4533 9   
4534 9   
4535 2   
4536 1   
4537 7   
4538 7   
4539 10  
4540 6   
4541 4   
4542 6   
4543 3   
4544 7   
4545 4   
4546 4   
4547 8   
4548 5   
4549 2   
4550 10  
4551 6   
4552 8   
4553 7   
4554 10  
4555 1   
4556 5   
4557 5   
4558 6   
4559 7   
4560 10  
4561 3   
4562 3   
4563 8   
4564 7   
4565 4   
4566 5   
4567 8   
4568 5   
4569 9   
4570 2   
4571 2   
4572 5   
4573 5   
4574 1   
4575 5   
4576 8   
4577 5   
4578 8   
4579 6   
4580 9   
4581 4   
4582 9   
4583 9   
4584 7   
4585 2   
4586 3   
4587 2   
4588 8   
4589 2   
4590 8   
4591 6   
4592 10  
4593 6   
4594 4   
4595 8   
4596 9   
4597 1   
4598 10  
4599 6   
4600 3   
4601 3   
4602 8   
4603 5   
4604 9   
4605 9   
4606 3   
4607 7   
4608 8   
4609 9   
4610 4   
4611 10  
4612 6   
4613 9   
4614 6   
4615 8   
4616 1   
4617 7   
4618 7   
4619 1   
4620 4   
4621 5   
4622 7   
4623 10  
4624 5   
4625 1   
4626 10  
4627 10  
4628 9   
4629 5   
4630 2   
4631 1   
4632 4   
4633 3   
4634 8   
4635 3   
4636 5   
4637 1   
4638 10  
4639 5   
4640 9   
4641 9   
4642 2   
4643 10  
4644 7   
4645 5   
4646 1   
4647 1   
4648 6   
4649 7   
4650 8   
4651 8   
4652 7   
4653 8   
4654 6   
4655 6   
4656 8   
4657 9   
4658 4   
4659 8   
4660 9   
4661 10  
4662 2   
4663 4   
4664 7   
4665 7   
4666 9   
4667 3   
4668 9   
4669 7   
4670 7   
4671 6   
4672 4   
4673 10  
4674 1   
4675 2   
4676 6   
4677 3   
4678 9   
4679 8   
4680 1   
4681 3   
4682 9   
4683 3   
4684 5   
4685 8   
4686 9   
4687 10  
4688 3   
4689 4   
4690 4   
4691 3   
4692 1   
4693 6   
4694 2   
4695 2   
4696 7   
4697 7   
4698 8   
4699 1   
4700 4   
4701 9   
4702 7   
4703 5   
4704 8   
4705 2   
4706 10  
4707 8   
4708 1   
4709 9   
4710 1   
4711 7   
4712 8   
4713 6   
4714 7   
4715 3   
4716 6   
4717 2   
4718 2   
4719 7   
4720 9   
4721 6   
4722 3   
4723 1   
4724 4   
4725 3   
4726 3   
4727 5   
4728 4   
4729 6   
4730 6   
4731 4   
4732 2   
4733 2   
4734 10  
4735 3   
4736 10  
4737 10  
4738 8   
4739 3   
4740 10  
4741 3   
4742 9   
4743 5   
4744 6   
4745 4   
4746 3   
4747 6   
4748 10  
4749 5   
4750 10  
4751 6   
4752 9   
4753 5   
4754 8   
4755 7   
4756 5   
4757 6   
4758 4   
4759 4   
4760 1   
4761 6   
4762 1   
4763 10  
4764 1   
4765 9   
4766 2   
4767 9   
4768 3   
4769 4   
4770 7   
4771 7   
4772 8   
4773 1   
4774 7   
4775 10  
4776 5   
4777 9   
4778 6   
4779 7   
4780 9   
4781 4   
4782 3   
4783 10  
4784 6   
4785 3   
4786 1   
4787 1   
4788 5   
4789 5   
4790 8   
4791 5   
4792 2   
4793 4   
4794 4   
4795 9   
4796 1   
4797 6   
4798 10  
4799 6   
4800 5   
4801 3   
4802 9   
4803 3   
4804 1   
4805 5   
4806 4   
4807 3   
4808 2   
4809 6   
4810 4   
4811 2   
4812 2   
4813 7   
4814 8   
4815 3   
4816 3   
4817 3   
4818 7   
4819 5   
4820 8   
4821 5   
4822 9   
4823 4   
4824 9   
4825 5   
4826 3   
4827 2   
4828 9   
4829 2   
4830 4   
4831 2   
4832 9   
4833 7   
4834 10  
4835 10  
4836 3   
4837 5   
4838 6   
4839 3   
4840 2   
4841 3   
4842 5   
4843 6   
4844 8   
4845 7   
4846 8   
4847 7   
4848 9   
4849 5   
4850 5   
4851 5   
4852 7   
4853 5   
4854 7   
4855 9   
4856 4   
4857 8   
4858 8   
4859 9   
4860 6   
4861 6   
4862 8   
4863 5   
4864 10  
4865 2   
4866 4   
4867 1   
4868 7   
4869 2   
4870 10  
4871 9   
4872 5   
4873 9   
4874 10  
4875 3   
4876 4   
4877 3   
4878 8   
4879 4   
4880 1   
4881 3   
4882 6   
4883 1   
4884 8   
4885 4   
4886 3   
4887 3   
4888 2   
4889 1   
4890 6   
4891 3   
4892 5   
4893 4   
4894 8   
4895 9   
4896 2   
4897 4   
4898 10  
4899 5   
4900 6   
4901 4   
4902 10  
4903 9   
4904 10  
4905 1   
4906 3   
4907 4   
4908 6   
4909 3   
4910 8   
4911 9   
4912 2   
4913 5   
4914 7   
4915 4   
4916 1   
4917 6   
4918 6   
4919 10  
4920 9   
4921 7   
4922 3   
4923 3   
4924 2   
4925 8   
4926 2   
4927 1   
4928 5   
4929 3   
4930 7   
4931 3   
4932 8   
4933 1   
4934 10  
4935 5   
4936 8   
4937 7   
4938 6   
4939 1   
4940 3   
4941 4   
4942 1   
4943 3   
4944 4   
4945 9   
4946 5   
4947 6   
4948 5   
4949 8   
4950 8   
4951 5   
4952 10  
4953 6   
4954 6   
4955 9   
4956 1   
4957 3   
4958 9   
4959 9   
4960 10  
4961 6   
4962 7   
4963 3   
4964 8   
4965 4   
4966 3   
4967 10  
4968 3   
4969 3   
4970 10  
4971 6   
4972 8   
4973 5   
4974 3   
4975 4   
4976 3   
4977 8   
4978 10  
4979 1   
4980 10  
4981 2   
4982 4   
4983 9   
4984 5   
4985 7   
4986 3   
4987 6   
4988 2   
4989 6   
4990 2   
4991 4   
4992 10  
4993 9   
4994 2   
4995 3   
4996 2   
4997 9   
4998 2   
4999 3   
5000 6   
5001 5   
5002 4   
5003 3   
5004 2   
5005 10  
5006 2   
5007 3   
5008 10  
5009 2   
5010 9   
5011 5   
5012 10  
5013 3   
5014 3   
5015 9   
5016 7   
5017 2   
5018 5   
5019 8   
5020 3   
5021 9   
5022 3   
5023 9   
5024 10  
5025 2   
5026 1   
5027 6   
5028 7   
5029 10  
5030 6   
5031 5   
5032 9   
5033 6   
5034 8   
5035 3   
5036 3   
5037 4   
5038 8   
5039 2   
5040 7   
5041 1   
5042 8   
5043 3   
5044 8   
5045 7   
5046 6   
5047 1   
5048 4   
5049 10  
5050 8   
5051 4   
5052 9   
5053 1   
5054 1   
5055 3   
5056 6   
5057 6   
5058 4   
5059 9   
5060 9   
5061 10  
5062 7   
5063 5   
5064 10  
5065 7   
5066 1   
5067 4   
5068 5   
5069 9   
5070 7   
5071 10  
5072 4   
5073 10  
5074 3   
5075 4   
5076 8   
5077 6   
5078 7   
5079 3   
5080 5   
5081 6   
5082 7   
5083 5   
5084 4   
5085 9   
5086 5   
5087 10  
5088 10  
5089 4   
5090 4   
5091 10  
5092 1   
5093 7   
5094 3   
5095 10  
5096 8   
5097 4   
5098 10  
5099 6   
5100 8   
5101 8   
5102 7   
5103 1   
5104 10  
5105 2   
5106 7   
5107 7   
5108 4   
5109 6   
5110 2   
5111 4   
5112 2   
5113 9   
5114 9   
5115 5   
5116 8   
5117 8   
5118 7   
5119 7   
5120 7   
5121 8   
5122 10  
5123 10  
5124 9   
5125 2   
5126 2   
5127 5   
5128 2   
5129 7   
5130 3   
5131 3   
5132 7   
5133 4   
5134 5   
5135 4   
5136 1   
5137 4   
5138 6   
5139 1   
5140 3   
5141 6   
5142 4   
5143 3   
5144 7   
5145 1   
5146 1   
5147 5   
5148 7   
5149 5   
5150 3   
5151 5   
5152 1   
5153 1   
5154 10  
5155 10  
5156 8   
5157 7   
5158 2   
5159 9   
5160 2   
5161 2   
5162 3   
5163 3   
5164 10  
5165 9   
5166 2   
5167 6   
5168 5   
5169 3   
5170 6   
5171 6   
5172 9   
5173 3   
5174 3   
5175 1   
5176 10  
5177 10  
5178 7   
5179 4   
5180 8   
5181 1   
5182 3   
5183 9   
5184 8   
5185 3   
5186 5   
5187 7   
5188 3   
5189 3   
5190 1   
5191 7   
5192 8   
5193 6   
5194 1   
5195 4   
5196 3   
5197 10  
5198 2   
5199 1   
5200 1   
5201 2   
5202 8   
5203 7   
5204 4   
5205 5   
5206 8   
5207 10  
5208 7   
5209 9   
5210 7   
5211 5   
5212 4   
5213 1   
5214 7   
5215 5   
5216 2   
5217 2   
5218 7   
5219 6   
5220 7   
5221 3   
5222 1   
5223 10  
5224 4   
5225 2   
5226 8   
5227 1   
5228 6   
5229 6   
5230 8   
5231 7   
5232 3   
5233 5   
5234 2   
5235 7   
5236 5   
5237 2   
5238 3   
5239 2   
5240 9   
5241 2   
5242 1   
5243 6   
5244 4   
5245 2   
5246 1   
5247 9   
5248 7   
5249 9   
5250 7   
5251 8   
5252 6   
5253 5   
5254 8   
5255 3   
5256 9   
5257 5   
5258 5   
5259 7   
5260 8   
5261 8   
5262 8   
5263 8   
5264 10  
5265 1   
5266 7   
5267 6   
5268 9   
5269 8   
5270 6   
5271 4   
5272 9   
5273 6   
5274 5   
5275 1   
5276 6   
5277 6   
5278 6   
5279 1   
5280 5   
5281 6   
5282 10  
5283 7   
5284 1   
5285 9   
5286 5   
5287 4   
5288 10  
5289 5   
5290 4   
5291 6   
5292 2   
5293 7   
5294 4   
5295 9   
5296 4   
5297 1   
5298 4   
5299 2   
5300 2   
5301 1   
5302 10  
5303 1   
5304 5   
5305 5   
5306 2   
5307 5   
5308 6   
5309 9   
5310 10  
5311 6   
5312 8   
5313 4   
5314 10  
5315 1   
5316 1   
5317 3   
5318 3   
5319 7   
5320 9   
5321 4   
5322 8   
5323 9   
5324 9   
5325 1   
5326 7   
5327 4   
5328 7   
5329 9   
5330 4   
5331 3   
5332 6   
5333 5   
5334 2   
5335 9   
5336 10  
5337 7   
5338 7   
5339 4   
5340 8   
5341 3   
5342 3   
5343 9   
5344 6   
5345 9   
5346 10  
5347 6   
5348 8   
5349 9   
5350 5   
5351 1   
5352 6   
5353 8   
5354 1   
5355 8   
5356 3   
5357 7   
5358 8   
5359 5   
5360 2   
5361 3   
5362 6   
5363 5   
5364 9   
5365 7   
5366 8   
5367 9   
5368 1   
5369 9   
5370 10  
5371 10  
5372 6   
5373 3   
5374 6   
5375 5   
5376 2   
5377 1   
5378 5   
5379 4   
5380 5   
5381 1   
5382 7   
5383 7   
5384 6   
5385 2   
5386 10  
5387 9   
5388 5   
5389 10  
5390 1   
5391 9   
5392 2   
5393 5   
5394 9   
5395 6   
5396 5   
5397 3   
5398 1   
5399 8   
5400 1   
5401 3   
5402 8   
5403 4   
5404 5   
5405 8   
5406 3   
5407 10  
5408 4   
5409 10  
5410 3   
5411 6   
5412 1   
5413 4   
5414 5   
5415 10  
5416 4   
5417 4   
5418 2   
5419 5   
5420 4   
5421 9   
5422 4   
5423 2   
5424 7   
5425 1   
5426 2   
5427 9   
5428 10  
5429 8   
5430 2   
5431 8   
5432 3   
5433 6   
5434 7   
5435 5   
5436 1   
5437 3   
5438 4   
5439 6   
5440 10  
5441 4   
5442 7   
5443 8   
5444 5   
5445 10  
5446 5   
5447 2   
5448 1   
5449 7   
5450 5   
5451 8   
5452 5   
5453 5   
5454 2   
5455 2   
5456 3   
5457 9   
5458 5   
5459 8   
5460 1   
5461 5   
5462 7   
5463 9   
5464 5   
5465 2   
5466 9   
5467 7   
5468 2   
5469 4   
5470 1   
5471 9   
5472 6   
5473 10  
5474 7   
5475 3   
5476 1   
5477 3   
5478 10  
5479 8   
5480 4   
5481 6   
5482 1   
5483 8   
5484 6   
5485 3   
5486 4   
5487 7   
5488 8   
5489 3   
5490 5   
5491 10  
5492 1   
5493 9   
5494 1   
5495 5   
5496 10  
5497 3   
5498 2   
5499 8   
5500 10  
5501 8   
5502 9   
5503 9   
5504 6   
5505 5   
5506 2   
5507 8   
5508 4   
5509 6   
5510 5   
5511 10  
5512 2   
5513 1   
5514 7   
5515 6   
5516 4   
5517 1   
5518 6   
5519 8   
5520 10  
5521 3   
5522 1   
5523 1   
5524 4   
5525 6   
5526 3   
5527 3   
5528 2   
5529 3   
5530 3   
5531 10  
5532 1   
5533 9   
5534 3   
5535 2   
5536 1   
5537 2   
5538 9   
5539 1   
5540 4   
5541 4   
5542 3   
5543 7   
5544 4   
5545 10  
5546 9   
5547 4   
5548 5   
5549 5   
5550 8   
5551 4   
5552 4   
5553 1   
5554 2   
5555 5   
5556 8   
5557 4   
5558 4   
5559 8   
5560 4   
5561 3   
5562 8   
5563 4   
5564 9   
5565 1   
5566 1   
5567 8   
5568 5   
5569 4   
5570 9   
5571 7   
5572 10  
5573 10  
5574 3   
5575 10  
5576 4   
5577 5   
5578 3   
5579 7   
5580 9   
5581 1   
5582 9   
5583 2   
5584 5   
5585 8   
5586 10  
5587 5   
5588 6   
5589 2   
5590 1   
5591 3   
5592 5   
5593 6   
5594 1   
5595 6   
5596 4   
5597 1   
5598 6   
5599 2   
5600 1   
5601 4   
5602 4   
5603 5   
5604 8   
5605 6   
5606 8   
5607 6   
5608 9   
5609 1   
5610 1   
5611 2   
5612 4   
5613 9   
5614 4   
5615 3   
5616 6   
5617 6   
5618 5   
5619 10  
5620 6   
5621 1   
5622 8   
5623 7   
5624 9   
5625 3   
5626 2   
5627 3   
5628 7   
5629 2   
5630 3   
5631 2   
5632 1   
5633 1   
5634 7   
5635 7   
5636 9   
5637 5   
5638 1   
5639 5   
5640 10  
5641 4   
5642 4   
5643 8   
5644 5   
5645 1   
5646 3   
5647 6   
5648 10  
5649 4   
5650 2   
5651 3   
5652 4   
5653 6   
5654 4   
5655 2   
5656 3   
5657 8   
5658 6   
5659 3   
5660 2   
5661 8   
5662 4   
5663 4   
5664 4   
5665 2   
5666 10  
5667 4   
5668 6   
5669 3   
5670 2   
5671 8   
5672 7   
5673 7   
5674 7   
5675 7   
5676 2   
5677 2   
5678 8   
5679 4   
5680 2   
5681 2   
5682 4   
5683 2   
5684 9   
5685 1   
5686 7   
5687 3   
5688 3   
5689 1   
5690 1   
5691 7   
5692 2   
5693 4   
5694 2   
5695 8   
5696 5   
5697 10  
5698 8   
5699 10  
5700 9   
5701 10  
5702 6   
5703 9   
5704 3   
5705 3   
5706 9   
5707 10  
5708 9   
5709 9   
5710 10  
5711 2   
5712 9   
5713 1   
5714 1   
5715 8   
5716 9   
5717 10  
5718 7   
5719 4   
5720 2   
5721 2   
5722 8   
5723 8   
5724 1   
5725 5   
5726 4   
5727 4   
5728 8   
5729 4   
5730 8   
5731 1   
5732 2   
5733 2   
5734 1   
5735 2   
5736 6   
5737 10  
5738 6   
5739 10  
5740 9   
5741 5   
5742 5   
5743 7   
5744 10  
5745 2   
5746 9   
5747 4   
5748 8   
5749 6   
5750 4   
5751 9   
5752 9   
5753 9   
5754 7   
5755 1   
5756 10  
5757 10  
5758 5   
5759 5   
5760 2   
5761 2   
5762 5   
5763 9   
5764 1   
5765 9   
5766 9   
5767 5   
5768 1   
5769 3   
5770 9   
5771 3   
5772 9   
5773 9   
5774 1   
5775 9   
5776 6   
5777 10  
5778 3   
5779 4   
5780 10  
5781 9   
5782 8   
5783 3   
5784 4   
5785 2   
5786 2   
5787 4   
5788 8   
5789 10  
5790 5   
5791 3   
5792 1   
5793 5   
5794 3   
5795 1   
5796 3   
5797 3   
5798 10  
5799 9   
5800 3   
5801 5   
5802 6   
5803 5   
5804 9   
5805 4   
5806 7   
5807 8   
5808 1   
5809 8   
5810 7   
5811 6   
5812 5   
5813 6   
5814 3   
5815 7   
5816 7   
5817 3   
5818 5   
5819 4   
5820 10  
5821 3   
5822 8   
5823 4   
5824 4   
5825 8   
5826 4   
5827 5   
5828 8   
5829 5   
5830 10  
5831 9   
5832 1   
5833 10  
5834 8   
5835 9   
5836 8   
5837 8   
5838 8   
5839 4   
5840 4   
5841 8   
5842 5   
5843 8   
5844 3   
5845 1   
5846 5   
5847 7   
5848 10  
5849 1   
5850 2   
5851 7   
5852 7   
5853 5   
5854 5   
5855 10  
5856 10  
5857 1   
5858 6   
5859 8   
5860 2   
5861 2   
5862 2   
5863 1   
5864 1   
5865 6   
5866 8   
5867 7   
5868 7   
5869 4   
5870 10  
5871 10  
5872 4   
5873 6   
5874 9   
5875 4   
5876 5   
5877 6   
5878 7   
5879 4   
5880 3   
5881 7   
5882 10  
5883 1   
5884 10  
5885 4   
5886 10  
5887 10  
5888 2   
5889 3   
5890 10  
5891 2   
5892 3   
5893 1   
5894 10  
5895 10  
5896 1   
5897 1   
5898 2   
5899 5   
5900 8   
5901 7   
5902 2   
5903 2   
5904 5   
5905 7   
5906 6   
5907 2   
5908 10  
5909 8   
5910 6   
5911 9   
5912 1   
5913 6   
5914 4   
5915 6   
5916 3   
5917 1   
5918 1   
5919 8   
5920 6   
5921 6   
5922 4   
5923 7   
5924 2   
5925 5   
5926 1   
5927 1   
5928 8   
5929 3   
5930 1   
5931 1   
5932 3   
5933 7   
5934 10  
5935 6   
5936 2   
5937 8   
5938 4   
5939 5   
5940 6   
5941 5   
5942 1   
5943 8   
5944 2   
5945 1   
5946 7   
5947 6   
5948 5   
5949 10  
5950 10  
5951 7   
5952 9   
5953 8   
5954 2   
5955 2   
5956 5   
5957 2   
5958 10  
5959 9   
5960 4   
5961 5   
5962 6   
5963 5   
5964 4   
5965 8   
5966 4   
5967 1   
5968 3   
5969 3   
5970 9   
5971 6   
5972 1   
5973 10  
5974 9   
5975 3   
5976 7   
5977 8   
5978 9   
5979 1   
5980 5   
5981 10  
5982 10  
5983 10  
5984 7   
5985 2   
5986 10  
5987 7   
5988 8   
5989 7   
5990 2   
5991 10  
5992 7   
5993 1   
5994 4   
5995 5   
5996 10  
5997 8   
5998 10  
5999 7   
6000 6   
6001 9   
6002 4   
6003 6   
6004 2   
6005 1   
6006 1   
6007 6   
6008 4   
6009 2   
6010 10  
6011 5   
6012 1   
6013 3   
6014 2   
6015 9   
6016 6   
6017 5   
6018 6   
6019 4   
6020 7   
6021 10  
6022 9   
6023 1   
6024 5   
6025 3   
6026 7   
6027 7   
6028 8   
6029 10  
6030 6   
6031 10  
6032 4   
6033 8   
6034 9   
6035 2   
6036 2   
6037 4   
6038 8   
6039 7   
6040 5   
6041 9   
6042 1   
6043 6   
6044 3   
6045 5   
6046 5   
6047 2   
6048 9   
6049 1   
6050 5   
6051 4   
6052 3   
6053 2   
6054 7   
6055 5   
6056 2   
6057 6   
6058 3   
6059 1   
6060 7   
6061 4   
6062 5   
6063 10  
6064 1   
6065 4   
6066 10  
6067 2   
6068 2   
6069 1   
6070 7   
6071 5   
6072 4   
6073 7   
6074 1   
6075 5   
6076 4   
6077 5   
6078 7   
6079 7   
6080 7   
6081 6   
6082 4   
6083 4   
6084 1   
6085 7   
6086 7   
6087 10  
6088 2   
6089 7   
6090 3   
6091 8   
6092 6   
6093 9   
6094 5   
6095 7   
6096 6   
6097 9   
6098 2   
6099 3   
6100 9   
6101 1   
6102 9   
6103 7   
6104 6   
6105 1   
6106 4   
6107 10  
6108 6   
6109 4   
6110 5   
6111 3   
6112 5   
6113 7   
6114 1   
6115 10  
6116 1   
6117 7   
6118 3   
6119 7   
6120 1   
6121 5   
6122 4   
6123 2   
6124 5   
6125 6   
6126 6   
6127 10  
6128 6   
6129 3   
6130 3   
6131 2   
6132 3   
6133 4   
6134 10  
6135 2   
6136 4   
6137 6   
6138 7   
6139 9   
6140 1   
6141 2   
6142 5   
6143 4   
6144 2   
6145 9   
6146 1   
6147 3   
6148 7   
6149 8   
6150 7   
6151 4   
6152 9   
6153 5   
6154 8   
6155 7   
6156 2   
6157 7   
6158 4   
6159 8   
6160 9   
6161 9   
6162 2   
6163 6   
6164 2   
6165 5   
6166 6   
6167 10  
6168 9   
6169 4   
6170 6   
6171 9   
6172 5   
6173 3   
6174 2   
6175 1   
6176 9   
6177 2   
6178 3   
6179 3   
6180 1   
6181 9   
6182 7   
6183 7   
6184 8   
6185 7   
6186 1   
6187 10  
6188 9   
6189 9   
6190 3   
6191 9   
6192 4   
6193 10  
6194 9   
6195 9   
6196 6   
6197 1   
6198 2   
6199 5   
6200 4   
6201 3   
6202 5   
6203 3   
6204 7   
6205 8   
6206 1   
6207 6   
6208 6   
6209 4   
6210 9   
6211 4   
6212 9   
6213 6   
6214 8   
6215 6   
6216 10  
6217 7   
6218 10  
6219 4   
6220 2   
6221 8   
6222 5   
6223 7   
6224 3   
6225 5   
6226 5   
6227 4   
6228 5   
6229 7   
6230 3   
6231 4   
6232 9   
6233 3   
6234 8   
6235 1   
6236 5   
6237 6   
6238 1   
6239 5   
6240 2   
6241 3   
6242 2   
6243 10  
6244 4   
6245 5   
6246 9   
6247 6   
6248 5   
6249 5   
6250 8   
6251 7   
6252 3   
6253 2   
6254 3   
6255 10  
6256 9   
6257 10  
6258 3   
6259 8   
6260 6   
6261 10  
6262 8   
6263 1   
6264 8   
6265 8   
6266 3   
6267 5   
6268 2   
6269 9   
6270 1   
6271 6   
6272 1   
6273 7   
6274 2   
6275 3   
6276 9   
6277 4   
6278 8   
6279 8   
6280 3   
6281 5   
6282 6   
6283 2   
6284 5   
6285 8   
6286 3   
6287 5   
6288 10  
6289 10  
6290 2   
6291 3   
6292 8   
6293 1   
6294 1   
6295 6   
6296 9   
6297 2   
6298 4   
6299 7   
6300 7   
6301 3   
6302 7   
6303 8   
6304 6   
6305 3   
6306 8   
6307 2   
6308 10  
6309 5   
6310 9   
6311 4   
6312 9   
6313 3   
6314 5   
6315 3   
6316 5   
6317 10  
6318 7   
6319 1   
6320 6   
6321 2   
6322 7   
6323 2   
6324 3   
6325 3   
6326 8   
6327 9   
6328 6   
6329 7   
6330 6   
6331 9   
6332 7   
6333 6   
6334 4   
6335 9   
6336 4   
6337 7   
6338 7   
6339 4   
6340 10  
6341 7   
6342 10  
6343 9   
6344 9   
6345 2   
6346 9   
6347 3   
6348 2   
6349 6   
6350 1   
6351 9   
6352 1   
6353 4   
6354 8   
6355 4   
6356 6   
6357 7   
6358 3   
6359 5   
6360 8   
6361 4   
6362 6   
6363 8   
6364 9   
6365 4   
6366 7   
6367 4   
6368 10  
6369 5   
6370 8   
6371 9   
6372 7   
6373 5   
6374 6   
6375 1   
6376 2   
6377 3   
6378 4   
6379 6   
6380 5   
6381 4   
6382 1   
6383 4   
6384 8   
6385 8   
6386 6   
6387 9   
6388 6   
6389 6   
6390 1   
6391 10  
6392 3   
6393 10  
6394 8   
6395 4   
6396 7   
6397 1   
6398 7   
6399 5   
6400 5   
6401 10  
6402 4   
6403 2   
6404 1   
6405 3   
6406 1   
6407 10  
6408 6   
6409 1   
6410 3   
6411 8   
6412 3   
6413 1   
6414 7   
6415 7   
6416 10  
6417 1   
6418 5   
6419 3   
6420 8   
6421 4   
6422 7   
6423 5   
6424 5   
6425 10  
6426 6   
6427 6   
6428 6   
6429 9   
6430 10  
6431 1   
6432 9   
6433 4   
6434 4   
6435 9   
6436 3   
6437 4   
6438 3   
6439 1   
6440 1   
6441 2   
6442 3   
6443 5   
6444 7   
6445 5   
6446 6   
6447 6   
6448 8   
6449 4   
6450 6   
6451 7   
6452 9   
6453 9   
6454 2   
6455 1   
6456 7   
6457 2   
6458 2   
6459 3   
6460 4   
6461 1   
6462 10  
6463 5   
6464 8   
6465 4   
6466 2   
6467 5   
6468 7   
6469 1   
6470 2   
6471 4   
6472 9   
6473 7   
6474 1   
6475 3   
6476 7   
6477 10  
6478 5   
6479 10  
6480 2   
6481 1   
6482 6   
6483 5   
6484 4   
6485 6   
6486 2   
6487 9   
6488 1   
6489 2   
6490 6   
6491 9   
6492 2   
6493 1   
6494 4   
6495 6   
6496 8   
6497 6   
6498 2   
6499 2   
6500 4   
6501 3   
6502 9   
6503 10  
6504 4   
6505 9   
6506 9   
6507 9   
6508 7   
6509 7   
6510 4   
6511 4   
6512 7   
6513 8   
6514 10  
6515 3   
6516 10  
6517 1   
6518 6   
6519 1   
6520 4   
6521 8   
6522 2   
6523 7   
6524 1   
6525 3   
6526 8   
6527 10  
6528 9   
6529 2   
6530 1   
6531 9   
6532 9   
6533 4   
6534 10  
6535 4   
6536 10  
6537 1   
6538 9   
6539 8   
6540 1   
6541 8   
6542 10  
6543 4   
6544 6   
6545 6   
6546 3   
6547 6   
6548 4   
6549 5   
6550 7   
6551 7   
6552 8   
6553 1   
6554 9   
6555 7   
6556 6   
6557 6   
6558 6   
6559 6   
6560 2   
6561 3   
6562 3   
6563 3   
6564 8   
6565 7   
6566 9   
6567 10  
6568 6   
6569 3   
6570 1   
6571 7   
6572 5   
6573 8   
6574 6   
6575 10  
6576 1   
6577 7   
6578 8   
6579 10  
6580 4   
6581 5   
6582 1   
6583 6   
6584 8   
6585 7   
6586 10  
6587 4   
6588 1   
6589 9   
6590 3   
6591 9   
6592 7   
6593 9   
6594 4   
6595 4   
6596 5   
6597 7   
6598 2   
6599 1   
6600 5   
6601 3   
6602 7   
6603 9   
6604 5   
6605 10  
6606 2   
6607 8   
6608 6   
6609 2   
6610 9   
6611 6   
6612 3   
6613 6   
6614 8   
6615 1   
6616 7   
6617 5   
6618 10  
6619 9   
6620 1   
6621 5   
6622 10  
6623 8   
6624 5   
6625 9   
6626 9   
6627 6   
6628 8   
6629 8   
6630 7   
6631 10  
6632 2   
6633 8   
6634 9   
6635 4   
6636 6   
6637 5   
6638 2   
6639 2   
6640 4   
6641 6   
6642 3   
6643 1   
6644 3   
6645 1   
6646 8   
6647 9   
6648 7   
6649 3   
6650 6   
6651 1   
6652 6   
6653 1   
6654 1   
6655 9   
6656 7   
6657 4   
6658 7   
6659 10  
6660 9   
6661 1   
6662 10  
6663 3   
6664 2   
6665 5   
6666 7   
6667 4   
6668 10  
6669 4   
6670 4   
6671 7   
6672 6   
6673 8   
6674 5   
6675 7   
6676 10  
6677 2   
6678 1   
6679 2   
6680 1   
6681 7   
6682 8   
6683 4   
6684 2   
6685 1   
6686 2   
6687 4   
6688 5   
6689 4   
6690 1   
6691 10  
6692 10  
6693 8   
6694 1   
6695 10  
6696 3   
6697 3   
6698 10  
6699 8   
6700 9   
6701 2   
6702 9   
6703 9   
6704 4   
6705 3   
6706 1   
6707 3   
6708 8   
6709 3   
6710 9   
6711 8   
6712 10  
6713 1   
6714 4   
6715 1   
6716 7   
6717 7   
6718 3   
6719 4   
6720 3   
6721 9   
6722 4   
6723 8   
6724 10  
6725 2   
6726 7   
6727 5   
6728 10  
6729 2   
6730 8   
6731 2   
6732 2   
6733 5   
6734 7   
6735 1   
6736 1   
6737 10  
6738 4   
6739 6   
6740 6   
6741 1   
6742 7   
6743 7   
6744 4   
6745 6   
6746 1   
6747 6   
6748 9   
6749 8   
6750 4   
6751 4   
6752 10  
6753 5   
6754 5   
6755 2   
6756 10  
6757 8   
6758 10  
6759 10  
6760 4   
6761 7   
6762 1   
6763 6   
6764 4   
6765 5   
6766 2   
6767 4   
6768 10  
6769 3   
6770 6   
6771 5   
6772 4   
6773 3   
6774 5   
6775 1   
6776 4   
6777 8   
6778 8   
6779 2   
6780 6   
6781 4   
6782 5   
6783 5   
6784 6   
6785 4   
6786 3   
6787 3   
6788 3   
6789 7   
6790 7   
6791 2   
6792 5   
6793 10  
6794 4   
6795 10  
6796 1   
6797 8   
6798 6   
6799 6   
6800 9   
6801 1   
6802 1   
6803 1   
6804 4   
6805 1   
6806 3   
6807 2   
6808 9   
6809 8   
6810 9   
6811 10  
6812 4   
6813 5   
6814 1   
6815 7   
6816 7   
6817 8   
6818 8   
6819 9   
6820 5   
6821 9   
6822 6   
6823 5   
6824 9   
6825 5   
6826 7   
6827 8   
6828 7   
6829 8   
6830 4   
6831 9   
6832 2   
6833 4   
6834 10  
6835 4   
6836 8   
6837 9   
6838 5   
6839 7   
6840 6   
6841 10  
6842 2   
6843 6   
6844 8   
6845 4   
6846 2   
6847 5   
6848 5   
6849 1   
6850 2   
6851 3   
6852 10  
6853 4   
6854 3   
6855 4   
6856 10  
6857 10  
6858 6   
6859 7   
6860 6   
6861 2   
6862 3   
6863 8   
6864 9   
6865 7   
6866 7   
6867 4   
6868 6   
6869 8   
6870 7   
6871 3   
6872 6   
6873 3   
6874 9   
6875 4   
6876 4   
6877 9   
6878 1   
6879 4   
6880 8   
6881 5   
6882 1   
6883 6   
6884 2   
6885 2   
6886 9   
6887 4   
6888 4   
6889 7   
6890 1   
6891 2   
6892 10  
6893 2   
6894 3   
6895 6   
6896 10  
6897 5   
6898 7   
6899 2   
6900 10  
6901 3   
6902 8   
6903 1   
6904 8   
6905 7   
6906 1   
6907 10  
6908 6   
6909 7   
6910 2   
6911 8   
6912 5   
6913 3   
6914 10  
6915 3   
6916 8   
6917 8   
6918 6   
6919 5   
6920 2   
6921 9   
6922 2   
6923 9   
6924 4   
6925 9   
6926 4   
6927 3   
6928 7   
6929 2   
6930 5   
6931 4   
6932 9   
6933 4   
6934 2   
6935 7   
6936 2   
6937 4   
6938 5   
6939 8   
6940 3   
6941 10  
6942 8   
6943 6   
6944 4   
6945 7   
6946 3   
6947 9   
6948 5   
6949 9   
6950 1   
6951 6   
6952 3   
6953 6   
6954 9   
6955 2   
6956 2   
6957 10  
6958 6   
6959 4   
6960 8   
6961 2   
6962 9   
6963 6   
6964 2   
6965 5   
6966 2   
6967 6   
6968 4   
6969 6   
6970 7   
6971 1   
6972 2   
6973 6   
6974 6   
6975 7   
6976 5   
6977 5   
6978 7   
6979 9   
6980 6   
6981 2   
6982 8   
6983 2   
6984 7   
6985 5   
6986 1   
6987 3   
6988 10  
6989 9   
6990 8   
6991 10  
6992 9   
6993 9   
6994 3   
6995 10  
6996 6   
6997 5   
6998 1   
6999 4   
7000 7   
7001 8   
7002 3   
7003 8   
7004 7   
7005 8   
7006 7   
7007 8   
7008 8   
7009 7   
7010 1   
7011 5   
7012 10  
7013 10  
7014 3   
7015 8   
7016 3   
7017 5   
7018 7   
7019 8   
7020 6   
7021 8   
7022 3   
7023 10  
7024 8   
7025 8   
7026 10  
7027 1   
7028 1   
7029 4   
7030 9   
7031 2   
7032 10  
7033 7   
7034 1   
7035 6   
7036 8   
7037 5   
7038 1   
7039 6   
7040 3   
7041 9   
7042 2   
7043 7   
7044 10  
7045 4   
7046 4   
7047 2   
7048 10  
7049 1   
7050 5   
7051 7   
7052 6   
7053 3   
7054 10  
7055 9   
7056 7   
7057 3   
7058 1   
7059 8   
7060 8   
7061 2   
7062 6   
7063 5   
7064 5   
7065 4   
7066 7   
7067 4   
7068 7   
7069 8   
7070 3   
7071 6   
7072 6   
7073 6   
7074 3   
7075 1   
7076 6   
7077 8   
7078 5   
7079 5   
7080 10  
7081 7   
7082 9   
7083 10  
7084 5   
7085 9   
7086 4   
7087 5   
7088 2   
7089 10  
7090 4   
7091 6   
7092 5   
7093 3   
7094 2   
7095 10  
7096 2   
7097 8   
7098 7   
7099 3   
7100 10  
7101 1   
7102 7   
7103 5   
7104 9   
7105 7   
7106 3   
7107 5   
7108 5   
7109 1   
7110 8   
7111 2   
7112 7   
7113 3   
7114 9   
7115 8   
7116 6   
7117 6   
7118 4   
7119 6   
7120 7   
7121 4   
7122 8   
7123 5   
7124 9   
7125 3   
7126 7   
7127 7   
7128 8   
7129 4   
7130 3   
7131 8   
7132 10  
7133 3   
7134 1   
7135 5   
7136 1   
7137 10  
7138 7   
7139 4   
7140 5   
7141 9   
7142 6   
7143 6   
7144 1   
7145 5   
7146 4   
7147 7   
7148 9   
7149 5   
7150 1   
7151 3   
7152 9   
7153 3   
7154 2   
7155 9   
7156 5   
7157 5   
7158 2   
7159 1   
7160 5   
7161 6   
7162 8   
7163 8   
7164 6   
7165 2   
7166 1   
7167 3   
7168 4   
7169 3   
7170 6   
7171 3   
7172 10  
7173 5   
7174 6   
7175 3   
7176 4   
7177 7   
7178 8   
7179 9   
7180 4   
7181 3   
7182 3   
7183 10  
7184 10  
7185 10  
7186 3   
7187 9   
7188 10  
7189 2   
7190 4   
7191 9   
7192 1   
7193 2   
7194 3   
7195 10  
7196 8   
7197 1   
7198 9   
7199 8   
7200 5   
7201 7   
7202 3   
7203 4   
7204 8   
7205 9   
7206 8   
7207 9   
7208 1   
7209 7   
7210 8   
7211 1   
7212 10  
7213 8   
7214 2   
7215 8   
7216 9   
7217 10  
7218 3   
7219 2   
7220 2   
7221 3   
7222 10  
7223 7   
7224 8   
7225 3   
7226 10  
7227 10  
7228 1   
7229 9   
7230 6   
7231 8   
7232 2   
7233 1   
7234 5   
7235 7   
7236 4   
7237 10  
7238 2   
7239 6   
7240 5   
7241 6   
7242 9   
7243 5   
7244 2   
7245 3   
7246 1   
7247 10  
7248 5   
7249 10  
7250 1   
7251 4   
7252 8   
7253 6   
7254 8   
7255 8   
7256 4   
7257 10  
7258 3   
7259 4   
7260 3   
7261 7   
7262 4   
7263 10  
7264 3   
7265 8   
7266 9   
7267 3   
7268 6   
7269 1   
7270 1   
7271 4   
7272 1   
7273 9   
7274 10  
7275 10  
7276 5   
7277 7   
7278 1   
7279 10  
7280 1   
7281 7   
7282 9   
7283 10  
7284 4   
7285 10  
7286 2   
7287 4   
7288 10  
7289 7   
7290 4   
7291 5   
7292 5   
7293 2   
7294 10  
7295 2   
7296 10  
7297 9   
7298 5   
7299 1   
7300 7   
7301 1   
7302 2   
7303 2   
7304 10  
7305 5   
7306 10  
7307 9   
7308 7   
7309 1   
7310 10  
7311 10  
7312 1   
7313 8   
7314 5   
7315 10  
7316 9   
7317 5   
7318 7   
7319 7   
7320 5   
7321 6   
7322 9   
7323 2   
7324 5   
7325 7   
7326 3   
7327 1   
7328 9   
7329 7   
7330 3   
7331 7   
7332 10  
7333 1   
7334 4   
7335 1   
7336 8   
7337 4   
7338 2   
7339 6   
7340 3   
7341 8   
7342 9   
7343 10  
7344 10  
7345 6   
7346 1   
7347 1   
7348 6   
7349 6   
7350 6   
7351 9   
7352 7   
7353 5   
7354 2   
7355 3   
7356 9   
7357 4   
7358 3   
7359 8   
7360 4   
7361 3   
7362 4   
7363 9   
7364 5   
7365 2   
7366 7   
7367 3   
7368 10  
7369 2   
7370 6   
7371 3   
7372 7   
7373 10  
7374 2   
7375 3   
7376 4   
7377 6   
7378 8   
7379 3   
7380 8   
7381 4   
7382 8   
7383 8   
7384 4   
7385 2   
7386 3   
7387 1   
7388 3   
7389 3   
7390 9   
7391 2   
7392 2   
7393 7   
7394 3   
7395 1   
7396 5   
7397 3   
7398 10  
7399 4   
7400 9   
7401 3   
7402 7   
7403 6   
7404 9   
7405 1   
7406 3   
7407 9   
7408 9   
7409 8   
7410 8   
7411 5   
7412 8   
7413 3   
7414 3   
7415 5   
7416 1   
7417 5   
7418 8   
7419 9   
7420 4   
7421 3   
7422 6   
7423 2   
7424 9   
7425 2   
7426 6   
7427 5   
7428 3   
7429 5   
7430 8   
7431 10  
7432 7   
7433 10  
7434 1   
7435 10  
7436 2   
7437 5   
7438 7   
7439 9   
7440 8   
7441 7   
7442 2   
7443 5   
7444 2   
7445 5   
7446 7   
7447 3   
7448 1   
7449 3   
7450 3   
7451 1   
7452 2   
7453 4   
7454 8   
7455 4   
7456 5   
7457 8   
7458 3   
7459 8   
7460 5   
7461 2   
7462 3   
7463 4   
7464 5   
7465 5   
7466 2   
7467 6   
7468 6   
7469 8   
7470 8   
7471 5   
7472 5   
7473 4   
7474 3   
7475 1   
7476 1   
7477 10  
7478 8   
7479 1   
7480 7   
7481 8   
7482 6   
7483 3   
7484 1   
7485 4   
7486 1   
7487 5   
7488 2   
7489 6   
7490 6   
7491 10  
7492 7   
7493 6   
7494 9   
7495 5   
7496 2   
7497 7   
7498 1   
7499 5   
7500 6   
7501 2   
7502 1   
7503 6   
7504 2   
7505 7   
7506 2   
7507 2   
7508 6   
7509 3   
7510 1   
7511 6   
7512 1   
7513 10  
7514 6   
7515 10  
7516 3   
7517 6   
7518 1   
7519 3   
7520 5   
7521 4   
7522 7   
7523 7   
7524 1   
7525 1   
7526 6   
7527 1   
7528 6   
7529 7   
7530 7   
7531 6   
7532 5   
7533 8   
7534 3   
7535 3   
7536 7   
7537 9   
7538 10  
7539 3   
7540 6   
7541 5   
7542 5   
7543 5   
7544 9   
7545 7   
7546 1   
7547 9   
7548 9   
7549 10  
7550 7   
7551 1   
7552 4   
7553 6   
7554 7   
7555 9   
7556 1   
7557 8   
7558 5   
7559 5   
7560 7   
7561 2   
7562 9   
7563 1   
7564 5   
7565 1   
7566 7   
7567 1   
7568 1   
7569 9   
7570 3   
7571 7   
7572 10  
7573 2   
7574 4   
7575 1   
7576 2   
7577 9   
7578 9   
7579 6   
7580 5   
7581 6   
7582 6   
7583 7   
7584 7   
7585 5   
7586 7   
7587 6   
7588 9   
7589 6   
7590 10  
7591 8   
7592 2   
7593 7   
7594 9   
7595 9   
7596 7   
7597 4   
7598 1   
7599 8   
7600 9   
7601 4   
7602 2   
7603 1   
7604 2   
7605 7   
7606 5   
7607 10  
7608 3   
7609 9   
7610 6   
7611 1   
7612 9   
7613 4   
7614 10  
7615 6   
7616 2   
7617 3   
7618 9   
7619 4   
7620 1   
7621 3   
7622 6   
7623 7   
7624 9   
7625 8   
7626 5   
7627 10  
7628 10  
7629 7   
7630 3   
7631 10  
7632 1   
7633 1   
7634 6   
7635 7   
7636 1   
7637 4   
7638 1   
7639 2   
7640 10  
7641 6   
7642 3   
7643 6   
7644 6   
7645 6   
7646 9   
7647 9   
7648 5   
7649 2   
7650 7   
7651 5   
7652 5   
7653 6   
7654 4   
7655 5   
7656 4   
7657 10  
7658 7   
7659 8   
7660 9   
7661 7   
7662 4   
7663 4   
7664 2   
7665 7   
7666 8   
7667 4   
7668 4   
7669 3   
7670 8   
7671 2   
7672 5   
7673 1   
7674 6   
7675 1   
7676 5   
7677 1   
7678 5   
7679 1   
7680 1   
7681 6   
7682 2   
7683 7   
7684 5   
7685 3   
7686 10  
7687 9   
7688 5   
7689 5   
7690 9   
7691 3   
7692 6   
7693 4   
7694 6   
7695 4   
7696 1   
7697 2   
7698 8   
7699 3   
7700 3   
7701 4   
7702 10  
7703 2   
7704 9   
7705 4   
7706 9   
7707 8   
7708 2   
7709 5   
7710 8   
7711 4   
7712 9   
7713 2   
7714 9   
7715 5   
7716 7   
7717 5   
7718 3   
7719 5   
7720 2   
7721 9   
7722 4   
7723 9   
7724 2   
7725 5   
7726 5   
7727 8   
7728 1   
7729 5   
7730 9   
7731 3   
7732 9   
7733 5   
7734 1   
7735 4   
7736 7   
7737 1   
7738 4   
7739 2   
7740 2   
7741 10  
7742 4   
7743 4   
7744 7   
7745 10  
7746 10  
7747 7   
7748 3   
7749 2   
7750 5   
7751 9   
7752 2   
7753 10  
7754 4   
7755 4   
7756 7   
7757 6   
7758 4   
7759 2   
7760 3   
7761 3   
7762 5   
7763 2   
7764 9   
7765 6   
7766 9   
7767 5   
7768 7   
7769 3   
7770 4   
7771 5   
7772 6   
7773 5   
7774 10  
7775 4   
7776 8   
7777 3   
7778 1   
7779 2   
7780 6   
7781 10  
7782 9   
7783 8   
7784 10  
7785 2   
7786 9   
7787 9   
7788 9   
7789 6   
7790 6   
7791 9   
7792 3   
7793 9   
7794 3   
7795 2   
7796 7   
7797 3   
7798 9   
7799 3   
7800 3   
7801 5   
7802 5   
7803 2   
7804 8   
7805 3   
7806 7   
7807 1   
7808 3   
7809 9   
7810 3   
7811 7   
7812 4   
7813 3   
7814 6   
7815 6   
7816 6   
7817 7   
7818 9   
7819 4   
7820 7   
7821 5   
7822 9   
7823 3   
7824 8   
7825 5   
7826 1   
7827 8   
7828 5   
7829 8   
7830 4   
7831 2   
7832 9   
7833 1   
7834 1   
7835 9   
7836 2   
7837 1   
7838 5   
7839 5   
7840 3   
7841 8   
7842 2   
7843 3   
7844 8   
7845 9   
7846 9   
7847 4   
7848 9   
7849 6   
7850 4   
7851 4   
7852 8   
7853 4   
7854 6   
7855 10  
7856 2   
7857 4   
7858 3   
7859 1   
7860 4   
7861 1   
7862 1   
7863 10  
7864 2   
7865 7   
7866 6   
7867 4   
7868 1   
7869 6   
7870 7   
7871 2   
7872 5   
7873 4   
7874 3   
7875 5   
7876 8   
7877 3   
7878 10  
7879 1   
7880 3   
7881 7   
7882 5   
7883 1   
7884 5   
7885 1   
7886 5   
7887 7   
7888 8   
7889 2   
7890 9   
7891 10  
7892 8   
7893 4   
7894 9   
7895 10  
7896 8   
7897 10  
7898 8   
7899 8   
7900 1   
7901 1   
7902 2   
7903 10  
7904 2   
7905 8   
7906 4   
7907 5   
7908 4   
7909 7   
7910 9   
7911 10  
7912 5   
7913 4   
7914 8   
7915 5   
7916 9   
7917 9   
7918 8   
7919 8   
7920 9   
7921 5   
7922 4   
7923 7   
7924 7   
7925 2   
7926 8   
7927 7   
7928 2   
7929 4   
7930 3   
7931 7   
7932 5   
7933 5   
7934 1   
7935 10  
7936 10  
7937 7   
7938 3   
7939 7   
7940 1   
7941 8   
7942 3   
7943 7   
7944 1   
7945 6   
7946 2   
7947 10  
7948 9   
7949 4   
7950 10  
7951 4   
7952 6   
7953 9   
7954 4   
7955 2   
7956 7   
7957 1   
7958 1   
7959 1   
7960 4   
7961 9   
7962 9   
7963 5   
7964 3   
7965 8   
7966 9   
7967 8   
7968 2   
7969 3   
7970 10  
7971 7   
7972 2   
7973 6   
7974 4   
7975 2   
7976 6   
7977 10  
7978 5   
7979 1   
7980 6   
7981 10  
7982 8   
7983 10  
7984 4   
7985 1   
7986 3   
7987 6   
7988 9   
7989 5   
7990 6   
7991 2   
7992 4   
7993 2   
7994 9   
7995 3   
7996 1   
7997 5   
7998 10  
7999 7   
8000 6   
8001 8   
8002 8   
8003 4   
8004 10  
8005 7   
8006 3   
8007 1   
8008 4   
8009 9   
8010 1   
8011 8   
8012 7   
8013 7   
8014 5   
8015 2   
8016 3   
8017 6   
8018 1   
8019 6   
8020 2   
8021 6   
8022 9   
8023 5   
8024 4   
8025 2   
8026 4   
8027 9   
8028 1   
8029 8   
8030 8   
8031 3   
8032 9   
8033 10  
8034 6   
8035 3   
8036 10  
8037 9   
8038 2   
8039 6   
8040 10  
8041 1   
8042 3   
8043 3   
8044 2   
8045 4   
8046 6   
8047 9   
8048 9   
8049 7   
8050 10  
8051 9   
8052 8   
8053 9   
8054 5   
8055 2   
8056 4   
8057 7   
8058 2   
8059 1   
8060 4   
8061 9   
8062 4   
8063 8   
8064 2   
8065 9   
8066 7   
8067 8   
8068 8   
8069 5   
8070 9   
8071 7   
8072 10  
8073 4   
8074 3   
8075 3   
8076 1   
8077 3   
8078 6   
8079 8   
8080 4   
8081 4   
8082 2   
8083 4   
8084 7   
8085 2   
8086 2   
8087 4   
8088 6   
8089 1   
8090 2   
8091 2   
8092 5   
8093 7   
8094 3   
8095 5   
8096 9   
8097 3   
8098 3   
8099 4   
8100 9   
8101 4   
8102 5   
8103 6   
8104 8   
8105 7   
8106 7   
8107 9   
8108 7   
8109 7   
8110 7   
8111 2   
8112 8   
8113 9   
8114 8   
8115 7   
8116 2   
8117 1   
8118 10  
8119 2   
8120 8   
8121 6   
8122 7   
8123 5   
8124 6   
8125 4   
8126 8   
8127 6   
8128 3   
8129 2   
8130 8   
8131 7   
8132 1   
8133 10  
8134 9   
8135 3   
8136 9   
8137 8   
8138 5   
8139 2   
8140 6   
8141 8   
8142 10  
8143 3   
8144 6   
8145 10  
8146 8   
8147 10  
8148 2   
8149 9   
8150 8   
8151 8   
8152 6   
8153 9   
8154 4   
8155 7   
8156 6   
8157 8   
8158 4   
8159 9   
8160 8   
8161 6   
8162 2   
8163 10  
8164 10  
8165 2   
8166 5   
8167 8   
8168 2   
8169 7   
8170 4   
8171 7   
8172 5   
8173 4   
8174 7   
8175 5   
8176 9   
8177 7   
8178 10  
8179 1   
8180 4   
8181 7   
8182 2   
8183 8   
8184 7   
8185 8   
8186 8   
8187 4   
8188 4   
8189 7   
8190 7   
8191 9   
8192 10  
8193 6   
8194 9   
8195 1   
8196 7   
8197 5   
8198 10  
8199 5   
8200 3   
8201 9   
8202 3   
8203 7   
8204 7   
8205 9   
8206 3   
8207 6   
8208 8   
8209 5   
8210 2   
8211 8   
8212 2   
8213 2   
8214 5   
8215 6   
8216 10  
8217 5   
8218 1   
8219 5   
8220 9   
8221 4   
8222 5   
8223 2   
8224 5   
8225 6   
8226 9   
8227 5   
8228 10  
8229 8   
8230 4   
8231 7   
8232 9   
8233 3   
8234 10  
8235 2   
8236 3   
8237 3   
8238 2   
8239 10  
8240 2   
8241 2   
8242 9   
8243 6   
8244 8   
8245 4   
8246 4   
8247 7   
8248 3   
8249 1   
8250 1   
8251 7   
8252 3   
8253 2   
8254 9   
8255 6   
8256 6   
8257 8   
8258 7   
8259 3   
8260 1   
8261 7   
8262 5   
8263 9   
8264 9   
8265 2   
8266 3   
8267 9   
8268 9   
8269 9   
8270 10  
8271 4   
8272 9   
8273 3   
8274 10  
8275 8   
8276 9   
8277 5   
8278 7   
8279 1   
8280 10  
8281 9   
8282 8   
8283 1   
8284 8   
8285 4   
8286 6   
8287 7   
8288 4   
8289 6   
8290 3   
8291 8   
8292 9   
8293 6   
8294 8   
8295 8   
8296 3   
8297 7   
8298 6   
8299 10  
8300 3   
8301 8   
8302 2   
8303 8   
8304 10  
8305 5   
8306 5   
8307 2   
8308 10  
8309 6   
8310 9   
8311 10  
8312 9   
8313 7   
8314 10  
8315 3   
8316 10  
8317 1   
8318 5   
8319 1   
8320 5   
8321 1   
8322 3   
8323 10  
8324 8   
8325 4   
8326 9   
8327 1   
8328 3   
8329 2   
8330 9   
8331 4   
8332 3   
8333 9   
8334 7   
8335 7   
8336 9   
8337 10  
8338 4   
8339 1   
8340 1   
8341 9   
8342 2   
8343 8   
8344 10  
8345 5   
8346 6   
8347 1   
8348 3   
8349 1   
8350 6   
8351 4   
8352 6   
8353 2   
8354 9   
8355 10  
8356 6   
8357 9   
8358 9   
8359 10  
8360 5   
8361 1   
8362 4   
8363 3   
8364 5   
8365 8   
8366 1   
8367 3   
8368 10  
8369 1   
8370 1   
8371 10  
8372 9   
8373 3   
8374 2   
8375 9   
8376 9   
8377 10  
8378 2   
8379 7   
8380 8   
8381 8   
8382 9   
8383 10  
8384 1   
8385 7   
8386 5   
8387 8   
8388 7   
8389 10  
8390 7   
8391 10  
8392 8   
8393 5   
8394 9   
8395 8   
8396 4   
8397 2   
8398 8   
8399 8   
8400 9   
8401 1   
8402 9   
8403 7   
8404 10  
8405 7   
8406 7   
8407 2   
8408 8   
8409 1   
8410 8   
8411 7   
8412 9   
8413 8   
8414 5   
8415 2   
8416 3   
8417 3   
8418 6   
8419 6   
8420 2   
8421 7   
8422 6   
8423 2   
8424 8   
8425 10  
8426 2   
8427 4   
8428 3   
8429 5   
8430 6   
8431 8   
8432 5   
8433 8   
8434 10  
8435 4   
8436 6   
8437 5   
8438 2   
8439 4   
8440 3   
8441 2   
8442 6   
8443 2   
8444 8   
8445 6   
8446 6   
8447 8   
8448 2   
8449 4   
8450 6   
8451 6   
8452 5   
8453 6   
8454 8   
8455 7   
8456 9   
8457 1   
8458 3   
8459 2   
8460 5   
8461 6   
8462 5   
8463 5   
8464 2   
8465 4   
8466 8   
8467 9   
8468 1   
8469 6   
8470 1   
8471 10  
8472 8   
8473 1   
8474 6   
8475 1   
8476 2   
8477 3   
8478 5   
8479 8   
8480 8   
8481 9   
8482 9   
8483 5   
8484 10  
8485 1   
8486 7   
8487 2   
8488 5   
8489 8   
8490 5   
8491 4   
8492 7   
8493 5   
8494 4   
8495 1   
8496 7   
8497 8   
8498 5   
8499 5   
8500 4   
8501 7   
8502 9   
8503 8   
8504 9   
8505 10  
8506 1   
8507 7   
8508 3   
8509 1   
8510 6   
8511 8   
8512 7   
8513 6   
8514 10  
8515 7   
8516 5   
8517 10  
8518 9   
8519 8   
8520 10  
8521 4   
8522 1   
8523 2   
8524 4   
8525 7   
8526 6   
8527 7   
8528 4   
8529 10  
8530 9   
8531 3   
8532 3   
8533 5   
8534 4   
8535 3   
8536 7   
8537 7   
8538 4   
8539 5   
8540 2   
8541 4   
8542 6   
8543 10  
8544 10  
8545 1   
8546 4   
8547 3   
8548 6   
8549 1   
8550 1   
8551 10  
8552 5   
8553 1   
8554 9   
8555 8   
8556 5   
8557 1   
8558 1   
8559 10  
8560 7   
8561 8   
8562 5   
8563 7   
8564 8   
8565 2   
8566 9   
8567 2   
8568 2   
8569 9   
8570 3   
8571 5   
8572 9   
8573 6   
8574 7   
8575 2   
8576 10  
8577 10  
8578 10  
8579 8   
8580 10  
8581 4   
8582 4   
8583 7   
8584 1   
8585 10  
8586 8   
8587 7   
8588 4   
8589 3   
8590 3   
8591 5   
8592 2   
8593 9   
8594 9   
8595 7   
8596 8   
8597 9   
8598 2   
8599 8   
8600 3   
8601 10  
8602 6   
8603 4   
8604 5   
8605 7   
8606 9   
8607 10  
8608 7   
8609 9   
8610 1   
8611 7   
8612 10  
8613 5   
8614 9   
8615 3   
8616 3   
8617 5   
8618 5   
8619 6   
8620 7   
8621 9   
8622 8   
8623 1   
8624 9   
8625 8   
8626 5   
8627 10  
8628 9   
8629 2   
8630 2   
8631 6   
8632 10  
8633 5   
8634 1   
8635 8   
8636 6   
8637 9   
8638 2   
8639 1   
8640 4   
8641 4   
8642 8   
8643 3   
8644 10  
8645 4   
8646 1   
8647 6   
8648 4   
8649 2   
8650 9   
8651 1   
8652 6   
8653 7   
8654 9   
8655 1   
8656 4   
8657 9   
8658 7   
8659 9   
8660 4   
8661 7   
8662 5   
8663 9   
8664 2   
8665 5   
8666 4   
8667 10  
8668 5   
8669 1   
8670 4   
8671 8   
8672 9   
8673 6   
8674 10  
8675 7   
8676 7   
8677 8   
8678 3   
8679 5   
8680 7   
8681 10  
8682 5   
8683 3   
8684 1   
8685 4   
8686 3   
8687 1   
8688 5   
8689 9   
8690 4   
8691 3   
8692 3   
8693 6   
8694 4   
8695 7   
8696 8   
8697 5   
8698 9   
8699 3   
8700 6   
8701 2   
8702 8   
8703 2   
8704 8   
8705 3   
8706 4   
8707 9   
8708 4   
8709 6   
8710 2   
8711 6   
8712 1   
8713 3   
8714 4   
8715 9   
8716 2   
8717 3   
8718 7   
8719 10  
8720 5   
8721 3   
8722 8   
8723 7   
8724 2   
8725 6   
8726 8   
8727 7   
8728 3   
8729 1   
8730 9   
8731 6   
8732 8   
8733 5   
8734 2   
8735 5   
8736 1   
8737 2   
8738 2   
8739 6   
8740 3   
8741 4   
8742 2   
8743 4   
8744 9   
8745 7   
8746 5   
8747 5   
8748 1   
8749 6   
8750 4   
8751 8   
8752 5   
8753 1   
8754 6   
8755 2   
8756 4   
8757 1   
8758 10  
8759 1   
8760 8   
8761 6   
8762 5   
8763 10  
8764 10  
8765 6   
8766 3   
8767 6   
8768 4   
8769 5   
8770 1   
8771 2   
8772 1   
8773 3   
8774 6   
8775 3   
8776 9   
8777 7   
8778 7   
8779 7   
8780 7   
8781 7   
8782 2   
8783 10  
8784 1   
8785 4   
8786 4   
8787 6   
8788 1   
8789 3   
8790 8   
8791 7   
8792 8   
8793 2   
8794 9   
8795 6   
8796 7   
8797 3   
8798 5   
8799 7   
8800 4   
8801 4   
8802 10  
8803 3   
8804 6   
8805 9   
8806 1   
8807 4   
8808 3   
8809 10  
8810 10  
8811 7   
8812 5   
8813 9   
8814 3   
8815 6   
8816 9   
8817 2   
8818 3   
8819 6   
8820 2   
8821 7   
8822 4   
8823 8   
8824 10  
8825 9   
8826 8   
8827 3   
8828 4   
8829 7   
8830 8   
8831 8   
8832 7   
8833 8   
8834 9   
8835 10  
8836 4   
8837 4   
8838 6   
8839 5   
8840 5   
8841 2   
8842 9   
8843 6   
8844 5   
8845 6   
8846 8   
8847 9   
8848 3   
8849 8   
8850 5   
8851 6   
8852 9   
8853 10  
8854 5   
8855 10  
8856 2   
8857 2   
8858 9   
8859 1   
8860 7   
8861 10  
8862 2   
8863 5   
8864 1   
8865 4   
8866 8   
8867 4   
8868 3   
8869 5   
8870 4   
8871 4   
8872 5   
8873 6   
8874 6   
8875 6   
8876 4   
8877 5   
8878 5   
8879 1   
8880 5   
8881 1   
8882 3   
8883 5   
8884 6   
8885 6   
8886 5   
8887 3   
8888 10  
8889 2   
8890 1   
8891 10  
8892 2   
8893 4   
8894 4   
8895 9   
8896 10  
8897 5   
8898 2   
8899 2   
8900 10  
8901 10  
8902 4   
8903 2   
8904 4   
8905 1   
8906 3   
8907 7   
8908 9   
8909 7   
8910 8   
8911 7   
8912 10  
8913 9   
8914 1   
8915 5   
8916 9   
8917 9   
8918 5   
8919 8   
8920 7   
8921 3   
8922 8   
8923 5   
8924 2   
8925 7   
8926 5   
8927 4   
8928 6   
8929 9   
8930 2   
8931 3   
8932 7   
8933 10  
8934 6   
8935 1   
8936 1   
8937 6   
8938 2   
8939 2   
8940 3   
8941 10  
8942 6   
8943 9   
8944 3   
8945 7   
8946 6   
8947 5   
8948 5   
8949 5   
8950 9   
8951 4   
8952 5   
8953 3   
8954 4   
8955 8   
8956 3   
8957 4   
8958 7   
8959 2   
8960 10  
8961 6   
8962 9   
8963 7   
8964 6   
8965 3   
8966 6   
8967 7   
8968 1   
8969 2   
8970 9   
8971 5   
8972 1   
8973 8   
8974 9   
8975 1   
8976 8   
8977 3   
8978 1   
8979 2   
8980 8   
8981 7   
8982 5   
8983 3   
8984 10  
8985 9   
8986 9   
8987 10  
8988 10  
8989 4   
8990 3   
8991 5   
8992 9   
8993 6   
8994 2   
8995 6   
8996 7   
8997 1   
8998 10  
8999 5   
9000 6   
9001 10  
9002 7   
9003 2   
9004 6   
9005 6   
9006 3   
9007 2   
9008 5   
9009 10  
9010 2   
9011 6   
9012 7   
9013 2   
9014 7   
9015 2   
9016 5   
9017 2   
9018 4   
9019 10  
9020 3   
9021 10  
9022 10  
9023 7   
9024 1   
9025 5   
9026 2   
9027 8   
9028 8   
9029 5   
9030 1   
9031 3   
9032 8   
9033 5   
9034 4   
9035 7   
9036 1   
9037 10  
9038 1   
9039 10  
9040 6   
9041 7   
9042 5   
9043 10  
9044 9   
9045 10  
9046 5   
9047 4   
9048 4   
9049 5   
9050 4   
9051 2   
9052 6   
9053 8   
9054 7   
9055 6   
9056 3   
9057 9   
9058 8   
9059 1   
9060 5   
9061 1   
9062 9   
9063 5   
9064 1   
9065 2   
9066 1   
9067 6   
9068 2   
9069 8   
9070 6   
9071 1   
9072 1   
9073 5   
9074 10  
9075 6   
9076 3   
9077 5   
9078 5   
9079 2   
9080 6   
9081 6   
9082 6   
9083 8   
9084 2   
9085 4   
9086 10  
9087 7   
9088 6   
9089 4   
9090 10  
9091 3   
9092 6   
9093 10  
9094 10  
9095 8   
9096 6   
9097 10  
9098 3   
9099 9   
9100 1   
9101 2   
9102 1   
9103 6   
9104 2   
9105 6   
9106 5   
9107 7   
9108 1   
9109 6   
9110 5   
9111 9   
9112 9   
9113 6   
9114 7   
9115 2   
9116 3   
9117 9   
9118 4   
9119 9   
9120 10  
9121 8   
9122 9   
9123 4   
9124 7   
9125 8   
9126 9   
9127 4   
9128 8   
9129 2   
9130 3   
9131 3   
9132 4   
9133 5   
9134 3   
9135 6   
9136 6   
9137 5   
9138 8   
9139 3   
9140 3   
9141 7   
9142 4   
9143 6   
9144 5   
9145 2   
9146 9   
9147 10  
9148 1   
9149 1   
9150 8   
9151 2   
9152 1   
9153 8   
9154 9   
9155 6   
9156 9   
9157 8   
9158 5   
9159 10  
9160 5   
9161 8   
9162 10  
9163 8   
9164 6   
9165 7   
9166 8   
9167 4   
9168 6   
9169 10  
9170 2   
9171 10  
9172 6   
9173 7   
9174 5   
9175 3   
9176 10  
9177 6   
9178 4   
9179 6   
9180 4   
9181 9   
9182 10  
9183 4   
9184 10  
9185 10  
9186 9   
9187 3   
9188 4   
9189 5   
9190 10  
9191 6   
9192 10  
9193 4   
9194 10  
9195 7   
9196 9   
9197 1   
9198 9   
9199 1   
9200 10  
9201 5   
9202 8   
9203 3   
9204 1   
9205 10  
9206 5   
9207 5   
9208 5   
9209 1   
9210 5   
9211 6   
9212 10  
9213 7   
9214 6   
9215 8   
9216 4   
9217 8   
9218 1   
9219 1   
9220 6   
9221 9   
9222 3   
9223 1   
9224 5   
9225 9   
9226 5   
9227 1   
9228 5   
9229 1   
9230 3   
9231 5   
9232 1   
9233 7   
9234 9   
9235 4   
9236 1   
9237 9   
9238 7   
9239 1   
9240 3   
9241 4   
9242 7   
9243 7   
9244 3   
9245 9   
9246 5   
9247 7   
9248 3   
9249 3   
9250 3   
9251 5   
9252 4   
9253 2   
9254 1   
9255 7   
9256 1   
9257 7   
9258 2   
9259 4   
9260 7   
9261 4   
9262 1   
9263 1   
9264 6   
9265 6   
9266 1   
9267 5   
9268 1   
9269 4   
9270 6   
9271 2   
9272 1   
9273 7   
9274 10  
9275 7   
9276 8   
9277 9   
9278 7   
9279 8   
9280 2   
9281 7   
9282 1   
9283 10  
9284 1   
9285 6   
9286 2   
9287 3   
9288 1   
9289 10  
9290 8   
9291 2   
9292 2   
9293 1   
9294 2   
9295 10  
9296 5   
9297 9   
9298 8   
9299 7   
9300 9   
9301 7   
9302 3   
9303 4   
9304 9   
9305 1   
9306 7   
9307 9   
9308 3   
9309 10  
9310 6   
9311 10  
9312 2   
9313 10  
9314 4   
9315 7   
9316 7   
9317 10  
9318 9   
9319 7   
9320 9   
9321 8   
9322 4   
9323 6   
9324 9   
9325 2   
9326 4   
9327 7   
9328 6   
9329 8   
9330 8   
9331 6   
9332 2   
9333 9   
9334 9   
9335 4   
9336 4   
9337 1   
9338 5   
9339 1   
9340 6   
9341 1   
9342 4   
9343 8   
9344 5   
9345 4   
9346 3   
9347 10  
9348 9   
9349 2   
9350 5   
9351 1   
9352 3   
9353 3   
9354 10  
9355 3   
9356 10  
9357 4   
9358 2   
9359 2   
9360 4   
9361 2   
9362 7   
9363 5   
9364 9   
9365 2   
9366 9   
9367 5   
9368 3   
9369 1   
9370 2   
9371 8   
9372 7   
9373 5   
9374 8   
9375 7   
9376 9   
9377 5   
9378 6   
9379 1   
9380 4   
9381 9   
9382 7   
9383 9   
9384 5   
9385 8   
9386 1   
9387 3   
9388 3   
9389 8   
9390 4   
9391 3   
9392 4   
9393 3   
9394 9   
9395 9   
9396 6   
9397 2   
9398 7   
9399 7   
9400 3   
9401 1   
9402 1   
9403 3   
9404 8   
9405 7   
9406 8   
9407 5   
9408 9   
9409 4   
9410 1   
9411 8   
9412 7   
9413 1   
9414 1   
9415 9   
9416 7   
9417 6   
9418 6   
9419 9   
9420 4   
9421 2   
9422 1   
9423 3   
9424 2   
9425 8   
9426 5   
9427 4   
9428 9   
9429 1   
9430 3   
9431 6   
9432 6   
9433 6   
9434 10  
9435 1   
9436 5   
9437 8   
9438 1   
9439 5   
9440 5   
9441 4   
9442 6   
9443 7   
9444 10  
9445 10  
9446 4   
9447 2   
9448 1   
9449 8   
9450 8   
9451 3   
9452 2   
9453 1   
9454 2   
9455 2   
9456 7   
9457 7   
9458 7   
9459 1   
9460 10  
9461 9   
9462 7   
9463 3   
9464 10  
9465 4   
9466 6   
9467 8   
9468 10  
9469 9   
9470 10  
9471 5   
9472 6   
9473 2   
9474 8   
9475 4   
9476 3   
9477 10  
9478 5   
9479 5   
9480 10  
9481 4   
9482 7   
9483 9   
9484 8   
9485 9   
9486 3   
9487 1   
9488 8   
9489 10  
9490 5   
9491 3   
9492 1   
9493 8   
9494 10  
9495 6   
9496 2   
9497 3   
9498 8   
9499 7   
9500 5   
9501 8   
9502 5   
9503 10  
9504 1   
9505 9   
9506 8   
9507 9   
9508 2   
9509 8   
9510 7   
9511 9   
9512 10  
9513 5   
9514 6   
9515 5   
9516 1   
9517 4   
9518 7   
9519 6   
9520 9   
9521 2   
9522 1   
9523 8   
9524 8   
9525 7   
9526 5   
9527 10  
9528 8   
9529 3   
9530 4   
9531 9   
9532 3   
9533 4   
9534 6   
9535 6   
9536 1   
9537 5   
9538 3   
9539 8   
9540 3   
9541 5   
9542 9   
9543 6   
9544 5   
9545 10  
9546 5   
9547 6   
9548 4   
9549 7   
9550 8   
9551 3   
9552 9   
9553 3   
9554 1   
9555 10  
9556 3   
9557 6   
9558 5   
9559 8   
9560 8   
9561 6   
9562 3   
9563 9   
9564 6   
9565 1   
9566 8   
9567 4   
9568 3   
9569 10  
9570 2   
9571 6   
9572 1   
9573 10  
9574 4   
9575 10  
9576 5   
9577 1   
9578 4   
9579 10  
9580 9   
9581 8   
9582 10  
9583 6   
9584 2   
9585 2   
9586 4   
9587 4   
9588 8   
9589 8   
9590 6   
9591 2   
9592 8   
9593 10  
9594 7   
9595 5   
9596 4   
9597 6   
9598 4   
9599 1   
9600 10  
9601 2   
9602 8   
9603 1   
9604 4   
9605 10  
9606 3   
9607 8   
9608 6   
9609 4   
9610 10  
9611 10  
9612 6   
9613 4   
9614 9   
9615 7   
9616 5   
9617 9   
9618 9   
9619 9   
9620 8   
9621 2   
9622 10  
9623 10  
9624 1   
9625 10  
9626 10  
9627 3   
9628 2   
9629 3   
9630 2   
9631 4   
9632 9   
9633 2   
9634 7   
9635 8   
9636 3   
9637 8   
9638 2   
9639 1   
9640 8   
9641 8   
9642 9   
9643 9   
9644 10  
9645 5   
9646 4   
9647 7   
9648 1   
9649 4   
9650 2   
9651 9   
9652 10  
9653 10  
9654 2   
9655 7   
9656 6   
9657 1   
9658 7   
9659 10  
9660 5   
9661 1   
9662 6   
9663 10  
9664 3   
9665 1   
9666 6   
9667 1   
9668 1   
9669 2   
9670 2   
9671 2   
9672 8   
9673 9   
9674 9   
9675 7   
9676 8   
9677 7   
9678 5   
9679 6   
9680 1   
9681 10  
9682 6   
9683 5   
9684 3   
9685 10  
9686 9   
9687 5   
9688 2   
9689 1   
9690 1   
9691 9   
9692 6   
9693 9   
9694 9   
9695 7   
9696 1   
9697 3   
9698 9   
9699 10  
9700 1   
9701 8   
9702 1   
9703 3   
9704 2   
9705 10  
9706 5   
9707 4   
9708 7   
9709 5   
9710 6   
9711 4   
9712 7   
9713 2   
9714 3   
9715 10  
9716 1   
9717 2   
9718 10  
9719 7   
9720 3   
9721 7   
9722 1   
9723 2   
9724 10  
9725 6   
9726 5   
9727 4   
9728 10  
9729 4   
9730 1   
9731 9   
9732 6   
9733 3   
9734 3   
9735 1   
9736 4   
9737 2   
9738 7   
9739 7   
9740 10  
9741 9   
9742 2   
9743 3   
9744 4   
9745 8   
9746 5   
9747 6   
9748 2   
9749 5   
9750 5   
9751 2   
9752 10  
9753 8   
9754 2   
9755 1   
9756 10  
9757 4   
9758 8   
9759 2   
9760 6   
9761 4   
9762 2   
9763 9   
9764 3   
9765 2   
9766 4   
9767 2   
9768 1   
9769 6   
9770 5   
9771 5   
9772 10  
9773 10  
9774 8   
9775 1   
9776 8   
9777 4   
9778 5   
9779 10  
9780 10  
9781 6   
9782 6   
9783 7   
9784 6   
9785 10  
9786 3   
9787 1   
9788 5   
9789 5   
9790 1   
9791 5   
9792 8   
9793 2   
9794 7   
9795 9   
9796 2   
9797 1   
9798 6   
9799 3   
9800 1   
9801 3   
9802 1   
9803 6   
9804 5   
9805 2   
9806 4   
9807 4   
9808 1   
9809 5   
9810 5   
9811 9   
9812 6   
9813 8   
9814 4   
9815 10  
9816 6   
9817 4   
9818 7   
9819 10  
9820 8   
9821 8   
9822 1   
9823 4   
9824 4   
9825 10  
9826 2   
9827 9   
9828 4   
9829 8   
9830 7   
9831 3   
9832 10  
9833 7   
9834 5   
9835 1   
9836 2   
9837 5   
9838 3   
9839 3   
9840 10  
9841 9   
9842 9   
9843 9   
9844 4   
9845 4   
9846 1   
9847 1   
9848 3   
9849 10  
9850 10  
9851 8   
9852 4   
9853 1   
9854 8   
9855 4   
9856 7   
9857 2   
9858 7   
9859 5   
9860 7   
9861 9   
9862 5   
9863 6   
9864 2   
9865 9   
9866 6   
9867 3   
9868 8   
9869 9   
9870 8   
9871 1   
9872 5   
9873 1   
9874 3   
9875 5   
9876 5   
9877 7   
9878 1   
9879 3   
9880 5   
9881 10  
9882 7   
9883 3   
9884 3   
9885 2   
9886 9   
9887 10  
9888 4   
9889 4   
9890 7   
9891 10  
9892 3   
9893 4   
9894 2   
9895 3   
9896 6   
9897 5   
9898 10  
9899 7   
9900 1   
9901 9   
9902 6   
9903 9   
9904 3   
9905 10  
9906 6   
9907 5   
9908 10  
9909 8   
9910 2   
9911 8   
9912 5   
9913 6   
9914 7   
9915 4   
9916 9   
9917 6   
9918 4   
9919 1   
9920 10  
9921 5   
9922 7   
9923 2   
9924 2   
9925 7   
9926 3   
9927 10  
9928 7   
9929 10  
9930 3   
9931 2   
9932 9   
9933 5   
9934 9   
9935 5   
9936 10  
9937 10  
9938 7   
9939 5   
9940 4   
9941 10  
9942 5   
9943 2   
9944 10  
9945 10  
9946 9   
9947 3   
9948 9   
9949 1   
9950 7   
9951 7   
9952 5   
9953 6   
9954 7   
9955 5   
9956 10  
9957 4   
9958 7   
9959 6   
9960 2   
9961 9   
9962 2   
9963 4   
9964 4   
9965 6   
9966 8   
9967 9   
9968 5   
9969 6   
9970 3   
9971 9   
9972 9   
9973 3   
9974 7   
9975 7   
9976 1   
9977 3   
9978 3   
9979 7   
9980 6   
9981 5   
9982 3   
9983 2   
9984 7   
9985 7   
9986 7   
9987 3   
9988 3   
9989 1   
9990 3   
9991 10  
9992 2   
9993 7   
9994 9   
9995 7   
9996 3   
9997 5   
9998 10  
9999 6   
10000 2   
10001 5   
DEPOT_SECTION
1
-1
EOF
