NAME : XML10000_2163_01
COMMENT : Generated as the XML100 dataset from the CVRPLIB
TYPE : CVRP
DIMENSION : 10001
EDGE_WEIGHT_TYPE : EUC_2D
CAPACITY : 409
NODE_COORD_SECTION
1    5000 5000
2    2375 8590
3    7093 6671
4    8535 6780
5    2846 9513
6    6520 5968
7    6403 7262
8    820  2109
9    4993 1701
10   8443 8169
11   7195 2748
12   4990 9773
13   7401 1723
14   4977 2375
15   3737 3125
16   9055 6848
17   8724 8174
18   8997 7330
19   6407 8648
20   6099 5055
21   3273 9824
22   3125 8565
23   2792 1250
24   5396 6078
25   1385 5084
26   8711 5465
27   9664 3088
28   5342 2122
29   1530 711 
30   9417 1912
31   8661 1838
32   5913 4989
33   7627 8837
34   3472 2788
35   2724 8018
36   5601 8048
37   833  8667
38   9544 9226
39   3338 6389
40   8225 147 
41   4873 9547
42   2259 9537
43   8647 4040
44   6542 2045
45   9150 7532
46   224  6774
47   7527 4032
48   4778 2375
49   847  9055
50   6878 840 
51   8441 7673
52   1094 761 
53   2439 6544
54   8321 9889
55   3436 3510
56   5964 2838
57   9182 2657
58   7843 6978
59   3229 6303
60   8326 4341
61   5000 7519
62   165  3040
63   7548 5179
64   6605 3626
65   794  5103
66   4223 8051
67   2622 3316
68   4652 9061
69   3392 998 
70   8778 7732
71   6343 2783
72   184  8908
73   5656 8545
74   539  9468
75   9054 5176
76   1438 1243
77   3649 7034
78   9261 9081
79   8862 6184
80   7031 2563
81   6716 5569
82   2517 3888
83   2331 4616
84   8442 6288
85   482  4869
86   1874 1684
87   7764 667 
88   8820 8024
89   810  5926
90   9634 5899
91   302  4187
92   6584 1027
93   473  3547
94   5747 1612
95   5497 2849
96   4252 4762
97   6171 841 
98   9479 6018
99   8114 5453
100  3627 7153
101  9393 8700
102  7005 9651
103  146  5893
104  3292 9500
105  1906 8388
106  4370 4017
107  1785 7610
108  8028 7234
109  1637 9434
110  2286 4023
111  4642 7408
112  8381 4455
113  3019 8158
114  208  6080
115  662  7591
116  4946 7410
117  591  3091
118  45   3683
119  5645 9870
120  4051 6085
121  6007 9824
122  4090 9743
123  4461 9528
124  1995 9886
125  1145 4184
126  222  2859
127  9010 6162
128  6569 5280
129  2342 5055
130  6421 1544
131  192  2769
132  9640 787 
133  3479 6956
134  2795 8358
135  1343 7718
136  4869 1381
137  7889 2580
138  2472 3732
139  7112 2292
140  5868 1694
141  5516 6411
142  7054 6382
143  3958 8486
144  3874 8689
145  7993 5354
146  5946 1240
147  8583 7150
148  1457 7401
149  6925 2371
150  7125 5407
151  3702 6504
152  4904 9095
153  1446 5959
154  4587 9186
155  2509 1959
156  9174 3125
157  4041 3041
158  3538 1378
159  577  8881
160  7252 395 
161  4894 5238
162  1878 4423
163  4708 6773
164  4970 9879
165  7033 2928
166  874  3761
167  4543 7593
168  5291 2622
169  3534 8836
170  617  3496
171  8334 8178
172  6880 9132
173  5457 8098
174  3741 5665
175  2919 7664
176  3846 1368
177  2138 5804
178  4342 725 
179  811  9502
180  626  5720
181  1148 4021
182  7768 5187
183  8312 7265
184  7726 8119
185  5375 6891
186  8494 6482
187  2550 7054
188  6944 9990
189  586  9240
190  9127 6335
191  1728 9513
192  5193 8805
193  6511 6864
194  8609 4673
195  5046 8149
196  1204 461 
197  7952 2783
198  7898 7071
199  9351 5541
200  3954 8838
201  5308 1998
202  4732 5652
203  4388 3765
204  3928 7734
205  8337 8176
206  2544 7630
207  2265 5859
208  7610 7581
209  9186 5982
210  8060 4674
211  9348 3960
212  3291 7400
213  2118 7083
214  2564 4581
215  8541 6687
216  5897 9353
217  7972 2042
218  9147 5802
219  8465 118 
220  6949 9500
221  9722 262 
222  1898 1027
223  4631 9234
224  6759 3220
225  53   7546
226  5897 4335
227  9447 7609
228  9921 4581
229  4101 9242
230  2957 5108
231  5404 8076
232  7126 9951
233  7812 5052
234  5285 7856
235  6648 8379
236  8707 9461
237  4295 7123
238  8437 6916
239  2716 2612
240  4213 4138
241  6861 8391
242  813  3371
243  3008 9441
244  5130 5151
245  7484 9419
246  288  3886
247  465  2753
248  5484 7571
249  9005 2205
250  5431 1900
251  1935 1263
252  1834 1218
253  7740 9579
254  7352 3749
255  7990 3056
256  8066 5888
257  8256 2443
258  7802 7144
259  5252 4099
260  1837 2314
261  8153 1578
262  4566 6905
263  2778 1557
264  6152 8333
265  6910 6229
266  8799 1107
267  6570 5613
268  8121 7576
269  6759 6779
270  6546 1178
271  6431 1   
272  2455 8403
273  4477 8616
274  6205 9619
275  4248 815 
276  4141 7600
277  9602 4953
278  4670 5310
279  7160 426 
280  262  4169
281  2340 6153
282  5121 8886
283  1813 4352
284  8457 4061
285  4455 438 
286  7922 7532
287  4769 9751
288  4866 8919
289  6005 3147
290  9268 3077
291  118  3644
292  8646 2725
293  8467 2546
294  1153 3308
295  2768 2180
296  6535 9197
297  5334 5892
298  5922 4588
299  386  7256
300  7439 2067
301  3696 7667
302  3190 8981
303  9007 8771
304  4316 28  
305  1670 1141
306  3237 2579
307  7927 4265
308  8653 2578
309  1911 751 
310  8324 3574
311  6379 3416
312  6257 5157
313  4930 7603
314  8223 1384
315  6629 784 
316  4028 4157
317  982  4433
318  4594 444 
319  2844 2285
320  1192 7942
321  5414 7079
322  5405 9416
323  799  2355
324  566  7770
325  1222 4490
326  6026 8018
327  2944 6603
328  8919 6165
329  7933 611 
330  1657 6536
331  3262 82  
332  9058 3482
333  4521 5312
334  6180 9350
335  9368 4327
336  2956 7968
337  7824 1348
338  8277 8865
339  6912 4878
340  3083 9313
341  6608 1105
342  9371 9236
343  6543 825 
344  4795 752 
345  4477 2529
346  2526 8996
347  7624 5584
348  1161 2918
349  8664 4415
350  8087 5316
351  470  438 
352  182  8987
353  5714 1924
354  1187 7806
355  7143 4729
356  1436 9686
357  7436 8753
358  5433 5332
359  4016 7245
360  3751 9338
361  6786 7346
362  1235 8016
363  2279 2267
364  1027 1399
365  8472 9186
366  5632 4778
367  1886 3769
368  4371 3764
369  7143 7700
370  5841 1833
371  1386 6308
372  2836 5493
373  9812 4639
374  2946 2772
375  5560 5123
376  3032 5932
377  5374 8926
378  8168 6449
379  8274 2669
380  7120 5246
381  1104 2115
382  6526 8503
383  4787 2094
384  8010 3282
385  8838 5142
386  4281 5973
387  8298 8182
388  8597 1880
389  8079 5553
390  4721 7570
391  4422 7411
392  3034 3607
393  9647 4053
394  3229 426 
395  9051 6477
396  4224 7787
397  8595 7744
398  1961 9766
399  2108 819 
400  2528 5902
401  5493 8988
402  2072 5136
403  4512 5004
404  2129 2005
405  297  805 
406  4064 8264
407  5978 856 
408  4525 9879
409  1571 2198
410  3129 57  
411  9151 9210
412  9639 5892
413  675  8850
414  4817 8515
415  8061 8327
416  5889 6455
417  443  3250
418  4692 7487
419  4314 1873
420  8885 843 
421  9808 6482
422  1406 7457
423  5646 8108
424  1686 4850
425  1790 5229
426  4211 8606
427  1467 1537
428  9091 3990
429  3989 9757
430  2805 6141
431  3218 6692
432  7259 1808
433  2104 8494
434  9711 806 
435  1844 2248
436  8578 3138
437  3456 6270
438  2472 2107
439  1807 6579
440  9540 9533
441  9358 9564
442  404  4663
443  3436 5268
444  8942 8991
445  4855 9669
446  1620 3819
447  4569 7244
448  8094 9930
449  976  7509
450  6103 9690
451  3501 6568
452  6698 1794
453  3517 4945
454  3888 4683
455  1599 3403
456  8878 2515
457  6604 5305
458  7991 6562
459  5965 3867
460  7112 8479
461  4650 8085
462  6524 2708
463  6283 4564
464  7371 4974
465  6921 946 
466  2969 5429
467  2124 2378
468  1850 9139
469  651  4944
470  2293 3225
471  3392 4372
472  9234 1637
473  4122 1884
474  150  4691
475  3533 9431
476  2206 4623
477  2605 355 
478  1373 2070
479  7436 3716
480  234  8564
481  7833 9295
482  5855 3491
483  203  4076
484  5121 2868
485  4634 8500
486  6317 1241
487  4960 6040
488  1937 7413
489  9800 595 
490  4737 488 
491  9740 5067
492  2688 383 
493  6163 5376
494  4536 5247
495  5400 9254
496  6044 4060
497  8956 4092
498  3841 3311
499  9335 8437
500  8349 7970
501  3277 1545
502  9875 1857
503  6810 2828
504  3482 2775
505  2297 357 
506  4798 2216
507  3724 2803
508  3561 7703
509  8983 6069
510  3633 630 
511  272  2451
512  264  3191
513  4986 535 
514  8142 1508
515  5223 6098
516  3980 4223
517  475  7390
518  6241 3068
519  6092 4400
520  7786 4790
521  5907 1716
522  4910 1256
523  1075 2763
524  7097 1067
525  5985 6297
526  7560 6572
527  7904 2484
528  6187 3167
529  7278 1113
530  3892 7938
531  2565 8626
532  4147 5873
533  6904 6127
534  7553 8207
535  7175 7466
536  8912 5684
537  5734 9521
538  195  5664
539  85   157 
540  1800 8989
541  9160 6162
542  9850 2317
543  3835 3849
544  5387 4019
545  8440 9289
546  4243 2844
547  5776 7402
548  6649 895 
549  1342 116 
550  3077 4204
551  3995 9061
552  6741 9931
553  4927 5855
554  3000 2398
555  6612 7551
556  1997 3282
557  7488 6345
558  1359 6629
559  2027 4243
560  6633 2401
561  6511 8697
562  1068 4429
563  6828 9575
564  7416 1303
565  1019 3773
566  1354 6878
567  8619 4164
568  1351 4762
569  7184 3196
570  2125 5275
571  7332 5716
572  4636 4339
573  2151 8788
574  6390 8759
575  3079 769 
576  7599 5150
577  7944 8234
578  7598 8559
579  4695 9607
580  1459 7871
581  199  3502
582  4347 7829
583  4753 4864
584  998  4074
585  4929 8433
586  845  8934
587  1548 946 
588  5468 6720
589  5238 1099
590  8496 216 
591  8881 2606
592  9958 9316
593  9115 2381
594  1028 8153
595  3790 4288
596  9489 4972
597  7832 9324
598  8876 330 
599  7057 2139
600  5296 3628
601  1942 2708
602  8544 5225
603  4003 2695
604  1802 150 
605  8249 5424
606  4158 5071
607  9797 5585
608  2909 9535
609  185  2158
610  3727 2120
611  5182 9733
612  5580 1898
613  7466 4957
614  8199 2070
615  1508 2749
616  8259 4719
617  9775 534 
618  7960 2940
619  2962 8612
620  4645 6093
621  4322 247 
622  2500 7320
623  8305 2618
624  9345 5949
625  336  6631
626  6922 130 
627  6982 7022
628  2355 5756
629  414  6787
630  9852 3773
631  6338 5557
632  2597 9837
633  8546 5558
634  2437 2171
635  201  2675
636  6002 9377
637  8263 3394
638  7109 5386
639  8043 644 
640  718  4174
641  1499 8959
642  813  3914
643  2984 7429
644  8826 4953
645  2613 7759
646  3674 3467
647  1451 4953
648  6863 3537
649  7138 3280
650  2160 9094
651  8696 5512
652  6755 5548
653  580  3114
654  1734 252 
655  8591 3811
656  8795 3245
657  152  4856
658  667  3243
659  2146 1977
660  5640 1478
661  6134 7777
662  1034 3030
663  138  6716
664  6006 1571
665  9002 5476
666  2418 8312
667  4015 8867
668  2039 2484
669  2583 2464
670  6034 7721
671  4539 7906
672  6379 2727
673  4523 7682
674  2365 8481
675  2008 9475
676  1234 2867
677  4140 3037
678  3209 1619
679  2903 3000
680  897  7809
681  7243 7084
682  3464 8132
683  5126 5138
684  6116 5436
685  1130 6694
686  422  7519
687  1848 1082
688  9354 4345
689  4856 1071
690  3165 3254
691  5820 4835
692  8980 6176
693  3306 9757
694  1277 9050
695  7272 9348
696  4540 6181
697  1432 5396
698  1786 7637
699  191  5810
700  1493 6460
701  2966 4048
702  964  697 
703  5749 1165
704  9315 3653
705  5394 7318
706  5472 6362
707  3848 8876
708  3858 8423
709  5770 1985
710  6693 4800
711  7981 7539
712  2641 9039
713  8747 2443
714  6904 9244
715  4141 6170
716  5374 1980
717  1623 3630
718  7325 5623
719  7311 7016
720  8555 7066
721  1237 427 
722  3554 1425
723  5010 2273
724  485  6922
725  2253 2734
726  6505 2261
727  9205 1601
728  6388 7167
729  6235 7373
730  6846 9291
731  5763 8944
732  4941 6560
733  1351 3957
734  6220 5358
735  8321 7769
736  5387 8031
737  1311 4622
738  4982 6607
739  2051 2814
740  6504 6865
741  2804 6981
742  5587 32  
743  9497 1379
744  7867 2176
745  9035 3024
746  6901 698 
747  965  2480
748  6024 4287
749  9037 8710
750  1362 368 
751  2177 7077
752  9306 7665
753  4208 1236
754  6952 7707
755  608  9397
756  4609 2902
757  6520 4742
758  1421 7321
759  8921 2771
760  1016 9946
761  5426 6951
762  303  1259
763  7445 901 
764  5473 5863
765  292  632 
766  8701 4752
767  2597 835 
768  7467 8166
769  7982 6987
770  2019 5976
771  4796 5707
772  5084 4331
773  8934 5419
774  8820 258 
775  85   580 
776  7646 4816
777  6338 1036
778  6816 6248
779  5727 9564
780  2551 7428
781  7260 2718
782  6130 6104
783  7714 1519
784  8803 3247
785  3248 2022
786  261  9578
787  5991 5857
788  7133 7582
789  6870 3820
790  8241 1706
791  8300 4288
792  1422 9427
793  3697 4866
794  6117 4719
795  2553 5870
796  3888 6714
797  82   8926
798  5203 9569
799  8998 4175
800  7154 6122
801  7550 8908
802  7083 4773
803  834  9834
804  8404 3100
805  7701 8197
806  6092 2493
807  7379 7403
808  1510 8816
809  8588 3618
810  8095 454 
811  9389 7224
812  6373 43  
813  7114 3155
814  1141 3369
815  2544 4251
816  248  568 
817  1260 8606
818  8977 1594
819  6792 3963
820  9231 7725
821  9606 5286
822  3690 6221
823  6063 446 
824  9322 3471
825  9281 8264
826  4969 3966
827  1658 3723
828  2615 7535
829  1506 5551
830  57   9899
831  8043 4260
832  6774 8367
833  8302 7142
834  7625 7184
835  3762 700 
836  8293 6524
837  2089 3475
838  5213 9028
839  2584 3370
840  8534 3253
841  2699 6547
842  9855 885 
843  5157 7550
844  3571 156 
845  673  6103
846  1496 7204
847  109  4358
848  7859 9913
849  3145 5732
850  9237 849 
851  6446 7031
852  2615 4103
853  6653 8592
854  5181 8338
855  4478 2484
856  7329 6286
857  8834 8340
858  7913 1392
859  166  1058
860  766  8946
861  3524 4071
862  9773 2765
863  7740 3435
864  2691 510 
865  7107 8693
866  426  3797
867  7156 5606
868  4857 5743
869  2008 7946
870  967  2914
871  5831 7354
872  4596 1368
873  1033 3976
874  1964 2729
875  9359 6298
876  3271 9   
877  6351 2275
878  1679 4515
879  3997 671 
880  920  8420
881  1480 1757
882  9603 5510
883  1570 7522
884  7398 3119
885  2018 7569
886  8966 3950
887  8880 5324
888  9544 7203
889  6368 7381
890  5510 1350
891  7016 8693
892  9812 8394
893  5321 1309
894  4697 27  
895  7246 3738
896  555  2296
897  64   8286
898  3076 1666
899  7088 3896
900  862  4839
901  4367 1605
902  8578 4881
903  6089 8539
904  2995 6909
905  6244 2097
906  6918 4920
907  675  7856
908  5651 9623
909  1775 9297
910  8003 1359
911  3693 4673
912  964  1062
913  9148 2941
914  6856 2986
915  5171 4741
916  3487 9809
917  8964 5431
918  4296 1469
919  5930 5473
920  157  3363
921  1907 8950
922  6947 622 
923  3278 7965
924  9583 5851
925  3568 1125
926  9933 3053
927  9324 961 
928  8492 1248
929  2365 2502
930  2515 7706
931  7004 7830
932  1992 3337
933  4778 6094
934  4801 8019
935  105  7377
936  6477 8105
937  761  6775
938  5448 4857
939  3259 3607
940  975  5627
941  8034 1682
942  2163 2032
943  8223 7219
944  6769 32  
945  8266 2342
946  8873 3926
947  9671 5479
948  5717 2923
949  5267 8555
950  4435 3755
951  9359 567 
952  1396 6466
953  5334 7088
954  8857 3911
955  2489 4526
956  5136 5236
957  7493 577 
958  2306 1712
959  2903 6494
960  6614 4913
961  9400 666 
962  2618 9116
963  3370 172 
964  5253 5935
965  6535 6026
966  5688 2860
967  4356 9789
968  1690 8597
969  1537 3864
970  938  3051
971  4781 6787
972  8174 6526
973  7771 6457
974  9719 936 
975  6719 1519
976  8933 4032
977  4066 8733
978  9921 5475
979  238  7679
980  3710 6581
981  5927 5626
982  1466 7808
983  3876 2543
984  9836 978 
985  3356 5211
986  9333 7468
987  580  1413
988  9869 5285
989  8078 5901
990  1867 7841
991  4814 8026
992  6491 9860
993  3101 5102
994  1517 2761
995  7547 802 
996  7580 8716
997  6191 9423
998  8680 271 
999  8502 8032
1000 1452 5384
1001 8787 4050
1002 1441 4440
1003 8386 1685
1004 5946 8009
1005 3405 8219
1006 2122 9170
1007 4415 6587
1008 260  3129
1009 8636 4942
1010 5103 4841
1011 6106 2224
1012 1770 1910
1013 776  7695
1014 4334 1821
1015 6224 8625
1016 7534 6186
1017 5171 8102
1018 3927 1596
1019 5325 2681
1020 6610 7077
1021 1566 9667
1022 7277 4635
1023 4680 6750
1024 9692 3073
1025 6900 2310
1026 9642 2370
1027 8300 4949
1028 2921 877 
1029 3895 6076
1030 9577 9757
1031 2991 7431
1032 2219 7609
1033 9074 7966
1034 4397 844 
1035 2816 1753
1036 9507 714 
1037 6234 4861
1038 812  2513
1039 811  9999
1040 1639 5949
1041 3688 2234
1042 7671 5727
1043 7953 7068
1044 1508 3717
1045 3847 4923
1046 2538 975 
1047 7314 9   
1048 6288 8942
1049 794  9683
1050 2365 122 
1051 6002 1802
1052 2810 5690
1053 6720 3342
1054 4621 1476
1055 3124 2804
1056 9359 4192
1057 2835 5634
1058 1429 3588
1059 1846 263 
1060 9562 9566
1061 2962 7895
1062 5577 1371
1063 3298 6131
1064 2274 8190
1065 6729 6582
1066 6167 8143
1067 805  4289
1068 8225 7096
1069 3997 583 
1070 7527 7212
1071 8299 4127
1072 9426 7847
1073 431  9116
1074 239  7110
1075 8537 9184
1076 2337 5929
1077 9408 8361
1078 7502 713 
1079 7511 5656
1080 2656 2108
1081 1517 7951
1082 351  9616
1083 5658 2044
1084 5577 9770
1085 1722 2024
1086 4960 8656
1087 388  6764
1088 7551 7097
1089 9918 8452
1090 8590 1597
1091 3806 1638
1092 4899 8367
1093 8927 465 
1094 9562 144 
1095 5467 3322
1096 1254 8872
1097 6949 8944
1098 5507 8906
1099 3448 5424
1100 7366 3104
1101 9176 3962
1102 8022 1168
1103 3661 532 
1104 4080 6348
1105 1530 5237
1106 4799 5902
1107 5945 2540
1108 977  2384
1109 5213 8848
1110 8635 765 
1111 780  9474
1112 8637 8348
1113 5622 3927
1114 5477 624 
1115 7805 4671
1116 462  5240
1117 1960 8191
1118 4086 6821
1119 4285 5750
1120 243  9624
1121 2787 3465
1122 5157 7611
1123 9111 7212
1124 7568 9454
1125 6589 388 
1126 71   7357
1127 9311 8949
1128 9102 1954
1129 7081 52  
1130 5328 8388
1131 2329 6495
1132 8828 3356
1133 1813 407 
1134 9981 6069
1135 4500 8432
1136 4329 5229
1137 4927 8715
1138 6854 1638
1139 2187 2319
1140 6124 2569
1141 7252 1580
1142 833  4058
1143 351  2149
1144 8938 7257
1145 665  7809
1146 520  4252
1147 2816 4380
1148 5983 8683
1149 1578 5032
1150 6917 2631
1151 4518 9919
1152 287  8879
1153 5719 7598
1154 8987 7813
1155 871  3560
1156 4443 2621
1157 5909 3439
1158 6174 1583
1159 5687 2321
1160 8149 7521
1161 3936 8595
1162 7176 6592
1163 1171 229 
1164 6398 2736
1165 1058 2141
1166 9654 9017
1167 9858 4479
1168 9462 8940
1169 9396 5794
1170 4768 2066
1171 2844 4513
1172 4121 1684
1173 6397 2009
1174 5347 5722
1175 4035 9585
1176 5159 2871
1177 1306 5845
1178 5423 3510
1179 184  7056
1180 4725 1719
1181 2823 8914
1182 116  2507
1183 6860 9029
1184 7952 4823
1185 3886 5697
1186 4076 9412
1187 7023 7143
1188 2842 5681
1189 9082 273 
1190 9412 6453
1191 6610 1045
1192 1751 3058
1193 9605 105 
1194 7594 9322
1195 1462 3003
1196 6505 4642
1197 3751 1254
1198 8049 2347
1199 3209 6923
1200 77   5014
1201 1523 6440
1202 3961 555 
1203 180  5826
1204 6067 4913
1205 1072 9757
1206 1177 3110
1207 4072 8039
1208 6115 4125
1209 3097 8209
1210 3315 9030
1211 3069 4223
1212 561  7458
1213 7662 2171
1214 9671 5395
1215 3748 6348
1216 9556 7644
1217 2217 5745
1218 9988 4022
1219 9251 3069
1220 8446 4639
1221 2052 5814
1222 2337 2379
1223 6098 5367
1224 4093 3825
1225 631  1822
1226 8240 4945
1227 6179 5654
1228 174  1989
1229 3213 6616
1230 4177 3964
1231 3825 5440
1232 8142 6823
1233 5302 1742
1234 1500 4673
1235 5160 8594
1236 8463 7675
1237 6    3945
1238 7545 5617
1239 2873 4127
1240 7191 1590
1241 8330 9049
1242 7975 7486
1243 3343 3111
1244 4876 9963
1245 8391 1169
1246 6795 2246
1247 1012 6320
1248 7654 659 
1249 5991 640 
1250 3410 684 
1251 4903 4603
1252 4425 5640
1253 1077 6723
1254 5926 5716
1255 1051 4305
1256 5981 5015
1257 7535 6409
1258 8301 7689
1259 9332 1755
1260 6142 4762
1261 6518 3735
1262 9668 8646
1263 111  5623
1264 9419 3461
1265 4557 1177
1266 7323 4882
1267 4553 3989
1268 5503 5936
1269 9252 4880
1270 1454 1825
1271 6353 5091
1272 9780 8069
1273 9918 824 
1274 6320 199 
1275 2846 4909
1276 4996 6304
1277 325  7497
1278 1985 8216
1279 4570 4312
1280 8772 7017
1281 5107 5107
1282 4242 7139
1283 8400 4   
1284 3887 8081
1285 6345 3872
1286 5587 558 
1287 4450 1569
1288 1661 2041
1289 7376 1939
1290 6441 1510
1291 8422 1232
1292 7214 9846
1293 8409 5459
1294 9211 9485
1295 4065 9970
1296 3696 5167
1297 7331 8893
1298 5637 4028
1299 9076 1968
1300 2433 3938
1301 406  3   
1302 147  1937
1303 3617 1073
1304 2434 9537
1305 4092 4864
1306 5495 8518
1307 9184 9399
1308 8034 8698
1309 6673 9957
1310 6940 2288
1311 9434 2172
1312 5545 2919
1313 9406 6689
1314 9707 5329
1315 9973 7610
1316 2974 1283
1317 999  7547
1318 716  3719
1319 7611 9561
1320 7962 6563
1321 9372 8072
1322 7937 8275
1323 8952 4909
1324 2271 121 
1325 6812 4653
1326 6784 990 
1327 4187 7548
1328 4576 1152
1329 1256 4098
1330 9325 2072
1331 8263 8364
1332 348  2069
1333 2109 7864
1334 6860 5271
1335 940  1640
1336 7203 5858
1337 8003 8428
1338 1728 391 
1339 4614 7732
1340 5869 2834
1341 10000 3665
1342 4208 5233
1343 1776 6463
1344 3630 5854
1345 2247 5691
1346 6011 2226
1347 7894 8433
1348 9899 3593
1349 8218 6460
1350 7510 7047
1351 6022 7601
1352 8759 3911
1353 6575 8706
1354 3587 8414
1355 8370 9801
1356 1757 4111
1357 597  6707
1358 8331 6704
1359 1661 7336
1360 3760 9993
1361 3979 1302
1362 4141 1403
1363 8355 3071
1364 3779 4412
1365 4060 7278
1366 619  9678
1367 1074 4139
1368 3501 3031
1369 9598 9902
1370 3686 416 
1371 5323 5949
1372 1537 4325
1373 484  9599
1374 1522 8355
1375 5263 633 
1376 1823 868 
1377 1779 4135
1378 2030 9357
1379 5504 4171
1380 7190 7570
1381 9751 7835
1382 4764 5804
1383 6406 4346
1384 8635 8064
1385 563  8530
1386 1332 588 
1387 8115 3123
1388 4576 9999
1389 412  875 
1390 9189 7032
1391 1019 3528
1392 5799 5558
1393 8887 1170
1394 9754 4955
1395 6777 9252
1396 3933 7038
1397 7262 3230
1398 3665 7127
1399 7357 5787
1400 4236 5909
1401 216  1321
1402 6931 957 
1403 6401 5839
1404 5205 1279
1405 6027 1953
1406 3879 3813
1407 9280 255 
1408 4576 6852
1409 6097 6672
1410 2508 8410
1411 6304 1614
1412 530  7621
1413 1275 6596
1414 5274 683 
1415 5791 130 
1416 7035 7647
1417 2076 8229
1418 8926 4698
1419 2125 5667
1420 4546 2625
1421 3243 6358
1422 7626 2389
1423 5608 1755
1424 2461 3941
1425 764  2822
1426 4748 3392
1427 5793 68  
1428 7634 6879
1429 6205 1146
1430 1338 3123
1431 5761 7491
1432 7558 2443
1433 6147 725 
1434 1286 7234
1435 1079 6892
1436 6340 9887
1437 8997 4297
1438 6790 2568
1439 2367 379 
1440 9140 9970
1441 3908 6178
1442 9735 136 
1443 6219 2445
1444 8487 3412
1445 4535 2897
1446 1290 6314
1447 5173 5723
1448 7313 6659
1449 3234 9123
1450 9540 5708
1451 9943 2010
1452 6410 4890
1453 1489 6674
1454 9618 9440
1455 3871 7900
1456 7292 5361
1457 2930 7779
1458 2327 3519
1459 4826 3329
1460 605  4905
1461 6003 1041
1462 3928 4805
1463 683  4416
1464 3650 855 
1465 7262 752 
1466 6157 925 
1467 9089 4159
1468 8687 6476
1469 2300 9151
1470 5979 1209
1471 1147 1164
1472 8786 2846
1473 7340 1480
1474 7997 2833
1475 7092 2170
1476 8936 7736
1477 2000 1411
1478 2368 5784
1479 4560 8887
1480 3406 7974
1481 3334 8293
1482 9056 315 
1483 3267 729 
1484 4018 678 
1485 5546 8995
1486 4723 8414
1487 2264 9748
1488 9690 3189
1489 806  6281
1490 3258 2747
1491 1047 8426
1492 7834 631 
1493 9849 2808
1494 8167 7864
1495 7446 1605
1496 7453 1067
1497 148  4970
1498 7529 8464
1499 9541 2874
1500 2014 8688
1501 70   8973
1502 3729 9818
1503 3183 4179
1504 9629 2863
1505 6815 5290
1506 7579 9178
1507 67   9241
1508 1764 8079
1509 6724 7248
1510 2244 278 
1511 7024 5901
1512 7474 1940
1513 4416 156 
1514 8990 5766
1515 6491 2240
1516 8086 3831
1517 5375 6025
1518 1755 9554
1519 8889 6630
1520 1710 7527
1521 7253 3848
1522 5401 4411
1523 3435 8590
1524 4318 5267
1525 8359 7223
1526 9905 8015
1527 1171 8712
1528 6012 6174
1529 1717 8695
1530 5321 5718
1531 7933 8683
1532 4740 813 
1533 7946 6671
1534 8017 6361
1535 2858 2851
1536 7323 1084
1537 7025 7880
1538 7353 773 
1539 4115 4337
1540 6973 6347
1541 1085 5698
1542 2069 5322
1543 5046 9383
1544 4813 3123
1545 5234 6079
1546 2178 9144
1547 931  647 
1548 1010 7112
1549 9980 5722
1550 8251 3741
1551 5306 1720
1552 3774 6223
1553 5882 8890
1554 6358 5627
1555 321  6473
1556 614  7340
1557 2948 6241
1558 6046 8568
1559 2607 6060
1560 5790 1116
1561 4285 8620
1562 2913 8616
1563 4306 316 
1564 9923 2500
1565 6670 3592
1566 2019 6040
1567 9245 5373
1568 8010 3864
1569 7521 6789
1570 2280 4860
1571 3001 8099
1572 8291 9144
1573 665  9917
1574 6991 685 
1575 6887 2272
1576 8137 2715
1577 7562 689 
1578 603  376 
1579 5975 331 
1580 6235 3949
1581 8600 9742
1582 7111 2096
1583 1394 3868
1584 1503 7102
1585 3999 8117
1586 1670 9402
1587 5020 6252
1588 6189 9237
1589 8078 5020
1590 8236 1940
1591 7338 747 
1592 2954 8580
1593 1857 3692
1594 7553 2839
1595 5816 4326
1596 6762 2285
1597 5308 2659
1598 6840 1091
1599 9883 874 
1600 1023 5674
1601 8806 3496
1602 5802 944 
1603 6420 350 
1604 3115 9339
1605 6455 9415
1606 6189 5355
1607 1961 673 
1608 18   2513
1609 8317 5782
1610 9012 5994
1611 5103 841 
1612 3018 672 
1613 8688 2253
1614 5805 6497
1615 8875 9412
1616 8208 3620
1617 693  3361
1618 3732 6978
1619 1268 7595
1620 1992 4564
1621 1523 4054
1622 5983 6932
1623 5976 2283
1624 2242 5636
1625 1893 7229
1626 9378 2385
1627 6252 6901
1628 4308 1591
1629 5504 7085
1630 3137 1061
1631 9916 9377
1632 161  806 
1633 1433 1716
1634 2699 8687
1635 5687 3896
1636 1731 2491
1637 2174 1318
1638 1545 3367
1639 4352 3552
1640 497  4947
1641 9589 1441
1642 8427 5347
1643 5808 6167
1644 4311 386 
1645 7672 7481
1646 679  7594
1647 2867 2829
1648 9640 529 
1649 6102 924 
1650 4964 1528
1651 2346 8681
1652 1790 8545
1653 9253 9292
1654 7311 7754
1655 8962 9399
1656 190  6161
1657 9054 5221
1658 2652 1531
1659 5967 7012
1660 6459 1733
1661 394  3901
1662 4595 1601
1663 5510 716 
1664 3536 8903
1665 1354 4715
1666 1814 5275
1667 9524 9698
1668 3448 5925
1669 2873 6171
1670 5896 9359
1671 5474 1370
1672 6674 9807
1673 4519 6646
1674 509  2053
1675 6994 8259
1676 2160 9924
1677 4153 2450
1678 5588 8116
1679 7074 1470
1680 8195 520 
1681 7373 4467
1682 5882 8679
1683 3099 9890
1684 441  5251
1685 3930 7341
1686 3726 1974
1687 3847 4245
1688 7441 4646
1689 8725 3392
1690 9434 1306
1691 8972 8634
1692 665  7800
1693 5618 2382
1694 4100 8740
1695 9023 3916
1696 1086 8209
1697 2906 6053
1698 961  5416
1699 1645 947 
1700 4561 4816
1701 3758 4002
1702 4219 7580
1703 4810 9866
1704 6354 5262
1705 6205 8704
1706 8927 4209
1707 2802 1328
1708 5650 8998
1709 12   1220
1710 4356 825 
1711 4249 5283
1712 8951 7588
1713 7030 1123
1714 7865 3658
1715 3799 956 
1716 3920 6428
1717 8883 6383
1718 2562 4625
1719 3760 7148
1720 2742 7299
1721 8019 2494
1722 6460 6212
1723 7963 6939
1724 8046 3941
1725 5648 2762
1726 4986 4906
1727 3568 9977
1728 5534 2766
1729 8886 4187
1730 5143 9181
1731 9232 1469
1732 9403 1104
1733 5390 9114
1734 6197 2570
1735 8672 1662
1736 7623 4471
1737 2108 4339
1738 2065 911 
1739 3134 3949
1740 2357 239 
1741 845  7074
1742 5328 2608
1743 6864 3428
1744 7233 2285
1745 4604 9046
1746 6624 1329
1747 8496 7687
1748 7261 8180
1749 8456 5013
1750 2190 5400
1751 9959 690 
1752 3333 5338
1753 4621 5704
1754 7519 4693
1755 2804 7601
1756 4303 5869
1757 9800 1432
1758 9705 9141
1759 8103 7897
1760 2769 9270
1761 6336 7658
1762 9886 9427
1763 5631 1716
1764 3777 5770
1765 582  6503
1766 9182 3651
1767 5061 1831
1768 6409 4547
1769 9714 4516
1770 5847 5320
1771 3913 4240
1772 6088 2480
1773 8029 5370
1774 1674 3106
1775 7114 9954
1776 8061 4093
1777 8588 525 
1778 8679 588 
1779 6095 7883
1780 9700 2042
1781 2838 3666
1782 2617 3362
1783 2532 4191
1784 3632 7815
1785 6287 3761
1786 7868 2610
1787 7515 2842
1788 7161 1670
1789 6607 3845
1790 5914 4469
1791 5968 9695
1792 9344 7348
1793 9623 2806
1794 6992 8264
1795 2545 4158
1796 4158 5320
1797 949  3138
1798 2541 8125
1799 1059 4134
1800 4820 4688
1801 2979 239 
1802 1520 9904
1803 7125 1434
1804 5688 6888
1805 3658 2983
1806 3767 8386
1807 4165 7086
1808 8584 19  
1809 4979 9250
1810 7840 9712
1811 6947 7015
1812 473  8264
1813 4238 3394
1814 2525 9381
1815 5463 1479
1816 476  5521
1817 979  1629
1818 7980 82  
1819 369  6252
1820 3580 7642
1821 6552 5940
1822 8583 5417
1823 9517 1464
1824 3725 5338
1825 9735 7742
1826 5657 2523
1827 8374 745 
1828 3860 2195
1829 1138 3723
1830 5161 7929
1831 8087 4281
1832 7675 416 
1833 2709 8276
1834 9518 2213
1835 5623 6908
1836 4966 5940
1837 9243 4682
1838 7484 2861
1839 7191 3597
1840 3163 2601
1841 2654 5613
1842 5099 9456
1843 9062 2760
1844 6900 3032
1845 8951 1460
1846 2960 533 
1847 8720 500 
1848 4330 5632
1849 6893 726 
1850 1070 273 
1851 2556 1117
1852 6340 6545
1853 3100 4775
1854 2057 7737
1855 2347 7955
1856 4893 8102
1857 6248 5772
1858 883  3933
1859 8881 9182
1860 1588 8011
1861 3070 8310
1862 8060 8355
1863 8992 4038
1864 8048 9883
1865 5001 177 
1866 2949 1782
1867 9023 2275
1868 8639 7669
1869 8059 8067
1870 1611 9799
1871 3680 6299
1872 8205 8557
1873 9969 2695
1874 7906 9864
1875 7516 9308
1876 3964 2312
1877 182  4553
1878 655  9582
1879 3310 4290
1880 1670 6800
1881 4384 9308
1882 205  8971
1883 2567 2921
1884 1758 7974
1885 1332 7116
1886 9044 9525
1887 3848 9035
1888 4336 5692
1889 5293 9406
1890 5832 1989
1891 6151 6548
1892 880  433 
1893 558  2890
1894 9024 8500
1895 1470 9859
1896 3233 6512
1897 6951 7270
1898 9017 8987
1899 5531 2486
1900 6222 438 
1901 9731 3791
1902 6751 4189
1903 7658 1886
1904 538  509 
1905 5094 3658
1906 8316 4380
1907 8198 4653
1908 2967 1176
1909 9438 5560
1910 7306 7522
1911 8077 1100
1912 4496 2148
1913 5956 1103
1914 4592 6909
1915 368  8962
1916 2409 3955
1917 9328 1453
1918 6959 383 
1919 4404 6899
1920 4487 2108
1921 5597 4050
1922 2390 5816
1923 7164 574 
1924 8487 780 
1925 6215 9613
1926 156  8552
1927 3134 2198
1928 5263 7997
1929 3875 5532
1930 624  6547
1931 7203 844 
1932 6320 7299
1933 7824 9275
1934 2598 2722
1935 8724 4295
1936 6265 2529
1937 9341 4613
1938 7185 4882
1939 2553 6928
1940 6423 5509
1941 8271 344 
1942 5309 893 
1943 8629 4790
1944 9977 5586
1945 3979 800 
1946 5042 8445
1947 9888 7688
1948 3141 8130
1949 8628 730 
1950 9958 4006
1951 6836 2968
1952 7099 6901
1953 9685 8599
1954 9501 2552
1955 9596 5787
1956 6307 231 
1957 5768 1008
1958 5192 4634
1959 6530 8273
1960 8917 973 
1961 593  7442
1962 2255 7469
1963 3929 9279
1964 7352 785 
1965 1123 9642
1966 7307 7702
1967 5893 7961
1968 4062 9745
1969 9760 7140
1970 3188 7249
1971 1037 3050
1972 3103 6045
1973 8421 912 
1974 8776 9014
1975 9969 4674
1976 7290 7112
1977 544  9801
1978 8461 2270
1979 4337 3515
1980 4943 6737
1981 761  287 
1982 5263 5859
1983 8393 4117
1984 8714 7725
1985 7887 7423
1986 7575 4361
1987 5083 9288
1988 3040 4958
1989 2653 1306
1990 898  9852
1991 9576 821 
1992 8119 4392
1993 9292 9982
1994 3200 3620
1995 5038 2056
1996 960  6752
1997 7942 1729
1998 5643 1620
1999 6438 983 
2000 7112 8134
2001 4669 729 
2002 9617 2491
2003 2496 1728
2004 1495 6480
2005 3081 2997
2006 8507 6994
2007 9244 4969
2008 5276 1366
2009 3036 1302
2010 1458 757 
2011 6488 7466
2012 4943 4212
2013 7064 3459
2014 9381 9716
2015 720  6261
2016 3725 3882
2017 2215 7194
2018 332  8729
2019 3184 1589
2020 1954 1571
2021 1726 7175
2022 8949 3949
2023 6502 2021
2024 2495 5956
2025 9899 1855
2026 32   345 
2027 1166 5670
2028 6643 4901
2029 6474 1909
2030 5293 6461
2031 7062 166 
2032 8401 1840
2033 9637 1047
2034 5726 8513
2035 2649 1905
2036 5447 5414
2037 7434 1452
2038 2720 5740
2039 5094 7870
2040 2392 4162
2041 5593 5174
2042 7228 5043
2043 6133 2003
2044 6272 7388
2045 7702 8941
2046 3535 4736
2047 727  6615
2048 3282 2269
2049 7679 1566
2050 9927 809 
2051 3774 6491
2052 9785 9021
2053 4115 9714
2054 9382 4018
2055 1679 7437
2056 5220 582 
2057 1770 4849
2058 9943 3959
2059 6158 4398
2060 8248 5900
2061 6058 5917
2062 5631 5877
2063 6760 7449
2064 46   7185
2065 8213 890 
2066 4889 6097
2067 8354 4201
2068 922  3679
2069 2105 7904
2070 3894 9404
2071 3822 1172
2072 3992 341 
2073 2635 8691
2074 3579 2465
2075 8901 5610
2076 5754 482 
2077 8226 9536
2078 7141 6427
2079 2925 8095
2080 2230 4223
2081 9131 8563
2082 5883 8564
2083 1189 805 
2084 3350 1389
2085 385  177 
2086 3053 7163
2087 4871 4665
2088 6774 370 
2089 2462 6465
2090 7841 396 
2091 6330 1082
2092 5829 8556
2093 794  5821
2094 6795 1052
2095 3791 2783
2096 8230 9845
2097 9870 4952
2098 523  85  
2099 8774 239 
2100 3008 8189
2101 617  2726
2102 7725 3319
2103 8646 2342
2104 310  7214
2105 9919 8717
2106 8136 4934
2107 8497 5486
2108 8011 2471
2109 4871 1934
2110 3902 225 
2111 5049 2283
2112 6943 295 
2113 8352 1114
2114 6015 4940
2115 5797 6645
2116 2826 6039
2117 4540 7949
2118 8915 3178
2119 270  163 
2120 4973 2485
2121 8581 6659
2122 4982 3833
2123 725  8442
2124 6875 4571
2125 8736 9850
2126 7457 3436
2127 3190 81  
2128 7003 9523
2129 6464 4107
2130 9471 9081
2131 8454 2225
2132 9457 5660
2133 9001 4195
2134 7558 4084
2135 6109 3458
2136 2483 4406
2137 3802 3953
2138 517  2177
2139 7290 2392
2140 3267 9228
2141 389  2991
2142 2438 9765
2143 6965 5614
2144 8964 1874
2145 8052 9057
2146 8713 3798
2147 564  6698
2148 2865 7926
2149 8485 5562
2150 1711 7753
2151 8307 4896
2152 9807 1129
2153 6085 9473
2154 2111 2410
2155 1759 7900
2156 1566 4012
2157 2690 5788
2158 5123 7574
2159 161  1787
2160 2117 6041
2161 2651 226 
2162 267  499 
2163 3514 4436
2164 9002 9159
2165 3382 7180
2166 4825 6387
2167 6041 7129
2168 8931 7477
2169 2849 3635
2170 7482 9835
2171 1431 6009
2172 374  8948
2173 3894 5517
2174 9511 4132
2175 617  989 
2176 4905 3076
2177 3961 1908
2178 385  2795
2179 1875 52  
2180 736  7640
2181 5764 5681
2182 4576 781 
2183 235  7939
2184 6599 9982
2185 5748 156 
2186 8463 3912
2187 8932 9206
2188 108  1014
2189 1984 7511
2190 2041 1834
2191 5451 1579
2192 5521 5821
2193 195  318 
2194 7609 8590
2195 5    2421
2196 9181 493 
2197 7534 3668
2198 5395 6913
2199 1299 6675
2200 3250 5370
2201 5958 8493
2202 7887 270 
2203 9330 5323
2204 6779 3451
2205 7577 0   
2206 7234 2725
2207 8195 5828
2208 6629 6738
2209 2244 2417
2210 6699 9755
2211 5378 7320
2212 2630 529 
2213 6831 7863
2214 3116 5324
2215 6585 2285
2216 1986 1625
2217 2326 2645
2218 6316 3522
2219 9545 3137
2220 6518 8685
2221 2851 4298
2222 547  7169
2223 3403 4489
2224 2291 5538
2225 8499 1590
2226 3485 6532
2227 1430 5846
2228 1967 7385
2229 374  2703
2230 7845 7545
2231 8134 4770
2232 3154 3090
2233 560  7289
2234 3068 9690
2235 2133 7057
2236 4791 2029
2237 5783 7724
2238 4881 5969
2239 9660 4679
2240 2604 591 
2241 139  4849
2242 408  1906
2243 8185 9284
2244 4695 2673
2245 8805 4313
2246 2937 2555
2247 6449 8310
2248 8698 4592
2249 1155 4378
2250 7264 1391
2251 9017 1093
2252 626  1381
2253 2091 578 
2254 976  9271
2255 2201 5735
2256 6946 4279
2257 4125 5206
2258 8690 6726
2259 8143 4584
2260 6430 6512
2261 8477 7279
2262 807  9064
2263 4302 6935
2264 9325 7851
2265 6810 7855
2266 2863 17  
2267 504  9843
2268 9438 2741
2269 9885 2026
2270 4061 4650
2271 2925 4880
2272 5819 2739
2273 339  4453
2274 8830 5226
2275 5837 7571
2276 2545 6893
2277 8579 5905
2278 3196 7340
2279 744  3770
2280 9144 8703
2281 6553 6492
2282 7476 1006
2283 3854 60  
2284 8122 3444
2285 7439 7947
2286 8932 2124
2287 4786 3433
2288 888  1132
2289 4477 7833
2290 9614 1826
2291 9753 2198
2292 7466 4962
2293 7183 1302
2294 714  8357
2295 8138 3436
2296 6501 3693
2297 4890 2242
2298 7597 2876
2299 8369 8472
2300 7252 4563
2301 7569 7671
2302 3198 2131
2303 9651 6251
2304 9909 600 
2305 2773 6233
2306 7840 9307
2307 9936 522 
2308 6544 8892
2309 6829 9319
2310 3937 9929
2311 5398 3073
2312 2396 492 
2313 4668 5926
2314 3113 4524
2315 3947 941 
2316 9226 4063
2317 7329 5048
2318 4851 6332
2319 5101 8045
2320 7768 8434
2321 1945 9523
2322 5832 1216
2323 4363 2237
2324 5430 4009
2325 918  306 
2326 9136 1400
2327 666  7430
2328 5634 6353
2329 190  5057
2330 2857 7200
2331 5574 9159
2332 9517 5671
2333 3920 9383
2334 8095 8252
2335 4410 7034
2336 3848 4501
2337 8923 4486
2338 4917 6730
2339 74   5243
2340 1651 9888
2341 5481 6758
2342 7207 3892
2343 7112 2627
2344 2907 8206
2345 914  1009
2346 574  3435
2347 8852 3484
2348 9749 6282
2349 2689 3371
2350 9845 1746
2351 659  747 
2352 6171 8796
2353 5315 7800
2354 4828 8336
2355 4812 762 
2356 3943 5656
2357 3578 8124
2358 9208 3417
2359 8232 9224
2360 1613 7699
2361 7226 3696
2362 4049 3377
2363 8627 5534
2364 5783 5715
2365 2768 9067
2366 8849 1640
2367 1126 8540
2368 9073 3838
2369 7284 1153
2370 8422 1621
2371 2351 8394
2372 5109 2462
2373 5465 6106
2374 1871 4800
2375 551  6544
2376 4229 128 
2377 7631 3721
2378 5998 9955
2379 1450 8224
2380 9212 5587
2381 1735 8681
2382 2278 7273
2383 3801 5147
2384 9152 7952
2385 8635 7006
2386 4435 4429
2387 8370 9973
2388 4155 9634
2389 3298 9691
2390 752  6956
2391 6149 4830
2392 2201 5311
2393 3780 5711
2394 7238 8970
2395 1315 5845
2396 2144 1680
2397 9767 9238
2398 7386 1529
2399 7224 7400
2400 3139 1078
2401 3587 8673
2402 8550 793 
2403 2843 9739
2404 2346 8311
2405 2695 3997
2406 8073 8857
2407 3420 9599
2408 753  7657
2409 7085 5702
2410 9545 971 
2411 407  2234
2412 4394 1178
2413 1432 6807
2414 9793 2837
2415 2371 9068
2416 6361 9817
2417 484  5550
2418 9937 7074
2419 5767 6590
2420 7345 7715
2421 699  4017
2422 6533 8535
2423 2648 3838
2424 666  7008
2425 5221 754 
2426 9844 3134
2427 2817 559 
2428 9354 5304
2429 2149 5172
2430 2766 7930
2431 7599 5192
2432 6660 4649
2433 8816 6953
2434 519  365 
2435 9701 8621
2436 4513 1729
2437 6049 5313
2438 9335 2099
2439 8425 2144
2440 9992 4888
2441 9018 1763
2442 8128 593 
2443 4400 3745
2444 6989 8764
2445 758  9138
2446 3154 4125
2447 8035 7078
2448 2151 1393
2449 8387 8231
2450 5567 414 
2451 2548 8268
2452 6300 4350
2453 2410 6833
2454 3632 3843
2455 5067 9289
2456 7943 4984
2457 6305 1285
2458 2260 1958
2459 3368 357 
2460 983  420 
2461 92   9188
2462 453  901 
2463 1403 9138
2464 999  1490
2465 430  1167
2466 2049 7004
2467 6409 7000
2468 2899 9387
2469 8935 9161
2470 9479 4783
2471 1017 3903
2472 170  431 
2473 7234 9046
2474 8471 8821
2475 9361 8473
2476 4604 6171
2477 3401 5330
2478 1949 2362
2479 5697 8665
2480 4946 2402
2481 6094 6387
2482 1023 6227
2483 1635 9386
2484 4259 3188
2485 5874 262 
2486 6248 5373
2487 2478 7989
2488 5238 9980
2489 2587 7328
2490 1754 3736
2491 1215 2726
2492 5993 7104
2493 7026 2947
2494 9777 5899
2495 9172 1556
2496 2962 8871
2497 6641 3427
2498 2145 1628
2499 3350 9591
2500 7350 8141
2501 7222 6956
2502 1607 2182
2503 939  1161
2504 9845 4264
2505 3746 6178
2506 6248 209 
2507 8983 786 
2508 7193 951 
2509 2847 8198
2510 1109 6767
2511 6758 1159
2512 7765 2472
2513 3961 7015
2514 2693 1555
2515 9059 233 
2516 63   759 
2517 7118 1827
2518 4537 360 
2519 776  5872
2520 855  1863
2521 6841 5191
2522 5475 5695
2523 246  4274
2524 8453 7927
2525 2335 8543
2526 5430 4628
2527 5764 5916
2528 3412 9241
2529 5060 2662
2530 9054 8437
2531 9806 7717
2532 5756 8591
2533 5051 561 
2534 8793 3616
2535 9965 4008
2536 3868 8173
2537 8576 9155
2538 8624 5543
2539 4390 360 
2540 2746 9472
2541 3733 7529
2542 1246 4095
2543 640  2335
2544 8364 4092
2545 6935 5380
2546 9379 7663
2547 441  8165
2548 9767 3853
2549 5002 8207
2550 1443 7977
2551 49   9901
2552 1884 8889
2553 1163 5319
2554 7174 3049
2555 8086 311 
2556 9712 6826
2557 7967 7923
2558 1016 8869
2559 4083 1860
2560 700  6484
2561 8765 975 
2562 3170 5563
2563 7021 4993
2564 9725 49  
2565 1831 6625
2566 5314 7007
2567 708  4207
2568 6077 6901
2569 2538 6937
2570 4956 9071
2571 8599 2016
2572 5037 6301
2573 5546 2170
2574 213  6636
2575 5813 7948
2576 7721 8088
2577 657  7556
2578 3930 3343
2579 5321 3258
2580 3722 9958
2581 4931 927 
2582 7753 7563
2583 5903 3815
2584 4029 2926
2585 6783 6869
2586 2721 6091
2587 4942 7633
2588 8644 5737
2589 1962 3344
2590 3444 2593
2591 7629 7258
2592 7553 5009
2593 4195 1077
2594 8576 9797
2595 863  9368
2596 3914 509 
2597 782  5698
2598 9596 9049
2599 3241 3949
2600 8624 8907
2601 5368 2760
2602 9710 5810
2603 6476 485 
2604 7121 2188
2605 5546 3649
2606 190  6264
2607 3312 6194
2608 1921 6370
2609 3444 3162
2610 3277 8898
2611 65   3738
2612 9826 1301
2613 192  7440
2614 2193 2070
2615 2424 6924
2616 3853 6889
2617 2965 9841
2618 867  5946
2619 4537 7837
2620 4679 8878
2621 454  3719
2622 7358 7875
2623 3391 8492
2624 2124 6161
2625 1082 2246
2626 6271 7392
2627 5308 9337
2628 8336 1575
2629 8756 3504
2630 9702 833 
2631 2584 3866
2632 4825 4397
2633 6483 108 
2634 6628 7235
2635 5290 5050
2636 5691 1566
2637 1743 6372
2638 935  2775
2639 1250 5510
2640 1564 8829
2641 4760 6884
2642 7742 2987
2643 3103 4215
2644 2163 545 
2645 2026 3574
2646 2647 1203
2647 7784 8119
2648 2818 8776
2649 8442 9667
2650 1834 8972
2651 4512 3239
2652 4141 8976
2653 8410 8521
2654 3688 6313
2655 1591 4994
2656 5290 7067
2657 422  7290
2658 8548 3742
2659 2226 2068
2660 7580 2712
2661 5270 6200
2662 2844 752 
2663 3642 7004
2664 4263 1715
2665 9074 233 
2666 3112 5596
2667 7267 3133
2668 8654 6030
2669 3043 8893
2670 5033 2209
2671 4159 7559
2672 8533 7516
2673 5269 1282
2674 7696 9851
2675 1712 7129
2676 9472 2025
2677 1130 2582
2678 1486 2684
2679 7367 3584
2680 300  1435
2681 1997 9539
2682 6785 7674
2683 6786 9462
2684 3144 9693
2685 2795 8571
2686 601  9236
2687 8636 9248
2688 8801 3014
2689 1226 8477
2690 3260 524 
2691 992  950 
2692 679  878 
2693 7536 3359
2694 3318 4246
2695 9732 3812
2696 50   8475
2697 5222 7223
2698 5330 7977
2699 6423 4865
2700 7537 5488
2701 4303 8301
2702 1850 6836
2703 726  5078
2704 9007 7456
2705 8470 9007
2706 7548 7072
2707 167  7726
2708 4335 8621
2709 7176 7544
2710 4166 4806
2711 8921 6213
2712 746  7314
2713 2006 841 
2714 959  3198
2715 7132 2361
2716 6764 3905
2717 4825 6596
2718 2201 6969
2719 1000 5620
2720 345  6925
2721 7432 1608
2722 8794 4395
2723 1953 1609
2724 6897 9452
2725 6067 4301
2726 5576 2556
2727 4348 7898
2728 9880 3541
2729 1284 5633
2730 6616 9608
2731 3293 5682
2732 6650 9684
2733 506  5792
2734 6190 2733
2735 5929 5034
2736 1668 8890
2737 1440 4703
2738 817  6092
2739 1106 9151
2740 9286 2098
2741 9074 9999
2742 130  9727
2743 6001 8427
2744 4493 2223
2745 3503 245 
2746 29   354 
2747 9651 4244
2748 8676 19  
2749 9628 4035
2750 5874 1916
2751 5888 5214
2752 2310 4783
2753 7749 113 
2754 3862 2501
2755 5623 9027
2756 4808 2803
2757 6111 5019
2758 2282 7514
2759 6088 4432
2760 3148 1160
2761 4173 1079
2762 5062 2763
2763 2125 2553
2764 1604 3695
2765 1280 5778
2766 4503 5187
2767 4125 6861
2768 5284 1944
2769 2579 6080
2770 4482 4859
2771 612  8363
2772 3081 8322
2773 8072 2475
2774 4132 4719
2775 8757 4899
2776 8065 4677
2777 9401 5467
2778 5653 6919
2779 1778 6388
2780 8586 6857
2781 3842 3185
2782 9665 7280
2783 5082 4233
2784 9496 8143
2785 6933 1125
2786 162  5273
2787 5530 5482
2788 1111 8012
2789 5806 9833
2790 9860 2975
2791 1550 7528
2792 6341 1546
2793 7326 4864
2794 6584 1297
2795 5054 5251
2796 9869 1391
2797 7446 4196
2798 9081 5346
2799 8290 9669
2800 9700 1441
2801 7598 1611
2802 7414 4059
2803 1197 1870
2804 9728 7974
2805 3368 8349
2806 326  5656
2807 1762 9369
2808 1893 1922
2809 483  5614
2810 2043 1089
2811 8028 3614
2812 865  6971
2813 5435 5735
2814 878  9578
2815 7245 3277
2816 2040 2300
2817 392  7649
2818 9591 9873
2819 2280 7723
2820 5456 40  
2821 5368 1232
2822 4744 8895
2823 1425 5462
2824 647  2929
2825 971  2648
2826 9927 1227
2827 2500 8117
2828 7593 7834
2829 7347 9875
2830 5370 7521
2831 2878 1077
2832 2423 2620
2833 8518 2719
2834 2055 1586
2835 1316 3319
2836 3238 2221
2837 2467 8154
2838 8462 6818
2839 3840 8898
2840 2308 2570
2841 5127 9071
2842 1094 3868
2843 3817 7177
2844 2586 9922
2845 1587 1945
2846 3700 646 
2847 8744 5681
2848 6894 7988
2849 2970 7181
2850 129  7883
2851 5179 4124
2852 1622 2293
2853 5587 7186
2854 6336 4373
2855 4699 6383
2856 8065 2331
2857 5534 7990
2858 9750 6564
2859 6455 8038
2860 6827 498 
2861 8564 1041
2862 6384 7507
2863 3957 6223
2864 1735 9627
2865 6405 7084
2866 3513 6662
2867 2370 9354
2868 2003 6380
2869 7889 6361
2870 2743 9935
2871 4159 1534
2872 7415 9342
2873 1269 4655
2874 5189 1930
2875 6267 6907
2876 2564 8997
2877 5169 442 
2878 2564 1749
2879 5057 8032
2880 5958 250 
2881 1433 316 
2882 839  7145
2883 6420 6413
2884 8622 5226
2885 3698 1014
2886 4699 7896
2887 1188 8805
2888 1310 5865
2889 1994 103 
2890 4661 671 
2891 3108 8758
2892 4326 5105
2893 6177 1782
2894 4197 2379
2895 929  5466
2896 5754 585 
2897 388  5744
2898 2244 1531
2899 6938 3743
2900 5155 7794
2901 1074 3155
2902 9716 9096
2903 9748 9819
2904 3579 5396
2905 4049 4459
2906 2623 2554
2907 7420 6056
2908 7009 175 
2909 3263 5206
2910 3294 305 
2911 8278 1163
2912 1818 333 
2913 5904 6450
2914 7937 7073
2915 5801 6651
2916 8485 9485
2917 5094 803 
2918 3125 2910
2919 1693 5613
2920 966  1786
2921 5278 9330
2922 185  8368
2923 3129 8997
2924 1374 8427
2925 5849 9197
2926 7112 6921
2927 4344 9506
2928 3639 762 
2929 2676 5349
2930 6072 3713
2931 5008 7751
2932 1873 1746
2933 5371 8858
2934 4535 7281
2935 4583 173 
2936 4917 6558
2937 3954 5119
2938 1376 7465
2939 5467 9398
2940 788  4858
2941 1341 5074
2942 9789 1181
2943 1210 6908
2944 2563 5013
2945 7981 102 
2946 5642 564 
2947 5591 5935
2948 4690 1023
2949 2219 6380
2950 2052 3849
2951 3852 3694
2952 3790 7903
2953 200  6059
2954 8748 7751
2955 3462 2241
2956 5038 8152
2957 7446 5957
2958 5244 9174
2959 5100 3141
2960 4473 9453
2961 3642 2085
2962 5084 5263
2963 2882 739 
2964 76   6869
2965 9369 7197
2966 3976 1177
2967 1197 6465
2968 229  4752
2969 622  6725
2970 3397 1617
2971 1618 3025
2972 8848 7220
2973 2182 8986
2974 8539 2787
2975 3386 1593
2976 6913 5772
2977 5072 1316
2978 2164 1205
2979 4338 7342
2980 4387 6836
2981 340  4321
2982 2491 3091
2983 9377 7503
2984 5163 8535
2985 2867 3136
2986 7300 1983
2987 370  2091
2988 6962 5335
2989 4353 6805
2990 3941 2795
2991 4045 4036
2992 4870 97  
2993 7475 7471
2994 5292 7231
2995 7061 9727
2996 2127 5746
2997 4312 2366
2998 5397 3417
2999 8391 1390
3000 9923 1468
3001 4830 5744
3002 709  4544
3003 9504 8445
3004 5517 6753
3005 4706 5321
3006 2229 6683
3007 9687 9641
3008 4193 8043
3009 970  9731
3010 2514 7341
3011 8510 3061
3012 7588 7813
3013 6715 3859
3014 8850 5434
3015 8058 1599
3016 4119 397 
3017 7441 6341
3018 6982 2279
3019 4981 4896
3020 7802 5379
3021 6381 2289
3022 7561 4560
3023 4544 80  
3024 1300 4360
3025 5514 8456
3026 166  2663
3027 316  188 
3028 2070 4847
3029 4445 2421
3030 163  7891
3031 905  5701
3032 4475 962 
3033 2492 825 
3034 206  6858
3035 4949 514 
3036 4153 6298
3037 279  8885
3038 3184 672 
3039 6026 8577
3040 5681 3223
3041 379  6042
3042 1741 5858
3043 1420 1613
3044 6838 1317
3045 6437 2292
3046 5590 3656
3047 9939 1180
3048 2723 6806
3049 3303 2939
3050 9011 2801
3051 9468 5696
3052 103  5565
3053 130  7206
3054 8306 3352
3055 5209 9509
3056 1652 7199
3057 2733 2683
3058 3514 5904
3059 9199 1550
3060 9222 1807
3061 3456 5698
3062 2906 6841
3063 207  9004
3064 4405 7513
3065 956  7076
3066 3099 2235
3067 5176 4551
3068 294  5099
3069 4525 6809
3070 4215 2595
3071 1828 7673
3072 9919 1803
3073 1633 7768
3074 7092 2499
3075 6170 67  
3076 2031 5348
3077 8808 8187
3078 2295 9846
3079 2602 3225
3080 5443 3998
3081 8178 7305
3082 7297 8295
3083 3175 3528
3084 3805 9466
3085 4059 1373
3086 7416 372 
3087 1900 8802
3088 2510 7345
3089 7289 234 
3090 3524 4307
3091 4235 9449
3092 9918 5526
3093 9543 6174
3094 8754 8774
3095 5148 2356
3096 423  574 
3097 4921 4137
3098 8970 5442
3099 17   3836
3100 5919 2674
3101 4143 7381
3102 609  9327
3103 3197 3831
3104 9641 3428
3105 8613 7036
3106 4342 5183
3107 6786 7803
3108 9064 4707
3109 803  4650
3110 5574 5343
3111 9070 6700
3112 6876 7170
3113 4521 9195
3114 6398 3134
3115 7097 1923
3116 7066 1266
3117 1400 7124
3118 4259 9093
3119 4403 3399
3120 6743 1583
3121 2112 4298
3122 1525 1804
3123 2599 6710
3124 2538 9931
3125 5101 7682
3126 3918 69  
3127 1710 6201
3128 4489 9500
3129 2606 1421
3130 127  2102
3131 6517 5930
3132 7222 4903
3133 3937 9020
3134 8930 7279
3135 658  1150
3136 2903 4441
3137 3328 5467
3138 3968 6862
3139 582  405 
3140 4983 3227
3141 364  6741
3142 1301 2030
3143 127  7261
3144 1037 2020
3145 3544 9338
3146 9940 5562
3147 8395 4868
3148 6452 8054
3149 3792 2308
3150 2983 1441
3151 3238 3814
3152 6547 4433
3153 3835 9587
3154 9882 6684
3155 813  1382
3156 736  4837
3157 5458 6004
3158 9090 455 
3159 220  946 
3160 281  8703
3161 5896 1366
3162 1234 7259
3163 1470 1651
3164 3003 8122
3165 2316 7008
3166 1071 1493
3167 787  214 
3168 2643 9933
3169 5928 9340
3170 5969 9134
3171 4666 9135
3172 6030 1898
3173 8222 271 
3174 4172 5901
3175 5735 4472
3176 9320 9225
3177 7709 8790
3178 2250 3381
3179 7117 3529
3180 9291 9746
3181 9862 8497
3182 1766 3058
3183 8559 6488
3184 6369 4306
3185 7291 3484
3186 457  27  
3187 9040 9982
3188 7459 3105
3189 223  6469
3190 7865 2042
3191 6226 9680
3192 3422 5738
3193 9616 7160
3194 4173 9196
3195 8761 7684
3196 3342 626 
3197 8194 3755
3198 6627 1990
3199 5237 4625
3200 2182 2897
3201 3937 6772
3202 2992 1585
3203 7710 5539
3204 1842 2500
3205 9387 1654
3206 2593 2639
3207 4255 2929
3208 7773 2797
3209 1595 9931
3210 1850 8272
3211 8778 9472
3212 9693 794 
3213 7575 4967
3214 158  6829
3215 5320 6437
3216 9771 4452
3217 5617 585 
3218 4184 6581
3219 3928 4277
3220 1519 2490
3221 2472 5882
3222 1269 6959
3223 7940 8713
3224 4896 751 
3225 3061 256 
3226 4522 4742
3227 4338 3674
3228 1324 8095
3229 266  2132
3230 7746 3704
3231 6758 7599
3232 1879 359 
3233 6214 5316
3234 7134 5621
3235 3117 8963
3236 9406 8642
3237 6079 9494
3238 8990 144 
3239 8008 690 
3240 4214 7147
3241 2665 4146
3242 587  754 
3243 6779 1890
3244 9438 6982
3245 2904 1790
3246 9016 5267
3247 4603 1012
3248 3711 7982
3249 6304 7495
3250 5318 574 
3251 3818 9138
3252 9686 5732
3253 2450 5734
3254 6154 5006
3255 200  2589
3256 6846 819 
3257 6436 6495
3258 5849 2152
3259 8581 1666
3260 4192 1180
3261 7950 2923
3262 4739 5007
3263 285  6300
3264 2026 1521
3265 7396 741 
3266 7929 2034
3267 5823 8179
3268 1843 8336
3269 232  1205
3270 7687 2828
3271 7440 8896
3272 6057 7533
3273 1935 2358
3274 7606 6423
3275 1034 9930
3276 7231 922 
3277 3681 8869
3278 9446 6516
3279 4035 5087
3280 172  8863
3281 216  6304
3282 6519 3589
3283 7236 2415
3284 3393 1167
3285 8925 6404
3286 9855 6142
3287 680  25  
3288 9074 8269
3289 7327 8189
3290 895  6918
3291 9191 9868
3292 9139 2394
3293 5663 3600
3294 7934 2172
3295 7381 5220
3296 6091 3701
3297 7769 547 
3298 9885 6106
3299 404  8027
3300 2516 1360
3301 7388 7327
3302 5742 8170
3303 2134 5307
3304 5222 5215
3305 7933 9248
3306 8919 3296
3307 5109 7595
3308 7960 331 
3309 2159 3350
3310 5812 3703
3311 498  5420
3312 3728 9928
3313 6105 7507
3314 574  3549
3315 6228 6013
3316 4046 6668
3317 2794 8856
3318 7064 1175
3319 9089 8436
3320 3672 1268
3321 6934 2100
3322 4511 8178
3323 9608 4726
3324 5169 8670
3325 3272 1149
3326 2655 5655
3327 7046 9612
3328 5341 4688
3329 8302 6390
3330 7388 4489
3331 496  4470
3332 1244 258 
3333 1064 1960
3334 3802 1700
3335 6071 1370
3336 9197 7123
3337 9446 8721
3338 341  5293
3339 377  637 
3340 4479 3720
3341 7039 2020
3342 2184 3147
3343 943  7488
3344 1142 3088
3345 1035 9123
3346 5544 7475
3347 4205 7404
3348 293  5605
3349 5862 9030
3350 731  2936
3351 9894 3996
3352 1129 5621
3353 4599 5277
3354 8924 9687
3355 6460 5782
3356 3292 1776
3357 6213 1678
3358 6520 6265
3359 4255 1773
3360 3352 2892
3361 9435 34  
3362 3115 3890
3363 650  2917
3364 3961 6512
3365 6877 3356
3366 2567 2671
3367 1136 4895
3368 9932 2821
3369 7215 3804
3370 927  9974
3371 8605 6146
3372 5136 3091
3373 4634 5261
3374 1725 2107
3375 9370 9850
3376 2606 9694
3377 4807 8216
3378 254  3208
3379 8717 9627
3380 88   290 
3381 655  1618
3382 1907 1357
3383 1344 1993
3384 6739 3053
3385 2252 381 
3386 8466 2282
3387 4330 8767
3388 6719 6955
3389 1645 7074
3390 6728 5197
3391 8476 2103
3392 3481 4384
3393 4394 2874
3394 124  1158
3395 8946 576 
3396 2423 10  
3397 5415 8506
3398 4142 5843
3399 2930 2798
3400 7753 4086
3401 8338 7546
3402 986  7368
3403 6144 3184
3404 9203 4012
3405 8787 1709
3406 354  4477
3407 973  8366
3408 5988 6386
3409 107  4258
3410 5374 2377
3411 8251 1612
3412 9998 1010
3413 9974 3898
3414 3830 5004
3415 5437 6484
3416 1604 8186
3417 8234 4469
3418 2717 5250
3419 9878 1384
3420 6757 2741
3421 7599 7248
3422 185  2633
3423 9086 2497
3424 2832 4068
3425 2438 864 
3426 1028 5742
3427 5391 3489
3428 2724 409 
3429 8729 8828
3430 1339 2048
3431 9963 1930
3432 9851 2452
3433 346  3771
3434 1135 2242
3435 1423 404 
3436 7624 2337
3437 2383 4661
3438 2527 7653
3439 9488 5660
3440 2626 7313
3441 35   1134
3442 6818 7719
3443 9019 315 
3444 1964 2843
3445 2206 521 
3446 6332 1399
3447 9824 8519
3448 287  1932
3449 1139 9368
3450 4719 3997
3451 9483 89  
3452 7466 9347
3453 1294 2769
3454 2269 1564
3455 9421 9154
3456 8015 9945
3457 6136 4518
3458 1138 5851
3459 8846 4647
3460 2623 3057
3461 6739 889 
3462 4462 5812
3463 5048 8030
3464 474  4846
3465 1284 4681
3466 1386 1348
3467 3263 5810
3468 2371 2605
3469 7111 690 
3470 3140 9136
3471 2565 6105
3472 6371 1403
3473 8765 6032
3474 3074 6045
3475 3788 6297
3476 8740 1326
3477 5552 8700
3478 3251 6008
3479 4394 8117
3480 5944 9506
3481 844  638 
3482 9917 4836
3483 4629 935 
3484 6348 9161
3485 8097 321 
3486 6987 7891
3487 2079 4295
3488 9175 6442
3489 8559 6282
3490 3812 1366
3491 7533 8008
3492 923  5730
3493 2734 8567
3494 6804 750 
3495 9172 6800
3496 9570 5798
3497 4480 8949
3498 3703 3824
3499 4265 9871
3500 7312 1865
3501 9225 9416
3502 6939 5625
3503 7560 3723
3504 6310 7043
3505 4009 6186
3506 963  6898
3507 8007 4836
3508 3281 8795
3509 568  6697
3510 5533 5308
3511 6770 7525
3512 4332 4741
3513 6102 7122
3514 8977 5817
3515 316  8891
3516 5323 9528
3517 6166 8858
3518 5395 5954
3519 5622 2002
3520 9025 2855
3521 46   7970
3522 6887 5271
3523 9796 5899
3524 1542 1543
3525 7565 5050
3526 2365 8618
3527 9742 1773
3528 720  7759
3529 9280 6782
3530 8426 5887
3531 6436 7750
3532 4425 8321
3533 2664 7820
3534 8968 6487
3535 4033 251 
3536 4622 6567
3537 8988 8571
3538 9596 4083
3539 7670 4931
3540 5007 692 
3541 4444 9239
3542 3723 9430
3543 4505 448 
3544 8140 1886
3545 5412 8632
3546 7656 559 
3547 2706 9066
3548 6784 1812
3549 9064 105 
3550 8399 9434
3551 7790 8485
3552 9417 3764
3553 4637 7230
3554 5636 2308
3555 2234 438 
3556 8338 8782
3557 6707 4793
3558 9055 5559
3559 8441 3784
3560 7690 4829
3561 3773 3066
3562 5151 7521
3563 7563 6788
3564 7484 9792
3565 2037 4006
3566 5073 2094
3567 1792 9378
3568 9027 699 
3569 8454 1263
3570 2173 901 
3571 327  7214
3572 3043 3799
3573 3122 8189
3574 8482 7811
3575 5659 9308
3576 91   3139
3577 6771 1022
3578 8064 3611
3579 6902 3640
3580 3091 3270
3581 8809 4584
3582 5904 3963
3583 3301 6806
3584 6421 3436
3585 7117 4351
3586 7712 4008
3587 4036 8254
3588 6611 4946
3589 8978 4342
3590 7599 404 
3591 166  4252
3592 942  2290
3593 2875 1401
3594 4090 7772
3595 7719 391 
3596 1108 713 
3597 9395 7203
3598 2959 1481
3599 2371 2042
3600 5110 5994
3601 4786 7796
3602 6388 5527
3603 8813 8731
3604 4911 6364
3605 7273 2800
3606 3365 4975
3607 5167 8082
3608 5027 1063
3609 5314 2129
3610 257  4639
3611 6165 1774
3612 3756 3759
3613 4910 9977
3614 4286 2274
3615 884  3089
3616 6728 1701
3617 1714 8513
3618 1147 9558
3619 1570 8721
3620 974  4702
3621 6779 9903
3622 4630 6578
3623 6787 6438
3624 9709 9514
3625 471  868 
3626 7797 57  
3627 9599 4125
3628 5839 1944
3629 4321 5315
3630 5110 3533
3631 7630 7667
3632 8639 1604
3633 3725 5796
3634 9287 8717
3635 1366 91  
3636 1693 8695
3637 756  3433
3638 703  8259
3639 6305 4628
3640 6996 8720
3641 8447 6428
3642 1075 5608
3643 8338 2712
3644 4226 7221
3645 5913 7705
3646 6231 4867
3647 9448 5522
3648 9478 6701
3649 3732 5094
3650 6991 4132
3651 1538 5912
3652 6460 5952
3653 717  3391
3654 127  89  
3655 1554 7149
3656 2462 826 
3657 5110 5241
3658 9162 6372
3659 6159 7767
3660 8210 69  
3661 647  3853
3662 9297 267 
3663 545  6514
3664 4444 27  
3665 8547 3056
3666 1236 5711
3667 8467 1387
3668 9229 2891
3669 5860 5981
3670 973  1271
3671 6696 9901
3672 6902 9453
3673 5282 4210
3674 1316 399 
3675 9843 689 
3676 4950 9683
3677 4508 1467
3678 3841 7837
3679 4500 2351
3680 8478 2436
3681 8386 4004
3682 7922 6420
3683 268  9589
3684 4936 5561
3685 7433 3770
3686 675  4918
3687 817  9918
3688 1443 1737
3689 987  305 
3690 664  9495
3691 6538 9530
3692 1529 9237
3693 9695 2110
3694 5514 5248
3695 3738 6867
3696 2142 5042
3697 4398 6864
3698 1433 6884
3699 6374 3907
3700 1274 8069
3701 6084 56  
3702 7686 688 
3703 2587 9238
3704 1461 2095
3705 9535 4228
3706 425  4995
3707 6706 3903
3708 608  5214
3709 8406 7134
3710 558  3388
3711 8501 8345
3712 5606 6514
3713 1800 5845
3714 5021 7381
3715 6848 5712
3716 7473 5219
3717 2323 5709
3718 2818 5253
3719 3154 3956
3720 8848 2866
3721 2452 6298
3722 6810 6944
3723 8709 3527
3724 6795 5308
3725 9945 761 
3726 9355 6934
3727 9049 3776
3728 5133 8360
3729 8700 96  
3730 6017 1930
3731 7094 159 
3732 9873 1233
3733 4098 390 
3734 3651 6750
3735 9111 873 
3736 2300 5027
3737 6528 2759
3738 5863 842 
3739 7013 9719
3740 2528 289 
3741 7727 2907
3742 645  356 
3743 9411 7469
3744 2303 1690
3745 1563 8301
3746 59   2224
3747 2127 9355
3748 8980 2099
3749 2707 564 
3750 5294 9276
3751 7735 6917
3752 7552 64  
3753 8488 9153
3754 9166 8516
3755 3971 2546
3756 6141 823 
3757 6520 9133
3758 7827 7139
3759 4314 4721
3760 7700 8380
3761 4556 7294
3762 8449 3083
3763 3838 5179
3764 8550 9064
3765 4278 5199
3766 4509 8672
3767 4594 2131
3768 3343 5778
3769 3843 2909
3770 2381 7272
3771 400  9490
3772 5049 5596
3773 9206 5248
3774 2451 3689
3775 8017 5052
3776 6741 8988
3777 5964 5849
3778 7499 8512
3779 3348 8060
3780 7578 8049
3781 6530 866 
3782 9939 4096
3783 632  7436
3784 1731 4314
3785 3625 6355
3786 4368 2477
3787 6399 2182
3788 827  436 
3789 6049 5433
3790 479  9234
3791 4357 2040
3792 3350 1188
3793 7108 9667
3794 8826 5489
3795 3433 4647
3796 3120 2312
3797 6267 2329
3798 8145 9217
3799 4623 1994
3800 1913 5914
3801 2704 9398
3802 772  4108
3803 6345 108 
3804 4605 6454
3805 8001 9715
3806 7549 1604
3807 9906 4894
3808 5749 1039
3809 2727 964 
3810 9681 342 
3811 888  8107
3812 6820 6132
3813 9976 7017
3814 9984 3131
3815 4102 8007
3816 8072 3319
3817 3053 8046
3818 7526 94  
3819 5552 9728
3820 4966 4580
3821 2527 4125
3822 4192 3808
3823 6785 7481
3824 7659 3201
3825 1482 2107
3826 3711 5240
3827 799  663 
3828 7653 3734
3829 3312 4301
3830 946  1900
3831 1182 7139
3832 340  447 
3833 4974 2610
3834 435  485 
3835 1859 572 
3836 1932 8337
3837 6315 204 
3838 5624 810 
3839 6406 677 
3840 880  6727
3841 5366 2531
3842 9655 7507
3843 393  6197
3844 7746 1269
3845 1817 9184
3846 8633 5819
3847 4460 4254
3848 7850 3171
3849 6496 9761
3850 8903 9743
3851 401  1408
3852 6721 7387
3853 6921 2290
3854 8737 2858
3855 8046 2693
3856 6822 7261
3857 3957 6749
3858 6737 6114
3859 9397 6623
3860 8968 637 
3861 9988 5270
3862 541  8995
3863 6543 6377
3864 4865 9757
3865 6692 3433
3866 6323 2502
3867 3574 4497
3868 5721 8825
3869 5973 1155
3870 5427 1059
3871 7391 7499
3872 1850 1582
3873 7510 6360
3874 778  5610
3875 1512 8864
3876 807  5362
3877 5392 5852
3878 6114 7777
3879 1463 1326
3880 1280 1727
3881 8051 877 
3882 5391 9897
3883 6544 2638
3884 7823 4878
3885 5356 3497
3886 624  4593
3887 4056 6513
3888 6929 9344
3889 9928 2058
3890 4308 8395
3891 5409 5948
3892 2645 7915
3893 7089 8656
3894 1821 6362
3895 827  3962
3896 2465 9996
3897 210  1944
3898 2674 3333
3899 7639 5216
3900 2373 8354
3901 1720 9237
3902 7811 1550
3903 5177 5162
3904 4039 4740
3905 8068 7898
3906 7844 6294
3907 3601 8471
3908 7101 1691
3909 5256 2178
3910 9845 9056
3911 8106 6564
3912 7970 2780
3913 4716 9765
3914 8184 7683
3915 1978 8906
3916 9882 9191
3917 2920 6129
3918 4900 3828
3919 4201 9325
3920 7502 9969
3921 8003 9430
3922 9073 7787
3923 72   2139
3924 7514 121 
3925 1322 8392
3926 7275 6727
3927 4832 5141
3928 3341 1379
3929 1601 3674
3930 5057 4365
3931 4424 907 
3932 9684 7199
3933 5092 4018
3934 4814 152 
3935 7366 8478
3936 9984 4880
3937 3430 9634
3938 5603 9499
3939 1409 9589
3940 2286 8586
3941 5811 4433
3942 9112 1146
3943 265  3422
3944 2774 3371
3945 3918 4393
3946 8773 7389
3947 9259 5995
3948 3976 343 
3949 4161 6359
3950 2746 8769
3951 3841 531 
3952 1211 195 
3953 7498 873 
3954 7525 4515
3955 3379 169 
3956 2697 2145
3957 4774 8331
3958 9013 2401
3959 8722 7910
3960 2953 8401
3961 7857 9082
3962 6092 1418
3963 3107 1095
3964 1404 839 
3965 587  2355
3966 5607 5879
3967 4499 8350
3968 2641 8934
3969 6802 578 
3970 8492 7340
3971 4499 5841
3972 4547 6302
3973 9263 4683
3974 215  1347
3975 2056 7336
3976 6560 7792
3977 2133 1170
3978 5562 8114
3979 9416 9785
3980 5015 2131
3981 2230 344 
3982 5149 221 
3983 9692 9712
3984 2746 1303
3985 9984 6572
3986 6157 7188
3987 5560 3615
3988 9279 2726
3989 1566 2906
3990 9716 2124
3991 153  4121
3992 605  7094
3993 8309 2729
3994 9880 7459
3995 6865 1018
3996 5024 3631
3997 2192 7081
3998 1312 115 
3999 2729 3715
4000 503  2952
4001 934  6850
4002 3622 3351
4003 8182 3495
4004 3089 3543
4005 1473 160 
4006 6880 1608
4007 1332 5973
4008 9148 8393
4009 3504 2402
4010 3470 2023
4011 2446 2107
4012 4019 4834
4013 9746 8983
4014 9681 6973
4015 6694 1623
4016 6475 219 
4017 5821 7779
4018 7168 2622
4019 2050 9445
4020 2885 2615
4021 5460 8433
4022 9299 6507
4023 162  292 
4024 7817 2183
4025 4185 1726
4026 7323 7631
4027 1576 171 
4028 8902 8853
4029 723  5614
4030 6911 6577
4031 5693 3137
4032 2112 2278
4033 9073 1590
4034 1178 2407
4035 9138 7071
4036 1490 1749
4037 3822 7485
4038 4290 7834
4039 6365 5830
4040 6816 9088
4041 8096 5145
4042 8293 600 
4043 6271 7404
4044 4748 7039
4045 224  5130
4046 5373 9187
4047 9127 971 
4048 3715 2554
4049 2213 9413
4050 2632 2647
4051 8457 4649
4052 7422 5501
4053 2532 2032
4054 8310 7913
4055 1218 1517
4056 5313 3708
4057 193  9127
4058 7517 3644
4059 974  7109
4060 209  8999
4061 1802 4688
4062 8495 4807
4063 3132 7374
4064 7286 7713
4065 367  8176
4066 324  9963
4067 1853 8902
4068 4694 4974
4069 6521 7905
4070 270  6435
4071 7316 2994
4072 6829 9536
4073 6724 8764
4074 2835 1523
4075 1283 8598
4076 4187 4920
4077 6322 8472
4078 5576 3466
4079 5624 5839
4080 7131 2477
4081 7918 5901
4082 9121 2792
4083 6355 1155
4084 4207 4082
4085 6175 8084
4086 370  8906
4087 7185 4210
4088 1013 9966
4089 4571 7130
4090 6786 615 
4091 8376 5224
4092 1851 3189
4093 8697 3647
4094 8296 3040
4095 3311 3072
4096 5776 7554
4097 7558 9913
4098 2490 2238
4099 1800 6512
4100 9546 9698
4101 5800 4522
4102 6168 4408
4103 653  5586
4104 4267 5528
4105 5305 1160
4106 6811 9244
4107 6595 7404
4108 7125 6779
4109 6865 5533
4110 3194 4962
4111 2207 886 
4112 7655 9546
4113 3655 8918
4114 9582 4872
4115 5527 1299
4116 6844 7455
4117 974  7967
4118 200  8171
4119 726  2673
4120 1576 7284
4121 5896 7667
4122 3893 7504
4123 7823 8516
4124 6587 3394
4125 6982 9040
4126 158  6744
4127 5130 5122
4128 222  3323
4129 7399 4771
4130 2304 4149
4131 3781 3882
4132 6869 5248
4133 8793 8248
4134 1245 6561
4135 3321 9600
4136 367  2955
4137 6542 9646
4138 2796 9654
4139 2131 2492
4140 7832 9415
4141 5994 4711
4142 3305 2819
4143 1535 8374
4144 7120 3680
4145 2678 8733
4146 1686 7165
4147 4309 7481
4148 8029 9725
4149 7685 8112
4150 1998 30  
4151 5397 3164
4152 9656 7888
4153 1144 325 
4154 9554 8814
4155 9979 8371
4156 3598 3372
4157 9137 825 
4158 2307 5523
4159 8515 8742
4160 3958 8957
4161 4051 8020
4162 4581 3165
4163 5033 5113
4164 6129 3951
4165 4493 7352
4166 5344 6292
4167 2656 654 
4168 7886 6617
4169 9202 6276
4170 700  9288
4171 5923 9320
4172 9476 4568
4173 1403 7135
4174 1669 9474
4175 164  6526
4176 7746 3571
4177 586  5508
4178 7335 3098
4179 7306 6929
4180 6615 9596
4181 3153 2976
4182 5924 6832
4183 4509 2711
4184 2950 8429
4185 8229 8987
4186 1695 4066
4187 7680 3232
4188 814  3327
4189 9698 2002
4190 6170 6441
4191 8725 4803
4192 6873 5947
4193 2090 544 
4194 3854 1204
4195 374  7541
4196 302  9706
4197 7798 4728
4198 725  9877
4199 6382 5246
4200 2114 4981
4201 1243 4173
4202 7560 2356
4203 7555 6547
4204 8036 4404
4205 2374 8794
4206 6821 6429
4207 865  2036
4208 8948 9859
4209 5585 960 
4210 1767 6308
4211 4208 4160
4212 3212 9169
4213 4254 8478
4214 7654 9711
4215 8598 7423
4216 5546 1257
4217 1095 279 
4218 8936 2873
4219 8883 5094
4220 9902 3123
4221 5974 4241
4222 9310 5367
4223 609  5169
4224 6797 3014
4225 111  4491
4226 488  1011
4227 2856 7451
4228 6930 85  
4229 7251 6332
4230 2719 4969
4231 8757 6615
4232 137  5814
4233 1858 8564
4234 8193 2724
4235 3118 2630
4236 2782 7208
4237 4185 3923
4238 7371 6107
4239 3040 6070
4240 3036 2494
4241 3093 9856
4242 5932 8955
4243 9734 3837
4244 3737 1201
4245 9036 7692
4246 2931 7416
4247 5559 9408
4248 5433 1953
4249 9823 5474
4250 903  6749
4251 489  2918
4252 1755 1353
4253 8343 8694
4254 824  3824
4255 518  7264
4256 6509 3645
4257 9124 726 
4258 2754 8632
4259 6096 8824
4260 8021 9107
4261 2710 984 
4262 1563 7512
4263 1652 4769
4264 7683 5387
4265 5468 1667
4266 2578 9191
4267 9593 6477
4268 8338 4349
4269 774  6644
4270 4868 89  
4271 860  7200
4272 1484 1686
4273 5427 2718
4274 7893 9454
4275 8431 7299
4276 6794 3053
4277 57   9433
4278 3851 7318
4279 3440 8692
4280 9377 1693
4281 4401 774 
4282 42   8612
4283 4000 4654
4284 2509 7717
4285 7311 1674
4286 2689 2738
4287 413  9633
4288 6929 9923
4289 304  5472
4290 7600 39  
4291 725  2521
4292 6129 5256
4293 9346 9427
4294 9472 2005
4295 5926 9405
4296 9082 5399
4297 220  4354
4298 183  4494
4299 407  2261
4300 9479 5375
4301 3581 8656
4302 1699 846 
4303 1487 6107
4304 9975 6085
4305 6652 4900
4306 2178 7486
4307 933  8327
4308 4908 4868
4309 8896 9168
4310 5277 1210
4311 2803 308 
4312 1195 4036
4313 6774 8315
4314 8933 6188
4315 2656 1554
4316 3341 5723
4317 9583 4201
4318 6504 5317
4319 6792 2959
4320 3087 6124
4321 2287 5945
4322 8781 3588
4323 3805 703 
4324 1255 5203
4325 5915 2410
4326 1553 5301
4327 1711 9234
4328 9885 665 
4329 9721 9763
4330 4107 5488
4331 3868 2098
4332 3943 7354
4333 2989 6115
4334 7451 5266
4335 6737 5982
4336 7925 3496
4337 4223 8717
4338 257  5491
4339 8573 6328
4340 8190 1028
4341 821  7698
4342 5060 573 
4343 5333 4719
4344 9101 3416
4345 4232 6582
4346 2625 6766
4347 5399 4436
4348 8480 6918
4349 5592 4577
4350 743  1526
4351 7857 5819
4352 680  8921
4353 3346 5494
4354 4785 9702
4355 6172 4272
4356 2866 15  
4357 1776 926 
4358 339  1329
4359 8565 9405
4360 2668 2483
4361 4972 4498
4362 6400 2282
4363 8577 9085
4364 7697 239 
4365 2212 3584
4366 6674 6976
4367 719  3907
4368 7467 1705
4369 5750 720 
4370 7861 9534
4371 8164 8090
4372 9657 2944
4373 3960 621 
4374 8204 894 
4375 1211 1067
4376 5065 3858
4377 7874 816 
4378 759  7120
4379 9428 4824
4380 5913 4901
4381 6360 848 
4382 7001 3328
4383 1030 4855
4384 8942 3712
4385 3459 3014
4386 1253 8182
4387 4544 7614
4388 8774 8817
4389 7189 14  
4390 4820 1783
4391 4711 1518
4392 939  766 
4393 7790 2494
4394 2368 6222
4395 7868 7528
4396 3561 2429
4397 4777 6128
4398 3113 4555
4399 2332 2433
4400 4257 1756
4401 1094 8346
4402 8544 7965
4403 7246 4875
4404 4555 1287
4405 4626 3234
4406 612  1700
4407 1395 4283
4408 2208 2726
4409 6123 9882
4410 6002 5788
4411 2392 5591
4412 3668 8101
4413 1092 1857
4414 8392 2789
4415 5895 1237
4416 1148 8079
4417 5331 8704
4418 1765 7415
4419 2726 1530
4420 3465 2682
4421 7821 6145
4422 7445 3481
4423 9096 8280
4424 1006 8262
4425 2241 7434
4426 1260 9693
4427 5097 1613
4428 1999 8854
4429 5547 8062
4430 2310 1355
4431 1226 719 
4432 3994 7857
4433 7792 7252
4434 7083 8018
4435 347  3906
4436 4642 2395
4437 2894 4520
4438 5161 6298
4439 5443 2351
4440 4618 8753
4441 7000 3534
4442 5516 5828
4443 2002 5478
4444 1422 3296
4445 7733 4946
4446 6248 5871
4447 9570 4774
4448 3371 9544
4449 2373 4824
4450 3427 7157
4451 1190 7043
4452 4424 8626
4453 5767 362 
4454 8724 4499
4455 81   4782
4456 6439 3234
4457 3260 2826
4458 78   8153
4459 9002 4460
4460 6687 113 
4461 8368 4949
4462 826  2512
4463 2294 6559
4464 9593 4810
4465 8996 1066
4466 7760 8639
4467 4862 1012
4468 4696 3835
4469 7471 6549
4470 8172 3429
4471 6013 6639
4472 7976 4484
4473 1319 4521
4474 106  2920
4475 6053 7781
4476 1852 8400
4477 4545 9808
4478 6624 4205
4479 5748 8928
4480 9693 8868
4481 5394 8384
4482 1374 5402
4483 177  3904
4484 4687 8693
4485 2702 2855
4486 1273 3034
4487 5764 9781
4488 6217 4249
4489 7545 6014
4490 1305 3391
4491 9267 474 
4492 3242 1326
4493 4433 249 
4494 7108 707 
4495 1466 7018
4496 8315 4319
4497 9609 9176
4498 1898 8246
4499 6322 3124
4500 3112 8815
4501 9571 7993
4502 1851 8276
4503 8687 1500
4504 1055 8620
4505 4721 8856
4506 1321 5195
4507 6741 80  
4508 2464 5725
4509 939  8295
4510 8769 5869
4511 3553 1070
4512 7833 1081
4513 479  4496
4514 6659 9395
4515 2064 1689
4516 8269 6782
4517 8128 5890
4518 292  1117
4519 703  2173
4520 6020 9449
4521 6137 4267
4522 6889 5839
4523 8542 1998
4524 6795 2367
4525 6385 8935
4526 2000 609 
4527 8135 9828
4528 960  4454
4529 3480 7810
4530 851  7658
4531 4475 9826
4532 9844 2542
4533 9735 9326
4534 7877 5862
4535 5511 4422
4536 1700 8208
4537 1929 1669
4538 9221 1276
4539 68   4318
4540 2395 3969
4541 4025 6289
4542 4501 8860
4543 5942 8303
4544 7010 6634
4545 6237 6584
4546 8779 2709
4547 6991 4826
4548 5662 5019
4549 4473 413 
4550 6122 7144
4551 1208 5053
4552 75   3748
4553 283  7054
4554 2730 4497
4555 8924 3133
4556 1406 8724
4557 4278 1050
4558 5157 4594
4559 2453 4855
4560 878  8379
4561 988  3456
4562 3170 5871
4563 2049 5245
4564 1041 752 
4565 2245 7761
4566 2150 7797
4567 5834 8602
4568 5957 5340
4569 5164 1140
4570 2995 4442
4571 4721 4315
4572 6313 5932
4573 4245 7507
4574 7059 63  
4575 942  7466
4576 9445 3406
4577 1601 9957
4578 23   8687
4579 5395 1430
4580 1078 1500
4581 2589 7129
4582 2461 345 
4583 6239 3484
4584 2827 9003
4585 1549 9678
4586 6691 8114
4587 6137 2208
4588 5639 2513
4589 2172 7289
4590 8538 4300
4591 7340 6632
4592 3484 4837
4593 9235 434 
4594 7075 6988
4595 7345 4413
4596 7437 7225
4597 9490 5777
4598 2383 1866
4599 1824 7057
4600 4552 8286
4601 3962 2366
4602 3884 6154
4603 3160 3412
4604 8671 8796
4605 2699 8877
4606 2687 477 
4607 2200 5917
4608 1226 519 
4609 614  1588
4610 8776 4915
4611 7405 5031
4612 8348 6388
4613 9299 5430
4614 5978 396 
4615 9406 1030
4616 8203 5520
4617 9990 7283
4618 5263 3832
4619 2247 5761
4620 2818 2056
4621 8813 890 
4622 205  5510
4623 9744 9427
4624 1116 1740
4625 5315 2638
4626 5415 5123
4627 6593 1205
4628 7667 4287
4629 7097 2353
4630 6165 7100
4631 978  1093
4632 5105 9205
4633 1687 9749
4634 4553 5183
4635 5097 3846
4636 4227 6551
4637 6361 1459
4638 9327 7423
4639 7556 8795
4640 4424 7156
4641 7303 883 
4642 4858 3461
4643 6042 3853
4644 1545 371 
4645 5424 9971
4646 9079 6718
4647 2028 1914
4648 6489 6380
4649 441  5836
4650 5598 19  
4651 5353 3640
4652 8702 6105
4653 5888 7265
4654 4518 8135
4655 8855 3615
4656 7892 9464
4657 5270 3209
4658 1890 7769
4659 113  9676
4660 3124 3813
4661 4887 4795
4662 1503 2270
4663 1112 8768
4664 8135 3010
4665 647  6883
4666 3675 658 
4667 9137 4843
4668 6950 320 
4669 8664 1634
4670 6370 3490
4671 4279 2956
4672 428  5495
4673 6149 5751
4674 1301 4079
4675 6032 9502
4676 468  1631
4677 443  299 
4678 6026 535 
4679 84   559 
4680 3216 5080
4681 7277 437 
4682 5332 9595
4683 8918 3061
4684 7648 3483
4685 3442 1752
4686 126  3433
4687 6221 1391
4688 3851 1750
4689 4507 6992
4690 8464 3699
4691 501  999 
4692 3885 3563
4693 580  4774
4694 5717 2019
4695 1232 5084
4696 4148 2884
4697 1841 78  
4698 9554 2698
4699 6691 3237
4700 378  2392
4701 3674 9193
4702 3986 8669
4703 938  1646
4704 6364 7585
4705 2187 2279
4706 2856 4803
4707 5478 3430
4708 7904 2323
4709 6476 1095
4710 9253 530 
4711 604  520 
4712 1267 376 
4713 4940 5714
4714 1375 7761
4715 3085 5300
4716 379  6388
4717 9324 4097
4718 1950 244 
4719 1141 6665
4720 4488 7517
4721 7788 5776
4722 4157 7022
4723 7717 4764
4724 3187 6526
4725 8261 2723
4726 8425 8238
4727 8338 6316
4728 3839 4807
4729 2109 9918
4730 8304 9385
4731 912  2240
4732 7267 4445
4733 3832 9270
4734 783  9038
4735 6998 5204
4736 2074 7126
4737 4456 3998
4738 2645 7014
4739 443  3648
4740 5780 9847
4741 2687 6482
4742 7630 5446
4743 555  6903
4744 7021 6524
4745 4784 8416
4746 7174 12  
4747 3156 4497
4748 1272 5706
4749 9762 6724
4750 1695 4134
4751 4945 7232
4752 5197 1722
4753 9300 1867
4754 9139 9004
4755 1972 2409
4756 8066 2673
4757 1661 7954
4758 944  2596
4759 5795 9143
4760 8479 9070
4761 1197 9658
4762 3313 7715
4763 4384 6793
4764 4617 8243
4765 9906 1721
4766 5733 395 
4767 5602 1183
4768 2632 790 
4769 1681 7104
4770 2871 3933
4771 9961 4268
4772 6071 7652
4773 8677 7440
4774 7660 3347
4775 1183 8922
4776 8935 9604
4777 857  8224
4778 2322 9533
4779 4512 3551
4780 7907 9191
4781 3935 5150
4782 4163 3985
4783 8838 8431
4784 9304 6835
4785 6099 3580
4786 9711 985 
4787 8279 7734
4788 5893 2130
4789 5059 619 
4790 5645 1161
4791 7827 1610
4792 6034 6184
4793 3760 6668
4794 1982 9350
4795 3646 7457
4796 1843 6416
4797 5483 6441
4798 919  5896
4799 8278 1509
4800 3759 6987
4801 9293 6130
4802 86   5446
4803 1858 5935
4804 2499 327 
4805 9083 3830
4806 7853 2988
4807 848  996 
4808 6884 6866
4809 4413 5589
4810 6246 1438
4811 255  9112
4812 3943 1724
4813 1503 3043
4814 2663 9949
4815 6062 587 
4816 2763 8881
4817 1632 2511
4818 4810 4010
4819 1930 9383
4820 5373 4064
4821 5292 9701
4822 7061 6847
4823 8140 6974
4824 1952 5577
4825 5082 3590
4826 9154 9609
4827 5293 408 
4828 4038 5185
4829 2152 7452
4830 4818 2207
4831 5990 571 
4832 3103 1569
4833 1671 1155
4834 4866 5446
4835 5806 9700
4836 7702 5530
4837 1252 1068
4838 5145 5582
4839 2997 4618
4840 2677 2790
4841 7319 7815
4842 6902 288 
4843 3468 8104
4844 1739 358 
4845 4686 8534
4846 3532 9359
4847 8741 6987
4848 3984 8868
4849 1934 9362
4850 5862 6656
4851 4176 1845
4852 2284 5347
4853 8970 1086
4854 6982 9185
4855 843  1955
4856 1123 1771
4857 6642 6608
4858 1381 9236
4859 2320 2048
4860 9112 6658
4861 3681 9692
4862 5333 8556
4863 2592 4028
4864 6631 8948
4865 6934 2004
4866 6953 1581
4867 8441 7755
4868 1701 6660
4869 8922 2753
4870 216  2492
4871 5834 7385
4872 7461 8942
4873 9632 4145
4874 9550 2991
4875 4628 7091
4876 8523 6479
4877 4553 1944
4878 5886 8620
4879 6544 8516
4880 2954 6508
4881 6132 6400
4882 708  4472
4883 6650 1287
4884 9686 5830
4885 1394 9699
4886 243  3376
4887 8216 3995
4888 2829 9232
4889 5169 3225
4890 7150 4270
4891 5935 2916
4892 766  1348
4893 2249 191 
4894 3796 7793
4895 9856 8693
4896 5222 4070
4897 8479 1107
4898 2675 9543
4899 8929 1060
4900 8766 9328
4901 4023 7276
4902 9988 9739
4903 7785 9556
4904 8204 8920
4905 6356 829 
4906 4255 2019
4907 8709 5341
4908 3629 5178
4909 4182 5031
4910 9030 663 
4911 4580 1599
4912 6672 4326
4913 2281 3055
4914 9788 8733
4915 3954 5572
4916 7131 9203
4917 280  2095
4918 3192 4835
4919 835  6290
4920 9059 242 
4921 9288 2044
4922 361  9125
4923 6038 5532
4924 8857 5961
4925 2980 4476
4926 8020 1305
4927 2577 6291
4928 82   66  
4929 253  2399
4930 8373 8740
4931 1604 652 
4932 6341 3872
4933 4930 4079
4934 4783 4974
4935 9255 2850
4936 6182 5619
4937 6389 7488
4938 1084 3203
4939 5440 8876
4940 5247 1314
4941 6556 512 
4942 6815 7385
4943 2031 7396
4944 8162 8083
4945 5609 6753
4946 2102 7866
4947 5869 9850
4948 536  3716
4949 6901 159 
4950 740  6979
4951 3984 4143
4952 2819 9793
4953 7971 9121
4954 7144 8810
4955 2573 2353
4956 8575 8571
4957 6571 5819
4958 3234 1337
4959 6156 4874
4960 9760 4611
4961 7014 8879
4962 7262 8513
4963 4116 4185
4964 744  2388
4965 8234 2132
4966 698  1553
4967 3574 3036
4968 4157 3781
4969 8214 6325
4970 2945 8483
4971 8455 2176
4972 3012 6737
4973 892  5571
4974 5912 7886
4975 3756 991 
4976 4204 5195
4977 4741 6305
4978 9827 3660
4979 5547 8446
4980 5714 4965
4981 7081 4323
4982 9817 2982
4983 1091 8242
4984 8388 2902
4985 3745 4316
4986 4811 8379
4987 3974 3660
4988 8031 7134
4989 1163 4409
4990 6046 1336
4991 2354 8172
4992 4304 8508
4993 7178 3637
4994 9795 60  
4995 486  7512
4996 8525 1128
4997 5602 4425
4998 7306 7622
4999 1082 6102
5000 209  1314
5001 6920 5468
5002 2279 4956
5003 878  1204
5004 8865 6708
5005 4351 4197
5006 3134 5149
5007 9718 8157
5008 5066 2688
5009 7799 4859
5010 899  7591
5011 3224 6293
5012 6264 8020
5013 1972 7609
5014 9032 5709
5015 7414 7638
5016 729  3218
5017 2963 260 
5018 8371 8219
5019 9230 3597
5020 420  4025
5021 5750 1352
5022 2238 9541
5023 1816 1567
5024 1200 4524
5025 4835 616 
5026 3294 4060
5027 1851 6923
5028 347  197 
5029 9412 2453
5030 3230 2328
5031 7886 4406
5032 7827 8348
5033 6629 7824
5034 3846 6086
5035 3036 7351
5036 5326 7238
5037 802  3638
5038 7844 438 
5039 3692 6269
5040 1923 7844
5041 2797 4330
5042 1495 9413
5043 5057 6957
5044 6685 9695
5045 2641 4300
5046 6694 6381
5047 1537 8778
5048 4310 5214
5049 3806 3835
5050 3624 7190
5051 4811 7407
5052 266  6973
5053 1982 5741
5054 3857 7364
5055 6013 9692
5056 9127 9530
5057 7774 6179
5058 1600 6035
5059 367  9205
5060 9656 5402
5061 5973 2307
5062 1895 6361
5063 2206 2730
5064 2305 455 
5065 9278 1668
5066 5430 3882
5067 3041 9982
5068 7538 2698
5069 6926 5073
5070 5136 6207
5071 387  4970
5072 5113 390 
5073 9311 5164
5074 4909 5361
5075 7082 283 
5076 2319 851 
5077 1016 3168
5078 2157 2026
5079 7640 8073
5080 6821 702 
5081 4873 2645
5082 3218 5902
5083 4563 7259
5084 9960 6836
5085 2616 6817
5086 2135 9307
5087 9144 5237
5088 455  7849
5089 3431 6932
5090 1871 9068
5091 8411 9089
5092 7103 6205
5093 6891 1259
5094 8523 9023
5095 8014 2105
5096 651  9277
5097 4515 5917
5098 2399 9849
5099 4206 5492
5100 5307 6999
5101 1957 287 
5102 539  9011
5103 3119 3900
5104 7531 6969
5105 857  7561
5106 1768 8740
5107 3953 9746
5108 5518 8950
5109 8994 2908
5110 1920 5542
5111 6938 7333
5112 4078 149 
5113 3965 2200
5114 2334 8691
5115 183  7399
5116 3227 8320
5117 7937 6678
5118 5165 7651
5119 1859 9133
5120 4529 1245
5121 4147 9447
5122 1750 8790
5123 3018 18  
5124 71   8229
5125 1876 9542
5126 7415 5697
5127 4809 998 
5128 5799 6978
5129 6739 405 
5130 3647 358 
5131 5246 9045
5132 8707 1536
5133 9351 859 
5134 7522 3624
5135 5395 3888
5136 7525 6546
5137 4116 4113
5138 8028 4786
5139 5669 4127
5140 9756 1827
5141 3033 6413
5142 2237 3489
5143 7632 1750
5144 2264 9270
5145 9442 7396
5146 3308 3299
5147 546  6537
5148 7201 6391
5149 4363 6719
5150 4773 6924
5151 5777 9918
5152 8571 8755
5153 625  3629
5154 3737 8617
5155 5049 1404
5156 8191 2730
5157 8718 5136
5158 2393 9127
5159 2173 246 
5160 6655 6459
5161 1998 8751
5162 5722 8977
5163 301  6763
5164 2171 9402
5165 4726 8429
5166 8977 8327
5167 1084 381 
5168 5931 9814
5169 3189 4547
5170 6094 763 
5171 7356 6196
5172 7317 5418
5173 3676 7566
5174 3541 5991
5175 8343 3672
5176 2667 2758
5177 2209 7573
5178 4586 1640
5179 6255 9494
5180 5202 6787
5181 3030 184 
5182 9718 8505
5183 6732 194 
5184 5253 7017
5185 9920 5934
5186 3457 9005
5187 4114 3483
5188 4008 4148
5189 6887 2507
5190 5660 8314
5191 3372 2006
5192 1226 8777
5193 7615 4774
5194 7390 8303
5195 3120 5282
5196 1116 8328
5197 7296 9638
5198 6129 3415
5199 9314 1935
5200 4498 7880
5201 1927 2891
5202 9645 9386
5203 4123 4246
5204 8963 7522
5205 1197 7607
5206 9020 4977
5207 6319 153 
5208 2816 5011
5209 6206 8162
5210 3405 8047
5211 3996 5558
5212 65   1510
5213 7501 5438
5214 2923 3096
5215 66   5221
5216 3831 6694
5217 9422 9495
5218 4685 7468
5219 6905 1899
5220 5100 7444
5221 2542 7385
5222 4533 6088
5223 6820 9037
5224 4170 6382
5225 4421 9050
5226 2391 972 
5227 3623 5512
5228 8175 7567
5229 5233 678 
5230 8805 9099
5231 2826 6480
5232 5459 3300
5233 9249 5905
5234 2056 7316
5235 9666 4311
5236 4715 692 
5237 4475 3531
5238 9181 9112
5239 5423 5289
5240 2055 1974
5241 6306 5883
5242 2012 8371
5243 7251 5439
5244 107  4611
5245 2813 1281
5246 2357 543 
5247 7002 9194
5248 3446 8358
5249 9020 8838
5250 8525 5496
5251 4571 7050
5252 1794 1452
5253 9195 792 
5254 1173 1041
5255 1893 8387
5256 8497 4403
5257 4170 7556
5258 3174 3912
5259 3227 1516
5260 7240 9898
5261 7079 5592
5262 9739 6646
5263 923  3462
5264 831  2902
5265 2250 6894
5266 4178 1670
5267 9279 8790
5268 9447 9648
5269 1877 1990
5270 8688 1945
5271 1751 6566
5272 6312 1104
5273 256  3316
5274 666  9302
5275 4297 137 
5276 3502 596 
5277 6013 4496
5278 5129 9946
5279 286  9178
5280 1918 2880
5281 5859 5443
5282 7022 9197
5283 1257 1756
5284 9364 2954
5285 5560 6392
5286 5451 5845
5287 1410 8751
5288 1180 8261
5289 4367 6587
5290 9814 9561
5291 4080 1286
5292 8572 2603
5293 8575 4932
5294 9834 7975
5295 9636 5974
5296 1508 6965
5297 622  9335
5298 932  7166
5299 278  5792
5300 5090 1434
5301 9903 1005
5302 2403 214 
5303 643  4045
5304 6150 1450
5305 9518 7480
5306 1392 9079
5307 2698 1531
5308 9242 2599
5309 2480 3344
5310 6934 3757
5311 1460 7775
5312 1022 4936
5313 6270 5611
5314 9513 9144
5315 9698 955 
5316 8748 9123
5317 7534 3798
5318 7727 209 
5319 8486 1107
5320 320  8512
5321 396  9435
5322 2588 8080
5323 3815 699 
5324 8215 3912
5325 9973 4708
5326 9743 6185
5327 457  8506
5328 1124 317 
5329 6436 2759
5330 7313 6086
5331 9234 6476
5332 1003 2408
5333 141  4057
5334 9743 4458
5335 2464 2609
5336 5186 5199
5337 991  9684
5338 4866 3229
5339 7177 3585
5340 3239 4257
5341 4364 314 
5342 9361 6368
5343 6553 3399
5344 6125 5542
5345 343  9870
5346 6325 4831
5347 6875 6532
5348 5230 7354
5349 4573 6840
5350 8158 1651
5351 5516 1386
5352 4269 9428
5353 1098 7734
5354 6282 6019
5355 4615 7819
5356 4295 4347
5357 6292 3455
5358 4554 4531
5359 3360 9457
5360 6497 1939
5361 9886 7167
5362 9576 7976
5363 2685 5614
5364 2929 9552
5365 4305 9903
5366 1182 1996
5367 2200 3859
5368 5273 8292
5369 5236 9496
5370 7695 4646
5371 4449 9281
5372 1075 3570
5373 9131 2891
5374 8145 28  
5375 6669 7149
5376 5763 195 
5377 314  1469
5378 314  976 
5379 8263 3784
5380 4002 1723
5381 7038 1518
5382 1068 9575
5383 2000 5800
5384 5341 149 
5385 331  6272
5386 9842 1607
5387 1711 5323
5388 9578 1102
5389 3552 3211
5390 7372 9916
5391 4882 3051
5392 2394 5749
5393 7771 1633
5394 4922 9915
5395 5345 9836
5396 4689 9600
5397 7240 9312
5398 4596 9312
5399 2836 2886
5400 1039 807 
5401 65   1085
5402 4261 5315
5403 2472 441 
5404 4791 5662
5405 4191 7174
5406 8074 1995
5407 8824 1874
5408 9864 6371
5409 4364 1504
5410 4663 8209
5411 9744 7848
5412 8385 814 
5413 2217 5923
5414 979  2926
5415 6692 6256
5416 6919 6078
5417 5504 2768
5418 3678 1587
5419 4234 6083
5420 5265 4273
5421 1740 3074
5422 6185 4366
5423 254  8416
5424 6657 9305
5425 9645 8825
5426 9561 6616
5427 8975 4544
5428 4755 27  
5429 5568 3910
5430 9714 8169
5431 8157 8323
5432 5149 7663
5433 2172 773 
5434 5605 2762
5435 8893 4381
5436 1589 5813
5437 6517 411 
5438 5835 8284
5439 4088 4675
5440 1953 8968
5441 5466 7399
5442 9095 5078
5443 2661 1704
5444 765  4241
5445 4543 3334
5446 9169 8103
5447 8235 7973
5448 2459 3527
5449 5198 5946
5450 7705 2990
5451 6542 6761
5452 2121 6240
5453 7588 1673
5454 9199 343 
5455 4340 6841
5456 3853 5499
5457 1355 9751
5458 6576 911 
5459 8535 6331
5460 230  708 
5461 6189 8322
5462 5906 7884
5463 5920 181 
5464 7195 4507
5465 8048 708 
5466 8122 7035
5467 5075 3832
5468 5239 3738
5469 9205 4977
5470 6491 3170
5471 7703 9030
5472 7398 4442
5473 7836 8043
5474 4165 5362
5475 8910 902 
5476 7613 8429
5477 274  5951
5478 8290 5230
5479 2300 2182
5480 4337 5381
5481 9984 8275
5482 2610 6318
5483 6670 2488
5484 4372 9088
5485 2377 8471
5486 6991 3403
5487 4211 37  
5488 8572 8084
5489 1256 2600
5490 5980 8558
5491 3599 3844
5492 5750 9340
5493 8528 8077
5494 883  7839
5495 2811 4820
5496 1668 7155
5497 4658 8418
5498 5772 4781
5499 7952 4382
5500 2953 200 
5501 2168 9647
5502 7919 1469
5503 1634 6328
5504 4617 7174
5505 7317 8594
5506 9549 2592
5507 4658 4074
5508 3136 4801
5509 7066 795 
5510 8128 5945
5511 7455 9870
5512 6718 4962
5513 2391 5757
5514 6607 5181
5515 1897 6788
5516 3642 1333
5517 4776 6232
5518 6227 4914
5519 578  700 
5520 3258 1082
5521 2420 6805
5522 3642 5756
5523 3207 8786
5524 8314 5855
5525 4795 4209
5526 4459 9141
5527 5502 2340
5528 2783 3294
5529 7020 2183
5530 5773 2618
5531 7476 3390
5532 80   5334
5533 9554 7581
5534 6518 1028
5535 3309 3091
5536 8876 9   
5537 5937 8454
5538 4390 840 
5539 6184 4727
5540 7862 2006
5541 7792 9705
5542 3211 575 
5543 3875 4556
5544 8492 6790
5545 4653 3719
5546 7546 9124
5547 8241 3735
5548 6161 3557
5549 739  15  
5550 6599 1635
5551 3951 7799
5552 1156 1970
5553 3772 2743
5554 1763 1012
5555 3050 5336
5556 1296 4566
5557 338  7996
5558 8934 7981
5559 4241 282 
5560 3479 8281
5561 7973 734 
5562 566  995 
5563 3738 5006
5564 8627 1660
5565 2010 822 
5566 5547 8534
5567 7849 7229
5568 8513 2405
5569 5214 3813
5570 7887 809 
5571 1484 2205
5572 4539 5602
5573 758  9921
5574 8598 9377
5575 1824 5877
5576 1736 3521
5577 1574 7274
5578 7148 4900
5579 5422 9966
5580 4614 1430
5581 4684 4887
5582 9363 2588
5583 2571 5183
5584 4770 2123
5585 8445 5889
5586 6707 2144
5587 6904 3243
5588 3928 6731
5589 4576 642 
5590 2766 5930
5591 6904 8699
5592 7604 2433
5593 8073 7158
5594 3127 4291
5595 3701 6406
5596 3718 229 
5597 3792 4901
5598 4318 7477
5599 2830 5150
5600 401  4191
5601 2985 8785
5602 1133 2792
5603 628  1640
5604 1676 9437
5605 4320 6857
5606 9499 8393
5607 3204 9642
5608 2838 9976
5609 9208 3793
5610 5842 3631
5611 4465 6493
5612 6076 6267
5613 2314 6458
5614 8729 1814
5615 3780 747 
5616 1916 9458
5617 3813 4516
5618 4544 5006
5619 8895 5710
5620 4618 7125
5621 8935 6896
5622 5591 2074
5623 5690 2449
5624 6964 4882
5625 6701 3648
5626 2859 7463
5627 7617 4195
5628 1086 1882
5629 9798 380 
5630 3625 8821
5631 4985 3077
5632 2553 9433
5633 7255 1262
5634 9727 6434
5635 3334 5484
5636 3673 2280
5637 4656 5710
5638 7914 9224
5639 9839 3501
5640 3108 6076
5641 9127 1825
5642 9482 2352
5643 995  9364
5644 1867 8028
5645 2777 864 
5646 4167 5751
5647 3270 3504
5648 1218 391 
5649 4230 5990
5650 2815 585 
5651 5713 5693
5652 1009 7038
5653 1343 3409
5654 2313 1803
5655 5794 4163
5656 5003 4431
5657 5847 8845
5658 5335 8665
5659 9740 1941
5660 1347 1059
5661 5497 5170
5662 8958 2612
5663 1966 4344
5664 1984 6220
5665 5839 4907
5666 4765 8556
5667 9984 7235
5668 3262 4658
5669 3358 5368
5670 6310 1710
5671 5850 1144
5672 3756 4896
5673 6766 979 
5674 9974 9964
5675 2996 5026
5676 46   9421
5677 9692 2536
5678 9786 613 
5679 8097 2441
5680 2913 969 
5681 6102 6666
5682 5656 8469
5683 4029 4453
5684 2924 6504
5685 9958 2643
5686 7792 2726
5687 845  5729
5688 677  3071
5689 8911 7629
5690 2393 8830
5691 6063 6293
5692 1394 7195
5693 8548 1401
5694 6602 6913
5695 9219 1882
5696 609  2294
5697 6458 9178
5698 8232 7381
5699 3692 8945
5700 8574 2832
5701 166  1270
5702 7781 9595
5703 2057 7865
5704 6127 4625
5705 6227 9992
5706 9234 2112
5707 6890 639 
5708 447  7347
5709 3466 2317
5710 8802 9538
5711 7087 6148
5712 1239 249 
5713 4351 8636
5714 7542 2210
5715 6687 8658
5716 548  712 
5717 6471 3052
5718 135  4347
5719 2652 6997
5720 9711 2119
5721 9686 1096
5722 1801 6335
5723 293  6172
5724 6498 5838
5725 5542 2254
5726 617  2280
5727 6744 8240
5728 3900 7311
5729 9783 8143
5730 7960 2871
5731 8490 788 
5732 6650 6739
5733 3340 9858
5734 2575 4347
5735 4789 8981
5736 6364 9310
5737 7709 5910
5738 8408 7308
5739 5427 9677
5740 2150 2742
5741 4363 9964
5742 7044 1504
5743 2247 3892
5744 7607 7507
5745 2147 6796
5746 9088 7919
5747 1453 3428
5748 6627 7242
5749 803  6922
5750 2027 899 
5751 7071 2277
5752 5869 6749
5753 5322 4660
5754 7322 3152
5755 1832 5339
5756 1974 4106
5757 3178 8790
5758 1419 9200
5759 2992 7051
5760 6416 6379
5761 4346 5312
5762 4478 101 
5763 9206 9350
5764 6265 9301
5765 195  1476
5766 8740 7307
5767 2292 7499
5768 5871 7786
5769 9069 294 
5770 7811 1118
5771 5087 6774
5772 66   6191
5773 2304 2903
5774 5150 9082
5775 7097 9170
5776 7635 6266
5777 5396 1791
5778 6236 1097
5779 1794 5455
5780 2649 2472
5781 1477 7351
5782 8944 4679
5783 4402 970 
5784 2800 9937
5785 7344 8358
5786 3778 2077
5787 4883 1897
5788 9615 1371
5789 1645 6423
5790 1477 7512
5791 2857 5335
5792 547  6047
5793 9548 3569
5794 6243 8646
5795 6301 1049
5796 9839 2478
5797 9362 2142
5798 8532 9074
5799 8374 288 
5800 5190 1605
5801 9682 2155
5802 3012 1000
5803 1205 1659
5804 7098 6784
5805 8868 9583
5806 9723 3065
5807 7417 5421
5808 6030 5487
5809 5883 4676
5810 966  3628
5811 6812 8217
5812 9007 4205
5813 6571 8036
5814 2434 8646
5815 160  5998
5816 7446 1617
5817 8881 8061
5818 9805 8624
5819 2909 8843
5820 2742 3123
5821 5079 5173
5822 8148 5139
5823 1131 6008
5824 1750 6910
5825 7918 8132
5826 2128 904 
5827 6899 8357
5828 2858 7194
5829 139  5650
5830 2133 9683
5831 5890 4329
5832 7099 1973
5833 4071 9604
5834 2999 5091
5835 1050 1215
5836 1908 3368
5837 7109 7997
5838 309  1780
5839 3032 5992
5840 5179 8494
5841 6585 8594
5842 1954 2196
5843 9204 4587
5844 4793 2764
5845 4446 8381
5846 9013 8777
5847 9184 1040
5848 3782 8503
5849 4073 1284
5850 2161 6135
5851 7185 4122
5852 3773 731 
5853 7106 272 
5854 8281 208 
5855 6500 7955
5856 8868 4782
5857 3646 5662
5858 5094 9819
5859 6559 1219
5860 3460 8095
5861 141  5781
5862 118  8436
5863 257  6133
5864 183  6003
5865 8349 9905
5866 7421 339 
5867 1620 6168
5868 4509 4467
5869 1380 8464
5870 9251 969 
5871 3894 7026
5872 525  424 
5873 4160 2331
5874 502  9691
5875 4592 1250
5876 3492 3822
5877 1931 6013
5878 4560 8545
5879 1535 7116
5880 4795 7979
5881 5733 8545
5882 8954 173 
5883 8793 8374
5884 5792 8695
5885 2152 5380
5886 1712 3048
5887 4346 6499
5888 1715 5164
5889 2761 2910
5890 3634 5653
5891 3049 1523
5892 7923 5266
5893 2720 5152
5894 8748 2253
5895 618  5712
5896 4318 7657
5897 8488 9428
5898 1028 4269
5899 2711 3497
5900 8003 562 
5901 8579 8009
5902 3449 4283
5903 4849 9112
5904 9011 621 
5905 3883 2191
5906 4119 7341
5907 4458 7082
5908 5703 1350
5909 8142 6738
5910 602  7583
5911 3765 2064
5912 2041 2420
5913 5740 9596
5914 6846 6357
5915 6989 7940
5916 8129 7931
5917 3261 3786
5918 6725 2829
5919 7523 3324
5920 3435 3931
5921 9137 2982
5922 2872 942 
5923 4554 8629
5924 8054 7538
5925 8746 6529
5926 7774 862 
5927 1240 3969
5928 6894 9353
5929 2443 5548
5930 5641 1913
5931 564  8566
5932 773  7973
5933 5019 6549
5934 1487 5832
5935 946  223 
5936 8308 4356
5937 3368 2085
5938 2917 8543
5939 8750 4294
5940 1344 8880
5941 7485 6949
5942 6186 2786
5943 9920 7382
5944 9688 3155
5945 3672 637 
5946 6749 1149
5947 5707 139 
5948 2678 9773
5949 1111 6001
5950 5165 7886
5951 5695 7813
5952 5769 7939
5953 1893 7828
5954 2985 7154
5955 5860 842 
5956 7685 6341
5957 141  8248
5958 8872 822 
5959 1123 1953
5960 1396 8340
5961 4079 38  
5962 1330 5441
5963 4987 8406
5964 3288 767 
5965 2478 6972
5966 7115 42  
5967 8334 3237
5968 9367 5873
5969 6329 8929
5970 8037 640 
5971 9801 8018
5972 9411 6170
5973 6660 4957
5974 9082 4373
5975 9254 6153
5976 2402 124 
5977 2548 8387
5978 7631 9721
5979 9530 2844
5980 7872 4332
5981 2523 7396
5982 2831 5927
5983 4182 8131
5984 9674 3679
5985 3071 8550
5986 2177 1987
5987 7955 851 
5988 4491 2718
5989 2074 8832
5990 4807 440 
5991 1831 2244
5992 6625 230 
5993 9165 4605
5994 1593 3522
5995 5983 2334
5996 8480 6978
5997 6266 6604
5998 4243 7989
5999 7826 5920
6000 9196 3713
6001 3476 3285
6002 7190 9775
6003 5872 893 
6004 9912 1825
6005 9260 8137
6006 7865 796 
6007 9334 1278
6008 2007 9098
6009 2609 2023
6010 2019 5111
6011 6354 3685
6012 7957 6333
6013 7443 6715
6014 5800 6868
6015 5477 9422
6016 5100 2910
6017 4378 2609
6018 8925 2915
6019 3699 8756
6020 843  5843
6021 924  2821
6022 4292 4202
6023 4213 8820
6024 5528 3763
6025 2403 5048
6026 4716 2830
6027 3689 7233
6028 979  4646
6029 2117 6897
6030 1839 2997
6031 3517 1175
6032 5139 5068
6033 7213 5159
6034 5277 9432
6035 143  7016
6036 1092 3861
6037 5944 1942
6038 6772 8624
6039 9908 7469
6040 3394 2746
6041 5756 2751
6042 1175 4414
6043 1858 7932
6044 3881 2228
6045 9121 9719
6046 6750 5716
6047 4049 8314
6048 3137 7969
6049 7485 9617
6050 9514 3332
6051 5637 7056
6052 6617 4678
6053 9109 6685
6054 6398 6276
6055 4132 5587
6056 2747 4591
6057 9116 278 
6058 8833 2628
6059 216  4160
6060 5076 2385
6061 9453 1600
6062 8772 1063
6063 5615 6093
6064 340  633 
6065 8309 1986
6066 2187 918 
6067 5086 7094
6068 5093 3438
6069 9695 5368
6070 1507 3416
6071 5929 1613
6072 6858 2792
6073 3028 6840
6074 7656 3777
6075 197  1286
6076 9114 5299
6077 6808 4959
6078 6763 8525
6079 9423 8844
6080 3481 4850
6081 5168 9910
6082 4789 3813
6083 5049 9687
6084 9427 2694
6085 8216 8763
6086 8001 1902
6087 132  9243
6088 6635 8122
6089 1877 4287
6090 7180 3697
6091 2793 2373
6092 9944 3467
6093 2559 6261
6094 1680 2925
6095 3632 4583
6096 8273 7539
6097 1397 4890
6098 8120 1447
6099 2537 3695
6100 201  633 
6101 2535 5897
6102 5971 6236
6103 8979 3283
6104 1721 9842
6105 6368 9582
6106 5356 6547
6107 7074 6433
6108 4698 5577
6109 787  9836
6110 9552 2650
6111 8810 7777
6112 6386 949 
6113 4472 6302
6114 9804 5268
6115 4772 9938
6116 5934 6962
6117 4923 781 
6118 1097 9194
6119 2646 6542
6120 1791 6997
6121 1224 952 
6122 8049 9289
6123 2103 721 
6124 6707 5403
6125 435  2203
6126 5751 8366
6127 7579 9924
6128 7082 2529
6129 3065 2659
6130 8160 1730
6131 5765 2883
6132 4468 4931
6133 5041 6849
6134 4756 5565
6135 8763 3390
6136 1615 4019
6137 1844 7023
6138 1092 5024
6139 6533 6217
6140 3126 3860
6141 8924 5355
6142 668  8055
6143 338  8558
6144 7588 4100
6145 2433 5585
6146 2972 8022
6147 8871 7481
6148 4852 9149
6149 5158 5118
6150 1671 3222
6151 6407 4573
6152 393  3483
6153 5344 6026
6154 6798 372 
6155 577  3616
6156 2029 6015
6157 1322 9974
6158 2088 5540
6159 5485 9003
6160 2046 8801
6161 1143 4266
6162 5795 1965
6163 9227 4264
6164 9032 289 
6165 7137 5604
6166 7073 1316
6167 2586 1794
6168 3042 2368
6169 9467 8548
6170 3701 9605
6171 3446 4669
6172 9691 1827
6173 1454 6585
6174 9465 8115
6175 1803 1975
6176 9478 482 
6177 5995 6779
6178 3113 3789
6179 4136 5154
6180 3616 6452
6181 7748 2440
6182 1659 3474
6183 952  3973
6184 7453 3180
6185 4114 2237
6186 8307 5315
6187 7383 2340
6188 1829 8452
6189 1466 9908
6190 5945 1605
6191 5482 4334
6192 4052 4873
6193 1594 817 
6194 7066 3594
6195 4834 9477
6196 7764 5252
6197 7078 2025
6198 2739 9097
6199 4810 203 
6200 844  7175
6201 1746 7291
6202 1695 5402
6203 9924 3053
6204 1878 3972
6205 8324 9955
6206 5573 1855
6207 4699 846 
6208 9727 3473
6209 3612 8450
6210 2960 1478
6211 6309 5604
6212 8994 2012
6213 170  3719
6214 5074 5073
6215 3415 7584
6216 2603 9710
6217 7821 3603
6218 6810 3815
6219 7672 4192
6220 8108 9160
6221 9377 7637
6222 9167 2529
6223 9914 4223
6224 4278 7044
6225 4251 1488
6226 7649 869 
6227 1832 1799
6228 8457 1124
6229 9733 3798
6230 9566 2361
6231 5053 1295
6232 3264 1309
6233 419  6862
6234 5341 8637
6235 3244 4411
6236 9031 4410
6237 5433 8260
6238 7633 6590
6239 805  9397
6240 2036 6726
6241 1518 4040
6242 5102 2795
6243 3902 9370
6244 5929 3170
6245 2244 6212
6246 1596 769 
6247 4478 3600
6248 3647 9890
6249 3030 3942
6250 5056 7294
6251 9377 8066
6252 5076 4204
6253 4426 8203
6254 3319 8872
6255 9175 7650
6256 2221 7475
6257 5267 4650
6258 956  2694
6259 3968 2850
6260 6466 4105
6261 4822 5206
6262 9595 6009
6263 5820 4393
6264 4642 1376
6265 8966 3929
6266 153  2624
6267 1228 5342
6268 6544 719 
6269 838  5654
6270 8929 2282
6271 9767 6204
6272 6715 6943
6273 6503 5003
6274 6785 2567
6275 5608 9316
6276 5624 8082
6277 744  6007
6278 2867 5734
6279 6417 5109
6280 5480 8648
6281 423  3914
6282 9213 6147
6283 3907 2769
6284 3868 3160
6285 1588 7543
6286 609  7993
6287 444  3371
6288 2510 2596
6289 2254 82  
6290 255  8052
6291 691  2807
6292 5995 472 
6293 4282 2139
6294 377  9489
6295 2504 3756
6296 6561 7440
6297 1196 9752
6298 6573 7329
6299 7042 3696
6300 1349 6015
6301 7240 4706
6302 1675 2655
6303 5915 2285
6304 9058 4727
6305 3888 182 
6306 7142 889 
6307 5462 4415
6308 5146 8780
6309 3344 5707
6310 2892 8513
6311 2397 7538
6312 271  9058
6313 2811 2296
6314 8081 7498
6315 7771 8938
6316 2159 7684
6317 5949 3172
6318 2889 4870
6319 3177 3975
6320 1576 7086
6321 8135 2101
6322 2859 5259
6323 1204 3682
6324 4686 2852
6325 374  4389
6326 5295 4134
6327 3220 8435
6328 7669 5612
6329 6059 3065
6330 3372 9532
6331 9676 648 
6332 4891 7293
6333 6314 4287
6334 1778 4470
6335 1039 6200
6336 9745 425 
6337 4985 4479
6338 9629 7891
6339 6421 2882
6340 181  7133
6341 4060 4547
6342 9832 7413
6343 9394 5284
6344 3919 5675
6345 7828 7081
6346 9715 2883
6347 9557 8241
6348 6862 7618
6349 5792 8801
6350 9351 922 
6351 1945 4691
6352 56   3493
6353 6636 1548
6354 3562 4206
6355 34   6168
6356 3321 1672
6357 8130 9902
6358 59   1507
6359 5546 7657
6360 7060 6764
6361 9227 4574
6362 7838 4308
6363 9149 4281
6364 8378 3020
6365 3652 785 
6366 3604 1244
6367 6717 9348
6368 3135 2590
6369 9050 185 
6370 1134 2315
6371 8111 4411
6372 3933 3793
6373 5420 4526
6374 4225 4729
6375 1916 9904
6376 1150 8706
6377 4779 3523
6378 124  9064
6379 6462 331 
6380 3171 1682
6381 9348 8396
6382 1414 1496
6383 3153 7351
6384 3723 420 
6385 6051 7670
6386 3771 5583
6387 5130 8166
6388 1028 2553
6389 3915 4853
6390 9481 12  
6391 5021 4221
6392 8123 5109
6393 6917 5139
6394 7795 3788
6395 2459 5634
6396 379  930 
6397 2837 3969
6398 6506 4294
6399 8695 738 
6400 6882 3082
6401 283  2320
6402 4613 3128
6403 6291 1462
6404 9194 4759
6405 8249 2568
6406 1211 2205
6407 2726 8420
6408 1000 5293
6409 9325 9296
6410 2976 5349
6411 5009 4313
6412 6869 4690
6413 2328 4904
6414 4811 2821
6415 4501 577 
6416 2465 5936
6417 9330 6788
6418 4821 1160
6419 9229 2384
6420 3369 4874
6421 15   2057
6422 6748 6439
6423 3815 7298
6424 292  3370
6425 4683 3965
6426 5896 4489
6427 8375 9070
6428 228  9186
6429 1781 9965
6430 358  942 
6431 831  3549
6432 8594 1475
6433 189  2280
6434 688  8962
6435 1089 4143
6436 8095 3931
6437 1154 8333
6438 7961 7163
6439 5721 1518
6440 4200 486 
6441 3198 8402
6442 5735 3829
6443 250  9300
6444 7055 6647
6445 8038 4454
6446 9047 8157
6447 1654 5712
6448 7844 6591
6449 2752 354 
6450 2739 1352
6451 8085 6048
6452 2137 3250
6453 4546 5963
6454 6466 9258
6455 151  2531
6456 5338 2283
6457 3422 6783
6458 7738 8184
6459 9396 5452
6460 3884 2202
6461 2045 8105
6462 2830 3515
6463 2205 9710
6464 7922 2984
6465 8200 9553
6466 8108 8072
6467 8652 5442
6468 8362 3268
6469 8550 6982
6470 8171 4223
6471 77   6950
6472 7611 4625
6473 7350 8011
6474 292  212 
6475 9357 6453
6476 8955 7523
6477 6582 1444
6478 6924 5092
6479 5270 39  
6480 8216 1432
6481 2080 9348
6482 1199 5299
6483 712  7310
6484 5535 2429
6485 1287 1359
6486 6602 177 
6487 9038 7091
6488 4702 1460
6489 4280 3365
6490 796  2614
6491 8619 3830
6492 408  3662
6493 8015 1222
6494 863  8813
6495 4907 7604
6496 8270 8206
6497 2906 7280
6498 2647 1916
6499 6601 7401
6500 4801 2895
6501 9382 9364
6502 9696 6214
6503 6843 2440
6504 8339 8810
6505 961  8885
6506 1456 5541
6507 8137 1154
6508 398  1991
6509 8267 3331
6510 7382 6899
6511 9803 1812
6512 2206 3812
6513 1728 477 
6514 6811 7959
6515 9767 1498
6516 4874 5226
6517 4557 8357
6518 2853 6648
6519 4566 3310
6520 6456 2521
6521 6563 2463
6522 5591 9038
6523 5395 6925
6524 9315 7288
6525 1659 577 
6526 1298 7222
6527 8991 6884
6528 9171 7943
6529 4289 5136
6530 7594 2683
6531 2403 3261
6532 2641 4177
6533 654  4060
6534 8240 2053
6535 4398 9854
6536 6764 9306
6537 5098 8678
6538 7248 8957
6539 913  6619
6540 9054 9080
6541 5168 3562
6542 285  3165
6543 150  6829
6544 7217 2378
6545 2694 1411
6546 4680 9203
6547 7869 5731
6548 5874 7615
6549 7241 761 
6550 9350 132 
6551 3917 5665
6552 9567 5011
6553 3873 4112
6554 9295 7420
6555 4161 1926
6556 5484 5417
6557 2110 6983
6558 4899 5349
6559 5560 4777
6560 8630 9368
6561 5233 3975
6562 6131 9255
6563 1107 5774
6564 2624 6667
6565 2799 989 
6566 8017 7651
6567 9011 2   
6568 6833 7693
6569 8763 3421
6570 3019 2090
6571 3639 7664
6572 6061 3704
6573 2330 4193
6574 5087 9860
6575 4982 8524
6576 1681 3936
6577 859  7545
6578 1989 8500
6579 471  152 
6580 5726 731 
6581 9594 2735
6582 1158 4267
6583 2751 8165
6584 9972 9985
6585 9039 5695
6586 2851 3038
6587 7619 5941
6588 3840 3654
6589 3410 5811
6590 133  640 
6591 7822 6670
6592 6604 1085
6593 7439 347 
6594 1690 6516
6595 2578 68  
6596 6427 721 
6597 88   8044
6598 6600 315 
6599 7821 6655
6600 8073 5531
6601 2859 9609
6602 9924 6679
6603 2864 6907
6604 6901 2832
6605 1578 1047
6606 2588 1767
6607 1569 2432
6608 5466 8825
6609 8590 6611
6610 7894 4272
6611 6979 4755
6612 2528 5027
6613 987  9865
6614 9710 1687
6615 3130 1069
6616 4064 3319
6617 189  3622
6618 6447 8859
6619 4300 4449
6620 115  2690
6621 8550 5914
6622 838  2064
6623 9908 7152
6624 3540 8186
6625 654  1919
6626 2998 7451
6627 1135 1575
6628 7837 4152
6629 1722 2378
6630 4583 4881
6631 5309 4814
6632 2054 8785
6633 4805 6395
6634 7931 6236
6635 5986 250 
6636 6654 763 
6637 7550 361 
6638 7783 4013
6639 18   731 
6640 9539 1781
6641 777  1194
6642 4418 9613
6643 7047 9904
6644 7836 4327
6645 4982 7872
6646 1353 7547
6647 9108 6133
6648 5214 5334
6649 928  5969
6650 1366 4563
6651 7335 933 
6652 9878 4445
6653 2080 6687
6654 6677 4664
6655 4921 4061
6656 4878 5745
6657 6141 5193
6658 1493 7548
6659 994  1653
6660 9157 5964
6661 3264 2599
6662 6908 9327
6663 4922 3749
6664 1283 6631
6665 2427 6978
6666 6069 4206
6667 7126 7128
6668 666  5530
6669 9004 3879
6670 7111 440 
6671 7633 1428
6672 6438 674 
6673 2192 3449
6674 8942 1155
6675 3494 2668
6676 9190 5306
6677 9041 2350
6678 9260 1096
6679 6774 13  
6680 2213 9489
6681 3101 7775
6682 197  749 
6683 7056 188 
6684 553  3697
6685 5463 5766
6686 7421 9210
6687 1998 246 
6688 4072 2082
6689 598  9189
6690 5536 6188
6691 57   9595
6692 7235 6599
6693 8342 8053
6694 9175 8851
6695 7051 8676
6696 6538 8036
6697 3839 3822
6698 1939 9925
6699 5642 47  
6700 2832 2805
6701 7108 6393
6702 3556 7224
6703 8796 6572
6704 7810 2236
6705 3634 2265
6706 5796 8942
6707 1527 110 
6708 3024 3904
6709 8542 1439
6710 5077 5264
6711 6948 5016
6712 5686 5350
6713 4096 4956
6714 3968 9679
6715 5362 450 
6716 5893 7921
6717 3085 7301
6718 6271 5868
6719 8200 4030
6720 22   2153
6721 1228 6468
6722 2504 4711
6723 6821 3323
6724 6604 6794
6725 1649 6861
6726 2963 2177
6727 8611 6116
6728 6366 8903
6729 2165 4621
6730 9349 8485
6731 5494 7894
6732 8886 3973
6733 304  9212
6734 8014 4780
6735 4957 9505
6736 9877 9829
6737 8799 1972
6738 137  6470
6739 9981 8389
6740 5893 6436
6741 6017 3311
6742 1825 2946
6743 8238 1854
6744 4867 8256
6745 3721 3637
6746 154  2557
6747 3255 2237
6748 8075 2114
6749 9587 7195
6750 902  4224
6751 1280 7025
6752 8195 9   
6753 5912 1485
6754 4609 252 
6755 581  9526
6756 715  5433
6757 7770 3609
6758 796  4351
6759 2620 4791
6760 3666 1998
6761 7708 7862
6762 2290 7997
6763 4683 4481
6764 9245 4035
6765 8933 2747
6766 6387 1534
6767 7956 6292
6768 6912 8632
6769 4337 7393
6770 7326 6877
6771 2186 9202
6772 4336 1627
6773 1150 2309
6774 8865 7924
6775 4015 4920
6776 7663 6718
6777 5521 6539
6778 7118 6118
6779 6264 7417
6780 9435 7687
6781 6164 604 
6782 7388 4571
6783 4965 7138
6784 1967 6371
6785 8420 2734
6786 8787 5998
6787 1226 9487
6788 7707 2370
6789 1198 9385
6790 4754 7979
6791 1623 5662
6792 4181 1717
6793 5248 1946
6794 2822 3004
6795 724  6399
6796 274  3854
6797 9448 8192
6798 2637 5818
6799 2710 8840
6800 3150 9813
6801 1112 2859
6802 9416 7333
6803 3713 9983
6804 6187 6704
6805 6563 389 
6806 2818 3654
6807 8038 5917
6808 514  5431
6809 762  939 
6810 3868 8332
6811 7058 5995
6812 6179 9947
6813 9884 8467
6814 1293 5611
6815 8608 8925
6816 3822 3228
6817 6380 9204
6818 8984 9874
6819 9009 9735
6820 1932 6413
6821 8577 7952
6822 9727 8869
6823 4176 1160
6824 1743 7181
6825 8198 3431
6826 2447 5173
6827 8080 1346
6828 6005 3423
6829 7830 8221
6830 9689 7176
6831 6676 8868
6832 3474 6366
6833 8493 7029
6834 1054 6572
6835 4917 4224
6836 3930 470 
6837 93   2219
6838 5131 5917
6839 6737 664 
6840 6712 6870
6841 6048 4150
6842 7369 2580
6843 7134 3656
6844 6505 8860
6845 6266 7135
6846 7285 1264
6847 4667 1855
6848 4782 5300
6849 1486 6557
6850 3286 1827
6851 1201 9852
6852 2082 9608
6853 2335 8400
6854 3590 479 
6855 7514 1385
6856 4613 5242
6857 3156 1971
6858 8935 5233
6859 1378 1529
6860 7487 9217
6861 7814 7369
6862 6279 9376
6863 5671 8315
6864 5351 6971
6865 1977 7571
6866 5718 4634
6867 9967 9569
6868 7964 8117
6869 3034 4102
6870 6650 1638
6871 3874 3652
6872 2745 786 
6873 5486 6020
6874 3817 8885
6875 6147 5630
6876 9481 3420
6877 2498 6295
6878 829  8673
6879 3323 2065
6880 7121 1612
6881 9743 6153
6882 7794 3561
6883 3547 1157
6884 5673 6790
6885 8517 8168
6886 1638 8462
6887 147  959 
6888 6555 3471
6889 1273 5658
6890 6711 0   
6891 1791 6455
6892 3605 9360
6893 7624 4091
6894 3420 647 
6895 8986 6387
6896 2744 1248
6897 3877 2635
6898 6568 1289
6899 910  250 
6900 3886 8832
6901 4281 4360
6902 1009 5394
6903 1143 5267
6904 62   9914
6905 6898 6902
6906 821  598 
6907 8304 9186
6908 845  3952
6909 492  2264
6910 6511 7196
6911 8789 324 
6912 874  532 
6913 5099 7214
6914 5539 4445
6915 1597 1742
6916 1672 8496
6917 9035 972 
6918 815  7084
6919 9442 4329
6920 6789 1574
6921 9829 915 
6922 1375 8844
6923 7886 27  
6924 5599 6765
6925 9664 1247
6926 5501 3043
6927 9929 8498
6928 5155 5914
6929 7513 585 
6930 5594 846 
6931 9819 1646
6932 6845 7027
6933 6644 2495
6934 7515 5036
6935 2567 5586
6936 7788 3480
6937 5979 1125
6938 590  5800
6939 1225 1018
6940 3051 9936
6941 6001 6950
6942 2074 6548
6943 1407 1842
6944 374  6371
6945 9170 640 
6946 3983 1558
6947 1582 5712
6948 2322 2617
6949 2331 5333
6950 3977 1973
6951 6468 7954
6952 6984 1033
6953 2053 2063
6954 7988 18  
6955 9305 4060
6956 386  5393
6957 6035 8402
6958 4567 8284
6959 473  4965
6960 2535 8493
6961 7944 4767
6962 3279 1035
6963 4831 5142
6964 4451 8521
6965 4526 4032
6966 3410 5586
6967 7025 1741
6968 4792 7413
6969 6551 3559
6970 1400 7967
6971 7402 3625
6972 9122 1840
6973 1147 9263
6974 2430 5271
6975 7498 6587
6976 7821 3336
6977 4395 9359
6978 6954 7682
6979 1863 8532
6980 1208 3773
6981 3422 15  
6982 5086 2670
6983 4527 8833
6984 5819 624 
6985 4642 3658
6986 3279 4071
6987 4961 572 
6988 6731 4846
6989 8580 4353
6990 8058 6560
6991 1984 1019
6992 7164 7138
6993 9726 9265
6994 2487 7438
6995 4658 8732
6996 7647 9086
6997 7691 7302
6998 8812 2467
6999 7057 4165
7000 599  3941
7001 1618 1059
7002 5595 5717
7003 1089 2895
7004 5758 4811
7005 9851 6087
7006 9828 2230
7007 7415 3180
7008 2051 7472
7009 1339 1283
7010 7779 3557
7011 8433 2067
7012 4676 3196
7013 9063 1583
7014 7010 3262
7015 8643 817 
7016 4352 3613
7017 3649 1217
7018 2724 2560
7019 2274 9392
7020 2292 1114
7021 6129 8457
7022 4315 242 
7023 3314 8548
7024 8179 7246
7025 8158 625 
7026 1346 3478
7027 9718 2375
7028 1989 2208
7029 2787 2589
7030 9219 9647
7031 8658 3629
7032 7400 2275
7033 8271 3607
7034 1150 5332
7035 388  657 
7036 1195 4096
7037 1758 3882
7038 9120 3461
7039 8249 7873
7040 4532 3400
7041 3692 1962
7042 346  9072
7043 1619 9175
7044 1993 7642
7045 5588 8757
7046 6347 9981
7047 7211 567 
7048 9481 9680
7049 2806 5511
7050 1064 1616
7051 7495 8488
7052 9741 8919
7053 4952 5756
7054 2760 9878
7055 5571 6332
7056 9534 3557
7057 4549 9949
7058 6236 7622
7059 9312 1921
7060 5862 2084
7061 3108 4391
7062 7516 9323
7063 6435 6804
7064 7144 3871
7065 2922 7193
7066 4607 2669
7067 4540 8475
7068 6769 3226
7069 957  7227
7070 5839 6198
7071 437  1206
7072 8581 5127
7073 5944 9968
7074 5571 5995
7075 156  8163
7076 8994 5600
7077 217  2516
7078 75   4782
7079 942  1269
7080 8457 5798
7081 8260 7041
7082 1587 8360
7083 1037 9249
7084 8387 5849
7085 8923 2584
7086 2447 6986
7087 4176 4250
7088 7429 9504
7089 6779 2248
7090 3561 4729
7091 5875 5576
7092 1435 2426
7093 3046 5406
7094 1471 2829
7095 879  797 
7096 5959 176 
7097 4487 9637
7098 3245 6483
7099 6457 7176
7100 4849 7854
7101 9400 2410
7102 6914 6193
7103 7775 5756
7104 137  1370
7105 2223 4729
7106 4330 8729
7107 7098 546 
7108 3081 2192
7109 9544 3581
7110 2372 2360
7111 177  7822
7112 9216 7772
7113 3289 1213
7114 4264 737 
7115 5071 8355
7116 6021 3064
7117 8116 2214
7118 874  8791
7119 6742 2539
7120 1806 5858
7121 7571 5552
7122 8548 1381
7123 2929 4032
7124 3083 5193
7125 6620 9979
7126 4224 2241
7127 8627 659 
7128 1249 8889
7129 2630 6588
7130 8690 8686
7131 3574 3215
7132 1721 9433
7133 2275 7656
7134 5263 4572
7135 1741 8636
7136 2714 6590
7137 566  2323
7138 1541 1205
7139 5826 2841
7140 9834 8988
7141 7925 5678
7142 7579 9716
7143 2416 8553
7144 5075 8679
7145 7036 924 
7146 9580 6693
7147 761  8717
7148 4601 6702
7149 4899 6055
7150 6198 4380
7151 1521 5128
7152 349  1063
7153 8724 3276
7154 924  779 
7155 9287 699 
7156 486  8639
7157 767  7249
7158 6017 1839
7159 2716 9154
7160 6379 2261
7161 4746 4602
7162 7896 2314
7163 8741 1224
7164 2041 6807
7165 7607 6948
7166 6910 58  
7167 3090 1529
7168 6922 2054
7169 7376 4257
7170 6536 7165
7171 6401 289 
7172 4942 3964
7173 4012 623 
7174 8227 9753
7175 9877 9525
7176 7239 666 
7177 8843 4357
7178 6313 5813
7179 1658 3491
7180 5779 2395
7181 4692 4875
7182 1200 7158
7183 203  9241
7184 9655 6919
7185 9123 6542
7186 5140 6233
7187 7645 5629
7188 3805 5598
7189 7604 7499
7190 3582 5366
7191 3668 4487
7192 5339 3242
7193 8220 8666
7194 885  7116
7195 7521 7712
7196 8494 2888
7197 3738 2393
7198 5512 6116
7199 5798 274 
7200 5610 2955
7201 7378 9228
7202 6192 4351
7203 7346 6914
7204 3381 2095
7205 4461 1337
7206 2224 6888
7207 4743 2061
7208 2786 5675
7209 9607 5971
7210 4123 1508
7211 2726 8152
7212 7933 7651
7213 8675 9105
7214 929  3871
7215 8512 2454
7216 2352 4720
7217 1598 271 
7218 1012 8767
7219 9821 960 
7220 1169 9144
7221 1854 7472
7222 8464 8180
7223 5920 6462
7224 2697 504 
7225 3508 9777
7226 9815 6803
7227 1407 2630
7228 6783 6045
7229 1269 4949
7230 5233 1976
7231 9669 8384
7232 7139 2257
7233 4635 9897
7234 8241 4879
7235 6137 4874
7236 2229 4244
7237 6954 2278
7238 463  2335
7239 1309 4288
7240 1259 5524
7241 3568 6745
7242 6903 1350
7243 5086 1426
7244 3291 6972
7245 9798 7024
7246 5464 5674
7247 6934 5502
7248 2496 4859
7249 5434 1562
7250 2962 5445
7251 4432 4611
7252 6308 7025
7253 3960 8814
7254 3773 3756
7255 1326 3220
7256 3918 3038
7257 8452 7546
7258 59   4382
7259 7759 1712
7260 9597 6791
7261 4581 6250
7262 4704 9497
7263 5341 1048
7264 9282 9753
7265 510  4164
7266 4189 3717
7267 519  9199
7268 9966 8062
7269 5183 6825
7270 3391 4302
7271 9398 1713
7272 6162 4186
7273 4982 425 
7274 969  8272
7275 2933 5549
7276 6041 7721
7277 8118 9913
7278 4758 2626
7279 8363 4913
7280 1008 68  
7281 9937 6826
7282 1303 9206
7283 1013 9858
7284 9538 7338
7285 5648 2305
7286 4628 9703
7287 7337 6852
7288 1244 1179
7289 4097 3146
7290 7864 9633
7291 3386 5389
7292 992  3356
7293 6920 1784
7294 5595 3725
7295 7490 6614
7296 9063 1546
7297 7676 44  
7298 3130 5113
7299 7335 899 
7300 7750 8449
7301 4880 7368
7302 4285 8779
7303 6161 6146
7304 8088 9358
7305 7091 3319
7306 9122 3662
7307 9368 5386
7308 7550 1115
7309 5521 7045
7310 6357 7054
7311 3529 4302
7312 75   1220
7313 9129 8463
7314 2560 6937
7315 3874 5153
7316 5244 2325
7317 2811 7047
7318 1218 1873
7319 2940 9860
7320 609  7350
7321 599  3562
7322 324  488 
7323 956  5469
7324 2171 5420
7325 8131 5739
7326 3941 3252
7327 4953 6702
7328 7909 5051
7329 9203 4864
7330 3468 5980
7331 3216 2957
7332 5395 2539
7333 3215 4901
7334 5406 50  
7335 2905 7307
7336 7986 3172
7337 4785 1941
7338 4547 1638
7339 7242 3607
7340 4828 4632
7341 9106 7370
7342 4120 6376
7343 7911 411 
7344 812  5381
7345 8497 437 
7346 9178 8197
7347 6876 6644
7348 2221 5852
7349 1441 5226
7350 8254 8312
7351 6596 5242
7352 1932 5118
7353 9550 66  
7354 9082 5779
7355 7475 4245
7356 7571 3026
7357 2672 1808
7358 2294 9448
7359 4123 6748
7360 6127 5615
7361 2738 2934
7362 5255 6337
7363 5178 1338
7364 9707 8828
7365 8837 32  
7366 8596 8517
7367 8726 2593
7368 2996 1585
7369 9526 9721
7370 6595 7609
7371 8530 5858
7372 1127 9031
7373 7300 5883
7374 4466 518 
7375 3468 5598
7376 9815 2459
7377 152  3958
7378 4387 5521
7379 2491 3836
7380 4363 9139
7381 2904 831 
7382 5744 9821
7383 8978 3923
7384 1772 7454
7385 9821 9976
7386 6592 2175
7387 9061 4573
7388 7500 245 
7389 2101 2683
7390 9939 7153
7391 7463 7480
7392 4270 8410
7393 3176 9448
7394 7006 9904
7395 1760 9950
7396 6327 7995
7397 5592 5110
7398 5042 4587
7399 2626 9478
7400 8159 8487
7401 7487 5842
7402 1005 5454
7403 1381 9356
7404 4990 9026
7405 8823 573 
7406 7237 3124
7407 1669 8527
7408 4730 1226
7409 2299 480 
7410 6788 6025
7411 2671 9271
7412 5677 3544
7413 976  8925
7414 5323 8963
7415 9082 6748
7416 3499 4989
7417 6432 2380
7418 5895 94  
7419 5613 7655
7420 3889 5590
7421 3923 1398
7422 1257 3576
7423 9909 8724
7424 7889 3896
7425 7006 8351
7426 666  1284
7427 9926 7931
7428 618  8256
7429 9443 7812
7430 3193 8055
7431 7756 680 
7432 8523 3665
7433 8649 750 
7434 2664 8514
7435 8278 5846
7436 2980 5192
7437 6293 2760
7438 7167 5228
7439 4614 4310
7440 8766 638 
7441 6888 3641
7442 8660 1113
7443 6055 3692
7444 4110 9337
7445 1922 4341
7446 5625 5036
7447 4488 4852
7448 5950 118 
7449 2436 4279
7450 7089 2659
7451 7811 1564
7452 8347 7965
7453 8824 553 
7454 4102 4388
7455 9880 5257
7456 6193 3155
7457 4365 7895
7458 7372 4577
7459 6663 2337
7460 2517 2940
7461 6648 6468
7462 3114 6638
7463 5673 5425
7464 2710 9151
7465 8593 2579
7466 4461 8162
7467 2682 9684
7468 8839 9557
7469 7443 6651
7470 9620 7901
7471 8033 9106
7472 8329 4829
7473 1227 6935
7474 9093 1851
7475 6781 4750
7476 2007 8635
7477 7234 1892
7478 2562 3674
7479 8099 312 
7480 7522 4263
7481 9723 5358
7482 5053 6440
7483 2111 83  
7484 535  2365
7485 5979 5043
7486 3364 603 
7487 1412 5197
7488 4868 3415
7489 7075 8752
7490 1605 3644
7491 7014 3570
7492 7984 1506
7493 2128 4060
7494 5619 7736
7495 59   7275
7496 5533 8324
7497 938  9867
7498 9131 836 
7499 4771 4951
7500 9991 7399
7501 4056 1700
7502 3160 1433
7503 9554 592 
7504 4259 5682
7505 7075 3228
7506 982  4679
7507 4053 4369
7508 980  708 
7509 1534 103 
7510 5035 9747
7511 5339 7900
7512 955  5078
7513 9833 9869
7514 2090 9579
7515 4763 2032
7516 3951 4939
7517 7186 957 
7518 771  8104
7519 7163 7716
7520 7300 4021
7521 5509 259 
7522 9501 6278
7523 5307 5044
7524 6188 2881
7525 7720 7468
7526 385  590 
7527 993  1297
7528 4648 8052
7529 179  2434
7530 2584 9517
7531 626  6633
7532 2475 3411
7533 3235 1925
7534 1338 278 
7535 3637 1826
7536 9143 8599
7537 8408 7620
7538 30   8281
7539 2121 8819
7540 8387 1870
7541 4661 3833
7542 445  8168
7543 4756 2763
7544 8988 3560
7545 7550 7135
7546 5455 6323
7547 2079 0   
7548 2535 706 
7549 3002 2969
7550 6785 7906
7551 2967 7065
7552 5088 5274
7553 1684 4547
7554 4217 8703
7555 8731 2491
7556 9181 2666
7557 8804 7578
7558 1963 6657
7559 3226 132 
7560 2697 3206
7561 7347 4276
7562 3343 6424
7563 7017 8885
7564 5505 3867
7565 6667 7811
7566 4242 6458
7567 9782 8935
7568 6268 5883
7569 8617 3462
7570 5687 664 
7571 9418 4837
7572 260  742 
7573 9665 5713
7574 7127 1731
7575 779  5850
7576 7151 8210
7577 4976 627 
7578 1511 9661
7579 9943 5267
7580 9256 2261
7581 1591 3253
7582 1903 5767
7583 7742 9573
7584 8198 1338
7585 541  8005
7586 7231 1616
7587 1213 4000
7588 8050 3591
7589 2515 5654
7590 1021 67  
7591 4195 592 
7592 6869 8848
7593 7625 1177
7594 6277 1930
7595 7814 5384
7596 7787 1061
7597 7566 3006
7598 9992 6678
7599 8880 2979
7600 2285 260 
7601 5348 3375
7602 2831 5866
7603 8171 5558
7604 7120 7003
7605 7448 1837
7606 5145 847 
7607 4132 8693
7608 9915 1814
7609 3090 4714
7610 8752 4364
7611 9594 3087
7612 6696 8930
7613 7857 1372
7614 1663 6608
7615 4103 656 
7616 7128 9037
7617 3382 6566
7618 8051 4331
7619 412  8562
7620 2946 8486
7621 3166 4928
7622 1619 9565
7623 9927 3041
7624 3547 6290
7625 7247 8341
7626 5026 8363
7627 3528 8522
7628 8456 1203
7629 2049 6794
7630 7524 2792
7631 642  8008
7632 1712 5301
7633 3171 9604
7634 2495 8370
7635 7800 6929
7636 2247 8653
7637 7939 6827
7638 2115 4040
7639 5293 5585
7640 2491 388 
7641 4639 4544
7642 3400 5391
7643 9456 1062
7644 5506 885 
7645 9804 1651
7646 5293 539 
7647 3241 4029
7648 7258 9419
7649 1108 2067
7650 1999 2864
7651 8091 854 
7652 5769 954 
7653 755  4210
7654 3653 2349
7655 5269 579 
7656 4707 5823
7657 3911 6174
7658 1565 5388
7659 1012 7462
7660 4187 1963
7661 255  5591
7662 2618 6534
7663 9030 7342
7664 4329 186 
7665 5161 8576
7666 3846 2023
7667 595  7315
7668 204  6350
7669 9557 7488
7670 7635 1328
7671 1891 5014
7672 2742 2095
7673 5461 8168
7674 4154 7211
7675 9748 9416
7676 7755 8595
7677 297  885 
7678 7360 6631
7679 9422 5741
7680 8242 5982
7681 7848 4549
7682 2854 3918
7683 2012 6032
7684 5210 1405
7685 7120 7080
7686 154  8009
7687 8357 5721
7688 657  7771
7689 1161 947 
7690 7871 353 
7691 5561 170 
7692 9033 3392
7693 792  7133
7694 9466 5110
7695 4437 7398
7696 3682 1304
7697 7427 8783
7698 5197 7929
7699 2563 971 
7700 7112 6260
7701 1287 2750
7702 1682 5053
7703 8384 9431
7704 9328 8364
7705 351  9168
7706 9293 2150
7707 3046 6964
7708 8940 4438
7709 7026 1652
7710 1371 443 
7711 3944 1143
7712 7965 9675
7713 1100 3966
7714 6125 5480
7715 6841 2134
7716 4106 8540
7717 4720 2481
7718 2904 1139
7719 2634 7685
7720 8655 8962
7721 2961 2676
7722 8931 2152
7723 1979 6762
7724 2138 7979
7725 9452 6539
7726 5361 1772
7727 3126 861 
7728 9099 2768
7729 6794 2335
7730 7099 4087
7731 7694 4490
7732 598  5986
7733 7381 6369
7734 6363 9999
7735 9626 6454
7736 9072 6273
7737 8374 3583
7738 5539 7013
7739 8651 8007
7740 9905 8925
7741 3076 4548
7742 7745 9839
7743 6286 6028
7744 1040 9312
7745 8570 6349
7746 3292 4329
7747 6354 8026
7748 6660 9783
7749 2859 2298
7750 8775 5407
7751 8396 6155
7752 4616 6798
7753 3914 1259
7754 1040 7519
7755 5892 9381
7756 4427 8195
7757 5127 3833
7758 3200 5420
7759 2410 5461
7760 9952 5456
7761 7061 2309
7762 7014 7384
7763 8194 2360
7764 7503 7461
7765 9220 9116
7766 960  4800
7767 9553 1724
7768 193  4634
7769 5638 8639
7770 9085 887 
7771 5581 4691
7772 3093 4524
7773 5046 5642
7774 5791 4832
7775 9171 786 
7776 713  661 
7777 6043 4595
7778 1725 6848
7779 8424 7433
7780 3115 626 
7781 3398 4623
7782 4592 1965
7783 7470 8830
7784 8550 2923
7785 4249 2949
7786 6563 5109
7787 1836 421 
7788 9077 3390
7789 3790 5985
7790 48   4123
7791 3856 5774
7792 4405 1778
7793 3243 3251
7794 7695 8432
7795 8557 4522
7796 1502 1344
7797 9602 6281
7798 9281 3258
7799 4766 2441
7800 6111 4728
7801 6058 3444
7802 7587 3707
7803 1091 6885
7804 4605 5524
7805 6645 7671
7806 1685 8130
7807 365  623 
7808 5110 3763
7809 2310 7319
7810 5723 1445
7811 3891 6922
7812 7699 7883
7813 4163 8462
7814 3915 9837
7815 922  9656
7816 6710 4084
7817 4450 1333
7818 12   1593
7819 3141 9331
7820 2358 6227
7821 9553 8322
7822 2777 9832
7823 8961 2668
7824 2048 2616
7825 1135 3263
7826 7556 885 
7827 9596 7340
7828 1442 9220
7829 2426 9458
7830 6668 9748
7831 4280 3058
7832 5119 556 
7833 377  9069
7834 9046 3655
7835 7484 4558
7836 6837 4019
7837 9490 5495
7838 9318 1043
7839 7148 5263
7840 1992 8227
7841 7775 4358
7842 8961 6316
7843 3791 2878
7844 305  6238
7845 1181 2474
7846 690  7696
7847 5793 5704
7848 1901 2463
7849 1095 2536
7850 3916 3337
7851 2996 7660
7852 3787 2020
7853 7382 7032
7854 2633 8386
7855 745  2409
7856 8998 7203
7857 191  5499
7858 2785 7464
7859 3453 1037
7860 827  2463
7861 7843 8891
7862 584  452 
7863 4463 524 
7864 5413 2698
7865 7130 9972
7866 3545 8504
7867 2561 6267
7868 4728 4123
7869 2640 9846
7870 4608 5514
7871 5021 9336
7872 5868 7408
7873 9787 5000
7874 4655 1395
7875 9586 5451
7876 1635 3663
7877 6794 3249
7878 4504 1095
7879 3170 1951
7880 2417 1323
7881 5953 5582
7882 2552 5153
7883 6259 3361
7884 7612 2776
7885 6308 9181
7886 136  7011
7887 233  3074
7888 9275 2607
7889 1065 1571
7890 2496 3276
7891 704  1605
7892 8245 3568
7893 5072 8941
7894 8694 5241
7895 7415 4926
7896 2588 1151
7897 1108 8355
7898 3466 3441
7899 155  5256
7900 5625 5461
7901 2254 2210
7902 6547 8862
7903 975  4855
7904 8318 7331
7905 2527 595 
7906 9429 1789
7907 8539 5799
7908 1203 9135
7909 6978 844 
7910 9330 82  
7911 8844 3421
7912 2567 8918
7913 7076 3521
7914 6614 1583
7915 5605 7346
7916 6783 880 
7917 9093 3827
7918 29   4374
7919 5195 954 
7920 5164 8036
7921 2885 7866
7922 2954 6740
7923 6957 9864
7924 5731 8585
7925 7844 9278
7926 5434 4377
7927 1877 2574
7928 7    5443
7929 5496 7987
7930 8600 2451
7931 822  5176
7932 2191 8714
7933 9287 5630
7934 4768 8746
7935 9412 1269
7936 6827 7247
7937 7999 7029
7938 2792 2583
7939 6227 7248
7940 3797 5436
7941 1388 6668
7942 5286 6307
7943 3904 4038
7944 739  4937
7945 618  3899
7946 6339 1255
7947 4655 1235
7948 288  3963
7949 431  1059
7950 8013 2438
7951 6784 7774
7952 490  9053
7953 4427 1657
7954 8453 4194
7955 6540 8821
7956 454  4134
7957 2244 3515
7958 8958 6891
7959 8417 2835
7960 7922 2259
7961 3656 6043
7962 3759 2096
7963 7074 8211
7964 4205 5293
7965 5010 6863
7966 6606 5124
7967 6822 7135
7968 414  3319
7969 4500 3104
7970 6368 2385
7971 4873 9437
7972 8076 2629
7973 4737 4755
7974 1687 9923
7975 3606 4637
7976 5559 4090
7977 7399 5962
7978 4541 2852
7979 1392 1220
7980 3252 3540
7981 4773 8787
7982 6367 859 
7983 7516 6464
7984 5827 2151
7985 4689 6843
7986 8762 9817
7987 6868 5804
7988 3988 1027
7989 321  4559
7990 2631 8700
7991 1730 4677
7992 1518 9442
7993 9365 1703
7994 1736 4634
7995 3895 4825
7996 9929 5659
7997 2771 316 
7998 4779 4235
7999 6250 2513
8000 4146 236 
8001 4552 9110
8002 9539 5301
8003 5187 9362
8004 3370 8052
8005 3172 4628
8006 6230 6457
8007 3207 7116
8008 7544 7418
8009 8180 2059
8010 3228 4296
8011 132  6381
8012 1929 7211
8013 3960 162 
8014 6533 6646
8015 4381 1798
8016 1853 3804
8017 9154 1683
8018 7869 4274
8019 7492 8211
8020 5905 9780
8021 8944 4795
8022 6098 316 
8023 5557 8404
8024 8447 2429
8025 2905 6782
8026 8458 9319
8027 6545 5471
8028 403  2264
8029 2795 4727
8030 4190 7952
8031 9981 1069
8032 1971 407 
8033 8728 7817
8034 3485 9362
8035 3284 3444
8036 371  3286
8037 7146 9623
8038 9811 3179
8039 1920 7874
8040 3946 9894
8041 5634 4845
8042 1133 8872
8043 89   2018
8044 2665 2579
8045 9215 576 
8046 4561 9231
8047 7053 5571
8048 9669 171 
8049 2360 9606
8050 4462 2520
8051 3224 4600
8052 495  1607
8053 4561 4826
8054 7715 9264
8055 4764 9670
8056 4939 3536
8057 7350 6978
8058 3071 7688
8059 7638 7714
8060 379  4622
8061 8012 2395
8062 6224 8317
8063 6062 775 
8064 3951 6250
8065 7499 7549
8066 6035 8101
8067 5054 298 
8068 8534 7784
8069 9710 5315
8070 8988 6938
8071 5739 4370
8072 4048 7000
8073 7350 344 
8074 1159 9946
8075 5069 6723
8076 4090 9789
8077 4701 8299
8078 5112 4601
8079 5829 9755
8080 562  3199
8081 3489 2368
8082 2868 5796
8083 8387 8027
8084 7211 6692
8085 5878 5509
8086 9185 3951
8087 7249 885 
8088 3305 5457
8089 926  3538
8090 5618 3070
8091 7508 2766
8092 3267 6244
8093 9288 4900
8094 4564 5198
8095 7975 3194
8096 1372 2941
8097 4221 6826
8098 2325 9413
8099 938  1431
8100 2482 9310
8101 3551 2869
8102 2419 8168
8103 9160 7629
8104 1653 5121
8105 5740 5671
8106 7952 6888
8107 5998 2631
8108 886  7155
8109 5485 8049
8110 4472 7619
8111 2048 8619
8112 9862 9218
8113 3379 3053
8114 5892 9044
8115 3517 5978
8116 2210 1360
8117 3204 572 
8118 1332 921 
8119 3248 7876
8120 795  4725
8121 4750 8742
8122 4129 271 
8123 243  1944
8124 9669 1722
8125 4258 7052
8126 376  8940
8127 5109 1094
8128 8775 299 
8129 8549 7785
8130 2508 2164
8131 7574 1176
8132 7810 9899
8133 8132 2382
8134 321  5391
8135 7963 2160
8136 1197 7   
8137 1160 6011
8138 5171 9694
8139 9617 2149
8140 9036 1487
8141 6819 8281
8142 8313 7583
8143 5273 7192
8144 6913 6862
8145 4411 1456
8146 5507 6183
8147 9561 6632
8148 5124 628 
8149 1194 6292
8150 9864 9906
8151 6743 1409
8152 270  9717
8153 5700 4542
8154 7805 6246
8155 9957 3460
8156 3033 9067
8157 8637 711 
8158 540  9730
8159 8952 1454
8160 1665 8519
8161 5053 2393
8162 4826 7661
8163 6374 9647
8164 5062 4837
8165 2567 756 
8166 481  2531
8167 7282 3075
8168 6782 3811
8169 7553 4718
8170 3639 4553
8171 5130 5973
8172 5224 4924
8173 133  8220
8174 7671 8921
8175 3261 9190
8176 5613 8011
8177 7395 5954
8178 4738 3302
8179 2619 6446
8180 937  9492
8181 1398 1584
8182 9122 3137
8183 5745 4984
8184 7317 7903
8185 6966 7655
8186 3758 7956
8187 1168 5747
8188 5887 4902
8189 6882 9619
8190 6788 6758
8191 2965 1600
8192 6207 105 
8193 6728 6764
8194 1768 1451
8195 5539 2122
8196 2491 9612
8197 1282 8654
8198 8398 4226
8199 539  3648
8200 7901 6278
8201 8017 2441
8202 1897 6383
8203 843  5346
8204 9178 546 
8205 2770 6970
8206 914  9309
8207 1185 5894
8208 9658 5700
8209 9218 4825
8210 842  2011
8211 4825 7945
8212 1866 3714
8213 1027 120 
8214 9958 8142
8215 9157 1476
8216 7436 5684
8217 1746 1196
8218 9716 8566
8219 2494 9454
8220 5304 998 
8221 9785 8569
8222 4409 3994
8223 4451 7007
8224 9448 4862
8225 2249 3530
8226 4854 7132
8227 4033 4628
8228 3286 1819
8229 937  8707
8230 1861 5248
8231 387  5968
8232 6031 1978
8233 9382 5924
8234 2666 8734
8235 6901 9686
8236 5015 875 
8237 125  8949
8238 8763 173 
8239 9863 1124
8240 4592 7233
8241 7221 6026
8242 3192 4375
8243 1067 4920
8244 7650 5147
8245 1394 490 
8246 4057 1802
8247 3063 5145
8248 834  5990
8249 3569 6855
8250 3967 7792
8251 2248 3658
8252 5515 8314
8253 9580 6839
8254 3980 4483
8255 9414 9587
8256 3074 5535
8257 5781 407 
8258 4505 6414
8259 3181 6109
8260 7057 1165
8261 3539 234 
8262 7536 2040
8263 1365 2130
8264 1931 2994
8265 2321 6480
8266 3114 9035
8267 7599 6005
8268 8254 5064
8269 4577 4904
8270 3726 5408
8271 4562 6219
8272 7125 4539
8273 246  9777
8274 3392 9287
8275 2569 669 
8276 3779 7218
8277 3253 2527
8278 2863 3111
8279 8886 1310
8280 3781 8714
8281 3650 8137
8282 2801 7484
8283 509  1875
8284 9476 5115
8285 6998 392 
8286 565  6534
8287 6144 2761
8288 4410 7501
8289 8885 4562
8290 4628 1271
8291 251  3105
8292 6963 6332
8293 3347 3568
8294 9904 413 
8295 7410 8548
8296 3808 9516
8297 4409 2048
8298 8754 3026
8299 8827 5084
8300 2914 2042
8301 5691 445 
8302 8593 5001
8303 5734 8198
8304 6991 9972
8305 2755 7607
8306 1448 1931
8307 4021 5826
8308 5865 5322
8309 1476 5850
8310 2719 3404
8311 5692 961 
8312 8218 8913
8313 2103 4570
8314 6759 2812
8315 2157 8800
8316 8426 7621
8317 1901 7652
8318 375  6518
8319 3696 6429
8320 9281 7986
8321 879  359 
8322 5076 9830
8323 965  4929
8324 5370 4262
8325 7896 1854
8326 4618 100 
8327 2368 3886
8328 1933 9402
8329 9025 8932
8330 8600 7235
8331 2346 5525
8332 103  682 
8333 6050 8152
8334 7302 3569
8335 4665 1884
8336 5149 5905
8337 8443 2721
8338 41   7086
8339 7642 2868
8340 2816 3865
8341 4904 3424
8342 5186 1982
8343 9999 7624
8344 8319 6051
8345 1393 1742
8346 4449 8162
8347 7925 820 
8348 3060 2713
8349 4003 1037
8350 9508 5960
8351 9084 2077
8352 6847 1390
8353 7456 2931
8354 9956 5681
8355 7764 5693
8356 2248 7325
8357 7969 8660
8358 4981 9503
8359 5245 7597
8360 197  5538
8361 6587 6710
8362 9773 3531
8363 295  9332
8364 3476 524 
8365 6591 19  
8366 6594 4652
8367 5600 1535
8368 7519 4500
8369 5699 2225
8370 4501 8152
8371 6012 6296
8372 9446 3347
8373 4668 7295
8374 8560 2565
8375 6968 2781
8376 6294 1229
8377 5524 3015
8378 4316 7297
8379 2862 9230
8380 8758 2976
8381 9049 220 
8382 4646 4297
8383 2169 3659
8384 8241 5395
8385 6042 7776
8386 7500 2778
8387 9491 5297
8388 9949 9781
8389 1123 5525
8390 1839 1799
8391 7196 8243
8392 427  1226
8393 2924 3220
8394 906  3985
8395 5019 655 
8396 9611 2562
8397 7822 4658
8398 2158 4728
8399 4928 4075
8400 6437 7343
8401 6706 585 
8402 7260 1440
8403 5257 6235
8404 193  954 
8405 1211 428 
8406 8293 5870
8407 5475 4415
8408 6654 8287
8409 5892 9411
8410 6367 7170
8411 6459 8287
8412 3441 3825
8413 5947 6102
8414 7002 7410
8415 5612 6042
8416 1522 4293
8417 6116 2939
8418 798  5983
8419 1433 8513
8420 1986 8697
8421 6239 7381
8422 9139 3989
8423 3380 5626
8424 7756 9346
8425 4178 8537
8426 7757 6052
8427 3841 1232
8428 1655 5685
8429 828  5728
8430 7906 9816
8431 9631 5184
8432 9441 4899
8433 3831 4016
8434 2661 4426
8435 70   1419
8436 9836 8703
8437 3296 7088
8438 8674 9807
8439 6960 366 
8440 3415 2674
8441 9781 2702
8442 4678 8233
8443 9878 4697
8444 4005 6865
8445 3212 4780
8446 1638 2102
8447 5032 6694
8448 2713 4643
8449 7740 5561
8450 7413 7719
8451 5719 9177
8452 5439 732 
8453 9403 9280
8454 2760 6039
8455 2749 2857
8456 4533 1501
8457 3168 8364
8458 3345 3319
8459 662  9148
8460 4797 7716
8461 3919 1873
8462 9774 5514
8463 3559 2662
8464 874  5453
8465 3579 3884
8466 9927 2456
8467 6504 2346
8468 5952 6700
8469 5904 7363
8470 9932 7891
8471 7023 7078
8472 1258 6188
8473 2967 6817
8474 8395 1753
8475 4653 7562
8476 1293 5248
8477 8993 7839
8478 7467 1866
8479 2431 4477
8480 9434 6971
8481 9011 2483
8482 7610 1506
8483 7483 7721
8484 5870 6935
8485 9817 4380
8486 7921 8367
8487 3093 3896
8488 8342 2050
8489 276  9621
8490 8493 1690
8491 5613 4411
8492 2612 5533
8493 2727 115 
8494 8666 7422
8495 5350 6679
8496 3659 2580
8497 1234 713 
8498 568  6828
8499 2386 991 
8500 9538 7793
8501 601  8887
8502 3001 3658
8503 1604 4298
8504 2730 7120
8505 2699 3263
8506 5347 2640
8507 156  5594
8508 6882 5038
8509 6692 3307
8510 8779 1352
8511 5609 6882
8512 6531 5675
8513 5378 611 
8514 5096 5362
8515 7935 2327
8516 4525 1462
8517 8233 673 
8518 5565 660 
8519 5607 997 
8520 5241 4308
8521 8199 7484
8522 6493 399 
8523 151  8109
8524 5555 4267
8525 9964 6710
8526 3648 5274
8527 2677 4643
8528 1629 2146
8529 4881 4601
8530 6763 3847
8531 4135 8207
8532 765  6548
8533 6033 1921
8534 3279 5350
8535 8760 2274
8536 3404 4061
8537 2559 9379
8538 356  2303
8539 6330 3750
8540 140  1980
8541 6061 2783
8542 8079 6874
8543 4487 1730
8544 9427 658 
8545 2478 990 
8546 9486 1049
8547 6986 5388
8548 1698 3466
8549 5613 829 
8550 2840 3159
8551 1747 4951
8552 9440 3166
8553 9012 8496
8554 9810 448 
8555 5526 5464
8556 7588 9350
8557 9771 5410
8558 534  4517
8559 7677 2795
8560 5574 7779
8561 1099 8152
8562 8501 5300
8563 7685 7167
8564 370  7942
8565 7581 162 
8566 2937 4417
8567 62   5901
8568 6438 7652
8569 2207 713 
8570 5932 2855
8571 5271 4727
8572 7548 6902
8573 237  8709
8574 4367 5697
8575 2162 9863
8576 7257 2292
8577 8562 2807
8578 527  4311
8579 757  7549
8580 5584 3511
8581 9439 8086
8582 1676 2047
8583 7613 2168
8584 4135 2536
8585 317  1424
8586 8922 3122
8587 5189 9348
8588 4594 9155
8589 4458 4081
8590 3774 9846
8591 3561 972 
8592 1223 6409
8593 5167 2715
8594 152  7859
8595 5060 7497
8596 2795 3112
8597 9415 3067
8598 6274 7001
8599 7784 3098
8600 5776 6641
8601 1242 4760
8602 62   6714
8603 2725 7114
8604 6810 7924
8605 5530 6049
8606 944  2046
8607 7365 8370
8608 3579 9919
8609 8999 6211
8610 8743 9466
8611 6003 1818
8612 8382 439 
8613 1111 1908
8614 2584 1923
8615 4632 2861
8616 6682 3684
8617 6881 3964
8618 5133 7603
8619 648  2556
8620 8640 6210
8621 5371 3741
8622 9565 2823
8623 2333 9927
8624 488  9420
8625 8058 3101
8626 1638 4761
8627 8286 5809
8628 2314 5914
8629 4822 1322
8630 7549 7706
8631 8269 3541
8632 5556 272 
8633 8972 1262
8634 1572 2607
8635 4904 5139
8636 2106 4676
8637 2670 1556
8638 9241 5352
8639 9693 8816
8640 9051 480 
8641 6067 8680
8642 2032 5547
8643 8942 6623
8644 460  1102
8645 3194 2362
8646 1317 5233
8647 6417 4450
8648 6340 7607
8649 1406 6407
8650 1170 2508
8651 4204 2861
8652 1661 1280
8653 6405 1550
8654 4836 9305
8655 3705 6280
8656 5303 2278
8657 3967 3296
8658 9882 5817
8659 9591 9074
8660 8562 1312
8661 4271 6198
8662 3188 917 
8663 1380 6326
8664 4314 1639
8665 5792 8675
8666 9766 4026
8667 3040 7996
8668 5721 6410
8669 9618 4854
8670 5580 8986
8671 6017 8755
8672 4078 20  
8673 9401 3164
8674 977  5551
8675 1810 2368
8676 5797 1515
8677 7972 7464
8678 4221 7851
8679 8173 3686
8680 3188 1353
8681 5774 6857
8682 1197 2187
8683 4805 4479
8684 8413 7176
8685 2335 5134
8686 3519 1648
8687 8286 3446
8688 1757 8107
8689 8495 1166
8690 1813 7694
8691 659  3654
8692 4811 3427
8693 7267 3410
8694 1900 7920
8695 622  1003
8696 657  1317
8697 5561 3088
8698 2544 976 
8699 5754 4660
8700 6480 7524
8701 507  5784
8702 7455 5235
8703 9487 6430
8704 6406 2911
8705 5267 8078
8706 965  3507
8707 3368 8756
8708 9709 3643
8709 6715 1993
8710 1853 2417
8711 3944 9944
8712 2654 623 
8713 5140 5443
8714 6826 4593
8715 1270 753 
8716 4003 788 
8717 411  1648
8718 5226 9441
8719 8642 9634
8720 3130 9166
8721 3552 9976
8722 3473 2815
8723 59   9130
8724 6562 7621
8725 6608 376 
8726 1576 3440
8727 7791 7692
8728 4685 5804
8729 7286 1848
8730 3001 5170
8731 4829 8756
8732 5319 8223
8733 2877 9965
8734 2903 5295
8735 1807 7315
8736 7546 7149
8737 1825 657 
8738 7107 4021
8739 1342 4860
8740 6921 496 
8741 8556 2070
8742 4586 9449
8743 1736 6594
8744 2821 6795
8745 2836 1973
8746 3602 9339
8747 664  9573
8748 9885 704 
8749 777  9226
8750 8704 5926
8751 146  3389
8752 6700 1323
8753 6292 6021
8754 7584 8739
8755 6003 5761
8756 4898 390 
8757 6402 201 
8758 4714 5482
8759 8441 9247
8760 8938 2604
8761 9288 3935
8762 10   4847
8763 9289 5610
8764 8574 2896
8765 8036 6850
8766 3171 3857
8767 5917 730 
8768 3983 2808
8769 4183 2698
8770 3231 915 
8771 7485 148 
8772 6430 3298
8773 3125 8306
8774 9389 5270
8775 8841 7040
8776 5917 508 
8777 8514 3773
8778 7677 8360
8779 6160 6692
8780 3515 8185
8781 5914 5891
8782 5156 3918
8783 2921 1660
8784 8582 7427
8785 5349 9884
8786 6808 4395
8787 5437 264 
8788 3333 3270
8789 2438 6122
8790 2117 7028
8791 6258 6822
8792 7560 1085
8793 7854 7138
8794 9761 4318
8795 7991 8985
8796 2688 5077
8797 4631 9846
8798 7290 2367
8799 8297 9162
8800 140  1791
8801 4560 9487
8802 4950 8358
8803 4930 5415
8804 6759 1589
8805 6307 3552
8806 2008 2129
8807 6349 6980
8808 9862 2306
8809 3572 9353
8810 6959 9609
8811 3896 842 
8812 329  2540
8813 9483 1427
8814 7179 209 
8815 3592 695 
8816 3699 3559
8817 942  4978
8818 3083 8643
8819 2990 1306
8820 6898 7580
8821 3179 7768
8822 4535 8571
8823 2370 3419
8824 3258 5714
8825 4782 3717
8826 1805 7075
8827 2259 6554
8828 3236 6276
8829 1064 9577
8830 9009 4726
8831 6497 7593
8832 4874 4790
8833 7813 3697
8834 7400 1844
8835 5812 7443
8836 859  7624
8837 4353 4925
8838 8142 8681
8839 8512 6824
8840 4942 2588
8841 9484 7266
8842 4855 2501
8843 729  8753
8844 3252 5656
8845 9523 4679
8846 1351 6043
8847 9891 9333
8848 8093 8364
8849 8766 7082
8850 2801 2678
8851 1223 8938
8852 5053 1550
8853 2278 4346
8854 9969 4452
8855 4088 6900
8856 9061 6473
8857 4360 3245
8858 8069 4907
8859 8032 5838
8860 4694 6319
8861 7500 3588
8862 3181 8573
8863 3952 8367
8864 8611 5028
8865 6279 791 
8866 641  8021
8867 8599 5054
8868 8633 2992
8869 1375 1192
8870 1493 6464
8871 6605 6532
8872 9754 2825
8873 2117 2542
8874 1208 9102
8875 5940 871 
8876 9549 8167
8877 1957 4374
8878 6649 2485
8879 3411 1408
8880 7945 1651
8881 6872 4352
8882 8695 2087
8883 6115 475 
8884 9896 366 
8885 9279 9604
8886 5570 5684
8887 8227 3058
8888 2366 4517
8889 5595 6088
8890 8883 5866
8891 5041 1563
8892 223  3712
8893 8724 4761
8894 2372 9833
8895 3672 4797
8896 3535 2329
8897 3791 6111
8898 5953 5298
8899 8400 2721
8900 8100 2594
8901 9781 5708
8902 9170 6600
8903 4479 3840
8904 479  5472
8905 1849 181 
8906 8590 406 
8907 3818 706 
8908 172  6145
8909 2615 1788
8910 9331 3303
8911 3737 8595
8912 8128 5106
8913 9951 9755
8914 4431 6   
8915 7649 3465
8916 9300 3846
8917 9560 6284
8918 7143 4502
8919 2281 902 
8920 6411 670 
8921 8406 4561
8922 2220 9734
8923 8292 8315
8924 119  1443
8925 1755 2321
8926 7700 1833
8927 2175 1271
8928 2985 657 
8929 3701 2117
8930 5534 8638
8931 2575 3079
8932 2528 936 
8933 7206 4553
8934 9478 5801
8935 4972 5659
8936 1973 2427
8937 6272 5550
8938 3269 3346
8939 9104 7287
8940 4617 882 
8941 820  1252
8942 3738 2195
8943 1778 6516
8944 5020 7449
8945 8712 163 
8946 5117 103 
8947 6602 8907
8948 545  8570
8949 1754 7040
8950 5895 1446
8951 1590 1115
8952 6456 5829
8953 3575 6359
8954 5211 1703
8955 994  9187
8956 9525 6891
8957 52   4709
8958 175  6084
8959 6730 4931
8960 5702 9264
8961 2743 8594
8962 8626 768 
8963 2870 4109
8964 792  7034
8965 7101 384 
8966 154  2824
8967 5825 2440
8968 6389 9599
8969 4354 8896
8970 3502 8916
8971 6904 6954
8972 262  8613
8973 8496 9676
8974 5382 9779
8975 7127 7537
8976 1875 154 
8977 7605 2397
8978 6738 8317
8979 8476 8897
8980 8321 9472
8981 2056 1712
8982 6922 6979
8983 972  854 
8984 4060 3705
8985 323  5625
8986 1193 9091
8987 523  3836
8988 2320 1757
8989 5613 2992
8990 5980 8962
8991 5269 9439
8992 29   7351
8993 2416 4442
8994 7915 3660
8995 7017 8141
8996 8855 3326
8997 5832 3083
8998 3580 6236
8999 4877 6236
9000 955  3307
9001 1509 2688
9002 4620 4310
9003 3766 4276
9004 7370 7045
9005 6158 2925
9006 8719 2145
9007 5752 2509
9008 5967 4489
9009 4613 2139
9010 1208 7552
9011 1036 6465
9012 9735 1978
9013 4322 277 
9014 7267 2561
9015 5024 1357
9016 7864 4366
9017 7809 2300
9018 2312 4347
9019 5436 3334
9020 5505 9336
9021 7151 503 
9022 9919 3378
9023 4261 1291
9024 4256 5101
9025 5484 8025
9026 3891 940 
9027 8758 4166
9028 5392 4690
9029 5612 1505
9030 9333 3383
9031 1691 4614
9032 8753 2787
9033 6199 5973
9034 3621 5429
9035 710  6317
9036 4293 2716
9037 3075 8036
9038 2459 867 
9039 4327 6017
9040 1195 7400
9041 7757 14  
9042 8737 4539
9043 595  3044
9044 9674 5304
9045 4918 68  
9046 8169 8299
9047 5699 8508
9048 6539 7157
9049 937  7013
9050 8338 7605
9051 1516 6140
9052 4233 9043
9053 1572 5054
9054 9782 6014
9055 9435 4541
9056 9806 4188
9057 1336 4017
9058 544  3661
9059 4204 7933
9060 3226 3664
9061 1892 6849
9062 4059 4924
9063 3295 2561
9064 8703 423 
9065 8611 4894
9066 4410 1576
9067 1690 8453
9068 1297 2467
9069 4988 8730
9070 5969 1899
9071 4082 7118
9072 6983 7327
9073 679  125 
9074 7827 4469
9075 8693 6419
9076 4548 7719
9077 3882 8849
9078 4894 9206
9079 7646 8977
9080 635  8485
9081 3755 8344
9082 7696 2611
9083 5748 9036
9084 9740 5370
9085 9988 3249
9086 5950 1687
9087 7162 7496
9088 1448 7368
9089 9152 2629
9090 1414 4013
9091 8135 4209
9092 2429 5134
9093 8268 7797
9094 8495 9366
9095 7336 5567
9096 3660 6309
9097 6741 1029
9098 849  2711
9099 611  8465
9100 4044 7081
9101 2151 547 
9102 965  2121
9103 5550 2218
9104 8760 2408
9105 6577 7293
9106 978  4248
9107 3519 8261
9108 2895 1632
9109 3018 6854
9110 9459 2062
9111 2241 1615
9112 9369 9305
9113 280  9134
9114 6371 4936
9115 8643 8816
9116 3869 900 
9117 2089 8083
9118 6014 8391
9119 4125 9317
9120 4564 5284
9121 7997 7140
9122 5138 663 
9123 9483 1479
9124 445  7485
9125 9369 1792
9126 7590 8322
9127 7285 3327
9128 4773 1237
9129 5983 6883
9130 8023 2393
9131 6420 6467
9132 8938 6381
9133 1322 5394
9134 5828 1804
9135 3578 3302
9136 5206 4416
9137 7913 6637
9138 8991 491 
9139 5471 4900
9140 4739 4215
9141 7928 3323
9142 1211 6770
9143 2722 5694
9144 1971 8229
9145 9343 9974
9146 6311 1669
9147 4006 1943
9148 6031 6631
9149 3886 1141
9150 5407 6745
9151 1129 4370
9152 9008 3257
9153 7199 5694
9154 4667 6877
9155 9281 2200
9156 2637 3063
9157 9202 5942
9158 4194 4797
9159 3262 2   
9160 8910 6183
9161 3587 2709
9162 8994 7383
9163 7801 1185
9164 7788 317 
9165 9287 5923
9166 5412 3079
9167 4053 2618
9168 9327 4578
9169 3205 5478
9170 436  8617
9171 6161 3616
9172 356  9047
9173 412  20  
9174 5758 1322
9175 3259 2859
9176 4650 2388
9177 4176 431 
9178 4117 6769
9179 3239 4157
9180 545  7297
9181 8451 1496
9182 5306 6350
9183 7580 990 
9184 2247 1388
9185 8830 6178
9186 6754 3499
9187 755  8366
9188 5238 7470
9189 1310 1419
9190 6112 8780
9191 5462 3666
9192 933  5792
9193 9412 6979
9194 9385 2756
9195 6684 4026
9196 8567 3053
9197 8417 3604
9198 9709 7286
9199 2521 5003
9200 3218 1430
9201 6588 8777
9202 5139 5051
9203 2705 4213
9204 1220 2935
9205 8981 554 
9206 6002 649 
9207 6935 1880
9208 9094 3122
9209 7612 6211
9210 7122 3664
9211 9168 4057
9212 8372 6578
9213 8452 2978
9214 6579 1419
9215 2281 7257
9216 6938 1458
9217 7047 9897
9218 8228 7049
9219 984  381 
9220 822  621 
9221 7946 178 
9222 8234 1810
9223 8839 883 
9224 1346 7958
9225 2003 4963
9226 7565 840 
9227 6526 2674
9228 4779 2308
9229 1828 742 
9230 2829 7789
9231 215  7881
9232 7754 6674
9233 9674 5045
9234 4225 8875
9235 6557 7355
9236 2272 8891
9237 2080 5152
9238 609  419 
9239 6527 9874
9240 9078 6703
9241 4084 3584
9242 5804 5848
9243 5701 8878
9244 6017 6376
9245 7680 2475
9246 4015 1234
9247 8150 7563
9248 5392 2131
9249 5160 7034
9250 4148 7278
9251 8024 9673
9252 9347 2840
9253 304  8561
9254 7537 7429
9255 4937 5659
9256 336  3999
9257 1886 6165
9258 3265 9274
9259 5400 5158
9260 825  1464
9261 9061 6631
9262 8848 2369
9263 1697 6501
9264 9843 3458
9265 25   6113
9266 5900 9579
9267 5854 1145
9268 1294 5922
9269 1407 4351
9270 7095 9683
9271 8834 5491
9272 694  9430
9273 9342 2734
9274 4466 1848
9275 3565 5915
9276 1367 7925
9277 5662 8766
9278 8903 1335
9279 1720 4521
9280 7781 3081
9281 4816 4710
9282 9146 8853
9283 2052 5316
9284 2651 1433
9285 1045 6367
9286 9600 8165
9287 9859 4540
9288 6226 5151
9289 4819 767 
9290 9176 1246
9291 4149 3983
9292 3919 7811
9293 8240 7486
9294 6110 1399
9295 3047 408 
9296 870  8800
9297 9532 5442
9298 1069 4780
9299 8951 5855
9300 4971 3010
9301 4166 7543
9302 7237 8512
9303 2162 6386
9304 4592 9038
9305 9746 9357
9306 5917 7047
9307 235  9890
9308 4085 9634
9309 9463 2057
9310 3626 4261
9311 9366 962 
9312 1235 3635
9313 444  8873
9314 6516 3262
9315 4289 5774
9316 4934 4926
9317 3160 7438
9318 9559 4367
9319 3184 6009
9320 6713 98  
9321 4289 778 
9322 9965 9718
9323 7253 2996
9324 5246 6223
9325 1541 362 
9326 9907 4348
9327 3402 2507
9328 7131 3628
9329 1852 5449
9330 3442 1991
9331 6403 8434
9332 7840 1520
9333 4932 7766
9334 7637 1606
9335 2367 3326
9336 2641 9777
9337 8514 8575
9338 6008 2641
9339 4883 3514
9340 3519 9809
9341 8997 2553
9342 5174 2674
9343 4600 2306
9344 7006 7621
9345 9024 8004
9346 1907 2317
9347 7791 9230
9348 3211 7494
9349 6133 4467
9350 5541 8939
9351 9092 7729
9352 1908 6729
9353 4503 9696
9354 3875 3260
9355 8433 6075
9356 9443 5764
9357 3093 1255
9358 5974 995 
9359 8756 5782
9360 8703 9586
9361 1829 4491
9362 1811 5008
9363 8384 4954
9364 188  1207
9365 3741 5727
9366 2451 2426
9367 8148 6655
9368 5616 1379
9369 7407 4353
9370 4959 731 
9371 4844 4529
9372 9891 3965
9373 963  5735
9374 7742 2950
9375 8420 8231
9376 7521 7459
9377 2773 4949
9378 1527 4444
9379 8551 7960
9380 8595 4078
9381 5142 1043
9382 4281 1838
9383 8089 5710
9384 3655 6096
9385 6419 4180
9386 5056 5216
9387 4071 6200
9388 983  9410
9389 9698 1079
9390 7284 2141
9391 8223 4343
9392 3757 2409
9393 453  4257
9394 9574 7761
9395 9118 2380
9396 4042 3493
9397 2945 6680
9398 7851 1233
9399 9787 4827
9400 2447 2399
9401 9136 8610
9402 4837 4328
9403 9565 1063
9404 2294 4375
9405 7833 152 
9406 6357 3139
9407 5694 5374
9408 7941 9271
9409 6496 9999
9410 6719 210 
9411 2983 472 
9412 1236 2208
9413 3995 6448
9414 5241 2319
9415 9595 7039
9416 1169 77  
9417 835  3153
9418 8196 5963
9419 2862 1310
9420 9454 5907
9421 5321 6120
9422 5807 9056
9423 1440 4240
9424 183  26  
9425 8769 2780
9426 8401 6103
9427 4930 1049
9428 3389 3792
9429 837  1829
9430 5504 435 
9431 8949 247 
9432 7473 7009
9433 37   7482
9434 3652 1753
9435 2968 7543
9436 4055 1676
9437 7420 6349
9438 8939 5197
9439 9742 7312
9440 8239 8375
9441 9655 5140
9442 1643 9818
9443 9814 9810
9444 7423 3928
9445 7339 5203
9446 7866 8153
9447 4434 4559
9448 712  4722
9449 2866 9618
9450 8961 3370
9451 8764 2125
9452 2500 8254
9453 6119 8628
9454 9623 1477
9455 2889 5166
9456 8497 7142
9457 9568 6703
9458 9343 8019
9459 7038 3604
9460 8310 7695
9461 3664 2971
9462 7267 9550
9463 1607 5057
9464 8929 8270
9465 2854 2841
9466 1868 7267
9467 8517 5790
9468 4854 5940
9469 4641 6124
9470 2473 4591
9471 8077 782 
9472 2474 4144
9473 634  3171
9474 8095 6001
9475 4042 2741
9476 3292 8589
9477 2209 2013
9478 3596 9833
9479 749  6359
9480 3922 7203
9481 7998 9134
9482 5752 901 
9483 3718 9024
9484 6829 848 
9485 4887 84  
9486 6831 9533
9487 4335 5479
9488 9661 536 
9489 1534 6896
9490 9574 1243
9491 7201 7933
9492 3232 3902
9493 7149 2783
9494 294  6416
9495 3355 5440
9496 5081 4656
9497 4517 9386
9498 750  9023
9499 1626 4865
9500 1139 8061
9501 7223 305 
9502 10   5840
9503 7728 9628
9504 1209 3227
9505 8838 7607
9506 3659 4827
9507 2650 3082
9508 2418 8597
9509 6303 8448
9510 7870 8440
9511 7890 1997
9512 9961 4897
9513 5587 9882
9514 8697 2003
9515 2121 6825
9516 5604 7675
9517 2425 2727
9518 9346 7818
9519 5016 267 
9520 4279 3047
9521 2191 2010
9522 5683 6293
9523 6686 6235
9524 137  6029
9525 4305 1640
9526 5519 6767
9527 8967 1359
9528 2410 2032
9529 4986 4544
9530 2401 6415
9531 4981 606 
9532 7544 4259
9533 8100 6742
9534 9244 1895
9535 9441 6111
9536 2395 3069
9537 714  9640
9538 3202 3997
9539 5803 4554
9540 1181 777 
9541 710  4444
9542 8301 3044
9543 810  6425
9544 7510 2606
9545 9467 6800
9546 4368 4340
9547 1003 2896
9548 2660 5545
9549 1165 5701
9550 5535 9519
9551 296  4010
9552 4265 914 
9553 8485 9981
9554 5800 3598
9555 3171 4975
9556 4919 6611
9557 898  5842
9558 3540 9824
9559 1041 6617
9560 4183 8218
9561 5488 1241
9562 6678 7612
9563 5532 4973
9564 4319 3925
9565 9029 264 
9566 9225 4316
9567 3443 7501
9568 740  2741
9569 7174 1040
9570 2069 4819
9571 3763 71  
9572 9020 8950
9573 2155 9719
9574 8471 8910
9575 7742 4650
9576 8021 9407
9577 3183 9703
9578 3064 5068
9579 6845 2755
9580 4883 4458
9581 1103 8624
9582 7256 5098
9583 6563 578 
9584 968  3618
9585 9627 6491
9586 9807 2809
9587 3445 7070
9588 8695 7572
9589 419  9215
9590 2211 2800
9591 4267 2671
9592 1151 5276
9593 5651 255 
9594 4384 9690
9595 7333 4465
9596 6893 4410
9597 13   123 
9598 7131 9412
9599 9028 4195
9600 5985 458 
9601 4508 858 
9602 2824 2864
9603 306  2666
9604 3866 312 
9605 6312 2851
9606 5459 991 
9607 9620 7862
9608 5416 3458
9609 8373 9088
9610 7060 734 
9611 4398 4972
9612 8446 6474
9613 6649 6299
9614 5825 5598
9615 2972 8627
9616 8854 3413
9617 6107 4097
9618 7619 3894
9619 7050 1639
9620 1556 2466
9621 4622 8792
9622 350  8918
9623 213  4254
9624 9527 667 
9625 1803 6476
9626 2732 8200
9627 5282 6024
9628 7364 5965
9629 2802 8189
9630 3718 5529
9631 8204 7620
9632 860  4908
9633 4871 1634
9634 5670 7822
9635 8553 8378
9636 837  9022
9637 7214 4639
9638 7242 6980
9639 8913 9034
9640 7606 3633
9641 595  958 
9642 5896 1102
9643 2425 7005
9644 8293 9247
9645 74   6699
9646 9580 436 
9647 4067 6528
9648 4463 4511
9649 2258 740 
9650 7777 3215
9651 6855 4830
9652 6226 1589
9653 5490 3499
9654 133  8772
9655 5563 1781
9656 8420 7734
9657 6791 9916
9658 1352 2148
9659 9573 2436
9660 8120 6973
9661 9230 8164
9662 7505 6708
9663 6154 8850
9664 315  3851
9665 3576 2593
9666 7405 5726
9667 2909 4622
9668 9370 2278
9669 2509 2644
9670 1208 1682
9671 2405 3600
9672 8671 3634
9673 3044 9253
9674 3718 6229
9675 3842 8458
9676 6410 3919
9677 8269 8039
9678 6074 4523
9679 7205 8353
9680 8813 7349
9681 3946 2761
9682 9798 9541
9683 8270 3399
9684 6807 6324
9685 5911 9646
9686 8786 5045
9687 7961 7976
9688 4927 9365
9689 3242 9206
9690 8891 9856
9691 6898 2336
9692 8075 5543
9693 5450 5938
9694 1713 9432
9695 9181 1644
9696 7950 7124
9697 4620 3511
9698 63   3846
9699 3021 162 
9700 3510 4631
9701 1791 5426
9702 7819 2632
9703 7471 7008
9704 8402 548 
9705 5378 7905
9706 1379 5589
9707 2181 7892
9708 3955 8607
9709 6239 75  
9710 6681 6398
9711 9218 9554
9712 7112 9526
9713 8849 3673
9714 5499 2462
9715 8385 2368
9716 6668 1212
9717 678  7418
9718 7627 2385
9719 1889 5241
9720 8767 6000
9721 3084 9957
9722 5756 4686
9723 4353 1213
9724 5117 6617
9725 8057 2462
9726 3277 4557
9727 3417 18  
9728 2681 3570
9729 2295 630 
9730 4688 2747
9731 3375 9704
9732 5828 5345
9733 4792 7348
9734 3748 4188
9735 6729 130 
9736 2506 6374
9737 3541 1982
9738 3458 8355
9739 4943 999 
9740 6679 5345
9741 9725 7259
9742 717  2465
9743 8107 6225
9744 6165 9472
9745 2431 8334
9746 7262 7650
9747 4383 2321
9748 1027 6824
9749 5322 8408
9750 1037 1319
9751 5491 2804
9752 7691 3975
9753 5646 813 
9754 6465 9252
9755 4074 6159
9756 1183 4310
9757 2794 3733
9758 3371 7194
9759 2116 5238
9760 957  25  
9761 1298 2315
9762 1704 1306
9763 5198 2588
9764 4964 1130
9765 5572 1029
9766 8649 8885
9767 5867 7071
9768 7365 986 
9769 5702 8280
9770 9255 191 
9771 2464 5129
9772 2036 7314
9773 1028 6815
9774 4907 4358
9775 2374 3271
9776 6430 5120
9777 831  4371
9778 2968 80  
9779 3625 3222
9780 3515 5521
9781 7944 6429
9782 3903 579 
9783 4144 6552
9784 5201 5807
9785 6857 813 
9786 1316 5513
9787 8799 5170
9788 6456 7857
9789 3128 5712
9790 1374 1634
9791 51   7970
9792 1657 9339
9793 5319 528 
9794 8893 7194
9795 6237 6885
9796 7030 8672
9797 8017 7439
9798 9903 6235
9799 5283 9836
9800 4721 8897
9801 5187 2539
9802 6991 1244
9803 4337 2819
9804 5835 1179
9805 6592 7812
9806 5262 1795
9807 7992 4875
9808 749  4086
9809 3292 9298
9810 7906 9471
9811 3720 8170
9812 7279 2282
9813 5115 5770
9814 5305 5762
9815 3574 8447
9816 7666 576 
9817 4166 1380
9818 7333 3871
9819 7530 2507
9820 686  2308
9821 5175 3049
9822 8436 1735
9823 2271 5237
9824 7791 9584
9825 9171 2228
9826 9660 6872
9827 1583 1164
9828 3881 5979
9829 3965 3741
9830 9767 3897
9831 829  4246
9832 8352 1419
9833 7643 1150
9834 296  1936
9835 6138 2323
9836 9154 8401
9837 4167 9545
9838 5494 5071
9839 8539 3916
9840 4415 2906
9841 3456 8556
9842 4067 2687
9843 1594 229 
9844 6874 7019
9845 4887 8399
9846 7535 6514
9847 7268 1867
9848 2765 4705
9849 1837 7588
9850 6574 9325
9851 3132 7055
9852 50   5405
9853 7253 8869
9854 1506 359 
9855 1151 7090
9856 990  6051
9857 6284 5932
9858 8827 2668
9859 8566 3824
9860 9430 5584
9861 5708 6885
9862 3118 428 
9863 3601 6658
9864 6444 6175
9865 8625 7638
9866 8162 3833
9867 9499 6825
9868 3689 3033
9869 9573 5284
9870 8744 1527
9871 7357 8617
9872 9477 2449
9873 5755 9318
9874 5709 6962
9875 4021 583 
9876 8652 483 
9877 2205 91  
9878 8635 8032
9879 6310 1682
9880 9854 4073
9881 9098 4141
9882 2675 6353
9883 2330 3388
9884 2549 8419
9885 5164 8005
9886 1089 5478
9887 4046 85  
9888 7119 3145
9889 5617 4880
9890 7328 7990
9891 7089 4934
9892 2076 7358
9893 979  902 
9894 332  6496
9895 9823 7483
9896 5380 6412
9897 3072 5346
9898 6648 7496
9899 8051 1692
9900 8834 1628
9901 2765 4366
9902 943  9162
9903 4868 3290
9904 1272 1869
9905 379  7272
9906 7815 950 
9907 35   3141
9908 6359 4228
9909 1027 2767
9910 3356 7985
9911 9582 1808
9912 6411 9663
9913 662  3674
9914 8570 4163
9915 937  3273
9916 9880 1249
9917 8232 3727
9918 9236 4525
9919 2488 4115
9920 8784 4191
9921 5089 8781
9922 1688 5293
9923 9020 9998
9924 1690 3082
9925 6092 7933
9926 3725 3171
9927 7731 2331
9928 3746 8033
9929 353  4178
9930 7683 6812
9931 7896 949 
9932 3440 2502
9933 6751 3463
9934 4451 2090
9935 859  5004
9936 8418 8001
9937 4613 1976
9938 4189 6030
9939 2858 2780
9940 9505 821 
9941 490  2106
9942 1394 9141
9943 6179 7162
9944 7268 4276
9945 2413 7477
9946 1268 9744
9947 6890 6239
9948 2422 1401
9949 4258 9350
9950 7916 1248
9951 6570 141 
9952 462  3128
9953 9757 6389
9954 2695 9401
9955 5550 5952
9956 751  2674
9957 144  5455
9958 3258 70  
9959 1299 3380
9960 568  2858
9961 5605 3885
9962 6399 8122
9963 3125 6787
9964 7212 5029
9965 3984 1327
9966 5568 7838
9967 333  9652
9968 80   1299
9969 6400 738 
9970 7101 6661
9971 1316 2272
9972 82   193 
9973 9334 5525
9974 2963 252 
9975 750  5784
9976 7865 2382
9977 3993 6120
9978 3122 1182
9979 766  6866
9980 3100 1286
9981 7969 6947
9982 6801 3475
9983 835  3543
9984 2120 3894
9985 8393 8745
9986 3449 8556
9987 7650 7362
9988 1314 8312
9989 9786 9197
9990 9712 9132
9991 9970 6391
9992 174  4106
9993 8943 3417
9994 6335 4297
9995 5493 6843
9996 8189 1151
9997 2063 8255
9998 504  8602
9999 2966 6533
10000 8997 7534
10001 3970 8046
DEMAND_SECTION
1    0   
2    39  
3    99  
4    66  
5    17  
6    53  
7    56  
8    94  
9    65  
10   96  
11   36  
12   20  
13   11  
14   95  
15   59  
16   56  
17   57  
18   59  
19   62  
20   55  
21   46  
22   14  
23   59  
24   85  
25   31  
26   74  
27   36  
28   22  
29   94  
30   17  
31   12  
32   3   
33   82  
34   93  
35   18  
36   61  
37   13  
38   78  
39   3   
40   22  
41   21  
42   44  
43   28  
44   12  
45   55  
46   10  
47   13  
48   56  
49   38  
50   6   
51   93  
52   97  
53   28  
54   85  
55   55  
56   25  
57   3   
58   61  
59   48  
60   16  
61   56  
62   53  
63   57  
64   19  
65   6   
66   8   
67   82  
68   41  
69   82  
70   64  
71   43  
72   19  
73   76  
74   22  
75   79  
76   93  
77   50  
78   66  
79   79  
80   42  
81   60  
82   76  
83   86  
84   96  
85   74  
86   72  
87   4   
88   62  
89   21  
90   60  
91   59  
92   39  
93   81  
94   23  
95   31  
96   76  
97   38  
98   54  
99   77  
100  14  
101  94  
102  64  
103  48  
104  6   
105  28  
106  74  
107  47  
108  66  
109  35  
110  94  
111  21  
112  49  
113  12  
114  14  
115  17  
116  10  
117  88  
118  59  
119  78  
120  45  
121  62  
122  21  
123  42  
124  41  
125  62  
126  92  
127  74  
128  85  
129  41  
130  43  
131  99  
132  31  
133  18  
134  21  
135  22  
136  82  
137  16  
138  59  
139  47  
140  23  
141  65  
142  56  
143  16  
144  32  
145  95  
146  36  
147  74  
148  9   
149  13  
150  93  
151  44  
152  24  
153  8   
154  44  
155  71  
156  18  
157  75  
158  88  
159  50  
160  15  
161  22  
162  62  
163  37  
164  37  
165  32  
166  76  
167  8   
168  1   
169  38  
170  60  
171  96  
172  83  
173  51  
174  28  
175  36  
176  99  
177  15  
178  69  
179  16  
180  43  
181  80  
182  87  
183  100 
184  60  
185  61  
186  97  
187  12  
188  81  
189  4   
190  62  
191  49  
192  85  
193  61  
194  24  
195  67  
196  68  
197  50  
198  73  
199  100 
200  27  
201  13  
202  5   
203  96  
204  18  
205  77  
206  48  
207  24  
208  96  
209  93  
210  32  
211  49  
212  1   
213  8   
214  92  
215  94  
216  63  
217  45  
218  74  
219  39  
220  99  
221  50  
222  61  
223  18  
224  19  
225  12  
226  11  
227  66  
228  19  
229  12  
230  47  
231  62  
232  62  
233  97  
234  52  
235  67  
236  82  
237  44  
238  51  
239  100 
240  93  
241  85  
242  60  
243  17  
244  76  
245  98  
246  67  
247  83  
248  98  
249  22  
250  41  
251  68  
252  94  
253  64  
254  13  
255  18  
256  59  
257  45  
258  73  
259  49  
260  75  
261  17  
262  32  
263  95  
264  68  
265  86  
266  25  
267  54  
268  70  
269  98  
270  30  
271  13  
272  47  
273  31  
274  58  
275  97  
276  27  
277  31  
278  22  
279  18  
280  70  
281  32  
282  87  
283  70  
284  10  
285  52  
286  81  
287  29  
288  24  
289  42  
290  20  
291  79  
292  35  
293  42  
294  63  
295  74  
296  56  
297  92  
298  1   
299  44  
300  21  
301  24  
302  9   
303  93  
304  63  
305  74  
306  81  
307  31  
308  39  
309  61  
310  19  
311  45  
312  76  
313  32  
314  19  
315  49  
316  82  
317  64  
318  83  
319  72  
320  32  
321  84  
322  74  
323  70  
324  33  
325  99  
326  59  
327  10  
328  70  
329  3   
330  19  
331  57  
332  46  
333  10  
334  66  
335  38  
336  39  
337  37  
338  89  
339  23  
340  39  
341  31  
342  89  
343  7   
344  64  
345  92  
346  33  
347  83  
348  81  
349  43  
350  64  
351  52  
352  20  
353  26  
354  28  
355  2   
356  29  
357  89  
358  100 
359  14  
360  45  
361  74  
362  30  
363  86  
364  100 
365  87  
366  5   
367  100 
368  91  
369  52  
370  2   
371  26  
372  27  
373  22  
374  54  
375  97  
376  35  
377  66  
378  58  
379  27  
380  82  
381  90  
382  52  
383  71  
384  45  
385  73  
386  1   
387  73  
388  21  
389  82  
390  39  
391  49  
392  73  
393  33  
394  84  
395  87  
396  14  
397  96  
398  8   
399  78  
400  45  
401  59  
402  37  
403  24  
404  53  
405  62  
406  41  
407  10  
408  26  
409  73  
410  91  
411  51  
412  80  
413  26  
414  26  
415  82  
416  87  
417  85  
418  7   
419  53  
420  25  
421  65  
422  32  
423  67  
424  55  
425  10  
426  42  
427  89  
428  8   
429  31  
430  12  
431  22  
432  48  
433  19  
434  46  
435  52  
436  9   
437  19  
438  78  
439  40  
440  92  
441  93  
442  65  
443  9   
444  97  
445  23  
446  68  
447  11  
448  91  
449  26  
450  64  
451  15  
452  22  
453  70  
454  90  
455  83  
456  15  
457  59  
458  63  
459  7   
460  98  
461  33  
462  42  
463  11  
464  11  
465  10  
466  30  
467  99  
468  23  
469  55  
470  66  
471  58  
472  4   
473  69  
474  65  
475  24  
476  62  
477  85  
478  61  
479  40  
480  13  
481  54  
482  23  
483  60  
484  19  
485  3   
486  4   
487  50  
488  47  
489  45  
490  90  
491  96  
492  100 
493  92  
494  31  
495  62  
496  6   
497  28  
498  90  
499  80  
500  69  
501  67  
502  6   
503  49  
504  73  
505  53  
506  62  
507  55  
508  35  
509  69  
510  82  
511  68  
512  100 
513  80  
514  20  
515  67  
516  54  
517  37  
518  23  
519  33  
520  14  
521  16  
522  68  
523  53  
524  19  
525  88  
526  54  
527  27  
528  12  
529  47  
530  15  
531  8   
532  27  
533  95  
534  87  
535  98  
536  98  
537  51  
538  44  
539  88  
540  33  
541  60  
542  28  
543  61  
544  34  
545  88  
546  94  
547  95  
548  41  
549  51  
550  64  
551  13  
552  68  
553  39  
554  60  
555  86  
556  76  
557  78  
558  30  
559  67  
560  24  
561  69  
562  86  
563  75  
564  17  
565  95  
566  1   
567  25  
568  89  
569  35  
570  40  
571  80  
572  70  
573  3   
574  86  
575  93  
576  90  
577  68  
578  70  
579  12  
580  38  
581  51  
582  30  
583  58  
584  58  
585  25  
586  11  
587  93  
588  62  
589  49  
590  13  
591  30  
592  83  
593  37  
594  2   
595  71  
596  37  
597  60  
598  43  
599  24  
600  39  
601  55  
602  77  
603  94  
604  66  
605  69  
606  17  
607  98  
608  32  
609  90  
610  65  
611  72  
612  32  
613  46  
614  47  
615  85  
616  40  
617  27  
618  49  
619  38  
620  42  
621  60  
622  36  
623  10  
624  98  
625  45  
626  40  
627  74  
628  24  
629  13  
630  36  
631  88  
632  14  
633  98  
634  67  
635  64  
636  90  
637  38  
638  54  
639  6   
640  69  
641  15  
642  93  
643  25  
644  10  
645  5   
646  99  
647  51  
648  21  
649  30  
650  19  
651  95  
652  100 
653  78  
654  99  
655  17  
656  33  
657  82  
658  54  
659  71  
660  28  
661  96  
662  69  
663  36  
664  10  
665  85  
666  7   
667  10  
668  93  
669  97  
670  54  
671  4   
672  33  
673  31  
674  22  
675  44  
676  91  
677  100 
678  66  
679  84  
680  5   
681  68  
682  39  
683  94  
684  51  
685  34  
686  50  
687  60  
688  13  
689  64  
690  76  
691  36  
692  76  
693  10  
694  9   
695  77  
696  10  
697  6   
698  40  
699  10  
700  1   
701  73  
702  86  
703  24  
704  5   
705  90  
706  96  
707  20  
708  4   
709  13  
710  43  
711  71  
712  20  
713  14  
714  54  
715  9   
716  12  
717  70  
718  74  
719  89  
720  55  
721  93  
722  53  
723  21  
724  36  
725  82  
726  3   
727  10  
728  92  
729  70  
730  52  
731  57  
732  3   
733  61  
734  58  
735  63  
736  68  
737  96  
738  5   
739  63  
740  89  
741  35  
742  35  
743  2   
744  24  
745  17  
746  29  
747  60  
748  5   
749  83  
750  55  
751  19  
752  55  
753  95  
754  53  
755  16  
756  62  
757  14  
758  41  
759  22  
760  32  
761  99  
762  93  
763  36  
764  76  
765  68  
766  22  
767  51  
768  89  
769  98  
770  30  
771  34  
772  25  
773  74  
774  11  
775  71  
776  41  
777  24  
778  84  
779  70  
780  12  
781  44  
782  92  
783  33  
784  22  
785  58  
786  41  
787  66  
788  54  
789  47  
790  5   
791  38  
792  42  
793  70  
794  7   
795  21  
796  42  
797  8   
798  75  
799  35  
800  98  
801  81  
802  8   
803  15  
804  26  
805  54  
806  23  
807  79  
808  21  
809  30  
810  3   
811  57  
812  35  
813  39  
814  91  
815  53  
816  79  
817  8   
818  39  
819  15  
820  93  
821  60  
822  11  
823  38  
824  47  
825  96  
826  90  
827  51  
828  6   
829  47  
830  50  
831  1   
832  77  
833  99  
834  69  
835  78  
836  75  
837  93  
838  52  
839  54  
840  3   
841  50  
842  20  
843  64  
844  57  
845  36  
846  2   
847  92  
848  92  
849  7   
850  26  
851  57  
852  60  
853  73  
854  58  
855  97  
856  74  
857  56  
858  42  
859  54  
860  1   
861  89  
862  42  
863  22  
864  58  
865  84  
866  74  
867  99  
868  22  
869  13  
870  97  
871  58  
872  84  
873  51  
874  90  
875  97  
876  86  
877  36  
878  54  
879  100 
880  7   
881  89  
882  84  
883  16  
884  14  
885  17  
886  38  
887  61  
888  54  
889  73  
890  24  
891  55  
892  73  
893  1   
894  89  
895  20  
896  96  
897  42  
898  93  
899  43  
900  51  
901  86  
902  4   
903  74  
904  26  
905  8   
906  25  
907  5   
908  77  
909  27  
910  5   
911  54  
912  92  
913  19  
914  2   
915  37  
916  8   
917  76  
918  56  
919  51  
920  76  
921  15  
922  3   
923  39  
924  67  
925  52  
926  26  
927  2   
928  16  
929  84  
930  49  
931  93  
932  60  
933  32  
934  19  
935  10  
936  83  
937  50  
938  41  
939  86  
940  24  
941  30  
942  53  
943  70  
944  37  
945  19  
946  14  
947  57  
948  24  
949  65  
950  93  
951  35  
952  39  
953  80  
954  28  
955  100 
956  83  
957  16  
958  98  
959  31  
960  40  
961  27  
962  29  
963  54  
964  88  
965  51  
966  27  
967  37  
968  15  
969  99  
970  98  
971  48  
972  70  
973  92  
974  34  
975  4   
976  7   
977  22  
978  81  
979  8   
980  38  
981  82  
982  26  
983  84  
984  28  
985  1   
986  57  
987  67  
988  93  
989  90  
990  18  
991  7   
992  56  
993  11  
994  65  
995  30  
996  96  
997  89  
998  29  
999  82  
1000 14  
1001 4   
1002 87  
1003 49  
1004 91  
1005 13  
1006 2   
1007 9   
1008 67  
1009 6   
1010 6   
1011 50  
1012 73  
1013 43  
1014 98  
1015 90  
1016 96  
1017 71  
1018 70  
1019 2   
1020 63  
1021 23  
1022 34  
1023 39  
1024 40  
1025 32  
1026 29  
1027 14  
1028 64  
1029 25  
1030 80  
1031 48  
1032 42  
1033 63  
1034 67  
1035 57  
1036 18  
1037 2   
1038 67  
1039 25  
1040 30  
1041 98  
1042 93  
1043 66  
1044 53  
1045 62  
1046 73  
1047 39  
1048 53  
1049 17  
1050 76  
1051 33  
1052 22  
1053 35  
1054 75  
1055 52  
1056 25  
1057 33  
1058 71  
1059 74  
1060 95  
1061 11  
1062 28  
1063 4   
1064 23  
1065 72  
1066 92  
1067 91  
1068 85  
1069 88  
1070 99  
1071 23  
1072 100 
1073 27  
1074 45  
1075 84  
1076 29  
1077 90  
1078 50  
1079 65  
1080 63  
1081 48  
1082 45  
1083 37  
1084 94  
1085 71  
1086 13  
1087 34  
1088 88  
1089 88  
1090 24  
1091 72  
1092 33  
1093 41  
1094 13  
1095 42  
1096 47  
1097 54  
1098 98  
1099 29  
1100 29  
1101 37  
1102 49  
1103 85  
1104 49  
1105 10  
1106 18  
1107 10  
1108 69  
1109 91  
1110 29  
1111 33  
1112 93  
1113 46  
1114 2   
1115 43  
1116 20  
1117 6   
1118 37  
1119 46  
1120 45  
1121 89  
1122 97  
1123 83  
1124 54  
1125 42  
1126 38  
1127 94  
1128 36  
1129 32  
1130 66  
1131 35  
1132 25  
1133 100 
1134 70  
1135 37  
1136 32  
1137 25  
1138 2   
1139 63  
1140 40  
1141 10  
1142 85  
1143 54  
1144 73  
1145 49  
1146 51  
1147 73  
1148 59  
1149 38  
1150 50  
1151 17  
1152 48  
1153 78  
1154 80  
1155 56  
1156 52  
1157 14  
1158 7   
1159 20  
1160 94  
1161 12  
1162 64  
1163 55  
1164 48  
1165 78  
1166 63  
1167 24  
1168 73  
1169 79  
1170 92  
1171 81  
1172 55  
1173 47  
1174 74  
1175 27  
1176 30  
1177 50  
1178 21  
1179 27  
1180 62  
1181 44  
1182 92  
1183 52  
1184 40  
1185 19  
1186 23  
1187 95  
1188 36  
1189 9   
1190 97  
1191 13  
1192 89  
1193 2   
1194 54  
1195 64  
1196 23  
1197 59  
1198 37  
1199 32  
1200 20  
1201 2   
1202 86  
1203 42  
1204 42  
1205 3   
1206 55  
1207 16  
1208 46  
1209 13  
1210 31  
1211 69  
1212 32  
1213 16  
1214 97  
1215 10  
1216 92  
1217 48  
1218 8   
1219 22  
1220 20  
1221 40  
1222 62  
1223 62  
1224 56  
1225 63  
1226 5   
1227 82  
1228 51  
1229 31  
1230 72  
1231 47  
1232 83  
1233 21  
1234 55  
1235 76  
1236 56  
1237 62  
1238 98  
1239 93  
1240 26  
1241 69  
1242 83  
1243 84  
1244 38  
1245 28  
1246 48  
1247 9   
1248 35  
1249 1   
1250 98  
1251 56  
1252 27  
1253 22  
1254 61  
1255 70  
1256 76  
1257 53  
1258 74  
1259 12  
1260 19  
1261 46  
1262 57  
1263 4   
1264 28  
1265 52  
1266 39  
1267 86  
1268 87  
1269 8   
1270 55  
1271 62  
1272 98  
1273 50  
1274 4   
1275 92  
1276 33  
1277 22  
1278 37  
1279 60  
1280 78  
1281 79  
1282 16  
1283 26  
1284 18  
1285 16  
1286 16  
1287 74  
1288 55  
1289 42  
1290 11  
1291 46  
1292 96  
1293 88  
1294 69  
1295 17  
1296 48  
1297 89  
1298 8   
1299 49  
1300 71  
1301 76  
1302 96  
1303 54  
1304 8   
1305 53  
1306 73  
1307 74  
1308 71  
1309 63  
1310 45  
1311 9   
1312 41  
1313 90  
1314 63  
1315 93  
1316 61  
1317 9   
1318 63  
1319 80  
1320 65  
1321 69  
1322 98  
1323 4   
1324 61  
1325 8   
1326 16  
1327 33  
1328 98  
1329 55  
1330 18  
1331 64  
1332 71  
1333 18  
1334 81  
1335 53  
1336 61  
1337 84  
1338 93  
1339 50  
1340 38  
1341 44  
1342 44  
1343 15  
1344 10  
1345 19  
1346 15  
1347 67  
1348 24  
1349 68  
1350 89  
1351 61  
1352 27  
1353 65  
1354 21  
1355 98  
1356 67  
1357 50  
1358 86  
1359 44  
1360 14  
1361 67  
1362 59  
1363 17  
1364 92  
1365 50  
1366 2   
1367 72  
1368 78  
1369 71  
1370 74  
1371 88  
1372 99  
1373 8   
1374 10  
1375 20  
1376 66  
1377 90  
1378 36  
1379 42  
1380 85  
1381 70  
1382 48  
1383 4   
1384 85  
1385 26  
1386 85  
1387 22  
1388 40  
1389 74  
1390 77  
1391 74  
1392 56  
1393 24  
1394 34  
1395 86  
1396 30  
1397 45  
1398 33  
1399 77  
1400 49  
1401 78  
1402 47  
1403 80  
1404 44  
1405 34  
1406 93  
1407 41  
1408 35  
1409 82  
1410 25  
1411 6   
1412 48  
1413 4   
1414 8   
1415 4   
1416 57  
1417 29  
1418 31  
1419 16  
1420 73  
1421 50  
1422 41  
1423 49  
1424 81  
1425 54  
1426 83  
1427 3   
1428 63  
1429 50  
1430 79  
1431 57  
1432 26  
1433 34  
1434 47  
1435 13  
1436 51  
1437 46  
1438 36  
1439 89  
1440 53  
1441 3   
1442 40  
1443 38  
1444 32  
1445 66  
1446 8   
1447 63  
1448 84  
1449 50  
1450 70  
1451 43  
1452 23  
1453 8   
1454 74  
1455 1   
1456 96  
1457 46  
1458 58  
1459 56  
1460 61  
1461 22  
1462 75  
1463 56  
1464 78  
1465 29  
1466 43  
1467 49  
1468 55  
1469 34  
1470 6   
1471 72  
1472 19  
1473 2   
1474 41  
1475 47  
1476 94  
1477 93  
1478 47  
1479 39  
1480 18  
1481 49  
1482 21  
1483 87  
1484 51  
1485 63  
1486 16  
1487 4   
1488 11  
1489 18  
1490 52  
1491 44  
1492 27  
1493 7   
1494 86  
1495 5   
1496 36  
1497 61  
1498 89  
1499 17  
1500 1   
1501 3   
1502 50  
1503 61  
1504 35  
1505 62  
1506 69  
1507 37  
1508 7   
1509 74  
1510 96  
1511 74  
1512 24  
1513 93  
1514 68  
1515 23  
1516 30  
1517 66  
1518 35  
1519 58  
1520 27  
1521 35  
1522 36  
1523 15  
1524 16  
1525 75  
1526 62  
1527 45  
1528 70  
1529 6   
1530 87  
1531 89  
1532 67  
1533 92  
1534 97  
1535 87  
1536 16  
1537 99  
1538 49  
1539 90  
1540 80  
1541 44  
1542 47  
1543 63  
1544 97  
1545 82  
1546 19  
1547 72  
1548 33  
1549 56  
1550 42  
1551 11  
1552 49  
1553 66  
1554 54  
1555 35  
1556 18  
1557 32  
1558 62  
1559 21  
1560 27  
1561 49  
1562 1   
1563 84  
1564 46  
1565 13  
1566 50  
1567 64  
1568 26  
1569 98  
1570 100 
1571 1   
1572 82  
1573 2   
1574 40  
1575 9   
1576 38  
1577 22  
1578 81  
1579 8   
1580 13  
1581 75  
1582 28  
1583 96  
1584 16  
1585 10  
1586 24  
1587 57  
1588 86  
1589 92  
1590 28  
1591 10  
1592 24  
1593 72  
1594 23  
1595 15  
1596 31  
1597 44  
1598 18  
1599 14  
1600 37  
1601 24  
1602 45  
1603 41  
1604 22  
1605 69  
1606 99  
1607 90  
1608 66  
1609 98  
1610 84  
1611 3   
1612 78  
1613 18  
1614 69  
1615 58  
1616 19  
1617 52  
1618 14  
1619 8   
1620 97  
1621 68  
1622 71  
1623 29  
1624 26  
1625 50  
1626 22  
1627 98  
1628 79  
1629 55  
1630 87  
1631 79  
1632 79  
1633 100 
1634 46  
1635 47  
1636 52  
1637 89  
1638 71  
1639 94  
1640 66  
1641 8   
1642 79  
1643 83  
1644 64  
1645 63  
1646 3   
1647 59  
1648 12  
1649 32  
1650 69  
1651 27  
1652 8   
1653 88  
1654 94  
1655 68  
1656 34  
1657 91  
1658 84  
1659 89  
1660 3   
1661 62  
1662 53  
1663 25  
1664 42  
1665 98  
1666 17  
1667 74  
1668 49  
1669 32  
1670 92  
1671 27  
1672 78  
1673 1   
1674 68  
1675 76  
1676 16  
1677 86  
1678 78  
1679 13  
1680 34  
1681 28  
1682 64  
1683 27  
1684 32  
1685 25  
1686 76  
1687 53  
1688 22  
1689 14  
1690 10  
1691 63  
1692 48  
1693 24  
1694 49  
1695 7   
1696 27  
1697 14  
1698 16  
1699 84  
1700 81  
1701 99  
1702 12  
1703 11  
1704 81  
1705 92  
1706 24  
1707 99  
1708 71  
1709 63  
1710 78  
1711 39  
1712 86  
1713 13  
1714 2   
1715 96  
1716 15  
1717 56  
1718 64  
1719 5   
1720 47  
1721 47  
1722 65  
1723 60  
1724 2   
1725 20  
1726 86  
1727 18  
1728 50  
1729 46  
1730 64  
1731 28  
1732 6   
1733 93  
1734 40  
1735 49  
1736 5   
1737 61  
1738 79  
1739 77  
1740 63  
1741 16  
1742 3   
1743 50  
1744 12  
1745 38  
1746 46  
1747 59  
1748 81  
1749 85  
1750 7   
1751 35  
1752 46  
1753 11  
1754 33  
1755 49  
1756 40  
1757 26  
1758 84  
1759 54  
1760 14  
1761 73  
1762 79  
1763 41  
1764 33  
1765 24  
1766 36  
1767 47  
1768 14  
1769 1   
1770 83  
1771 74  
1772 44  
1773 68  
1774 57  
1775 85  
1776 41  
1777 47  
1778 47  
1779 97  
1780 22  
1781 81  
1782 62  
1783 60  
1784 17  
1785 4   
1786 27  
1787 42  
1788 32  
1789 28  
1790 11  
1791 52  
1792 78  
1793 24  
1794 91  
1795 99  
1796 36  
1797 93  
1798 3   
1799 85  
1800 92  
1801 82  
1802 50  
1803 4   
1804 65  
1805 100 
1806 4   
1807 14  
1808 2   
1809 32  
1810 67  
1811 77  
1812 10  
1813 68  
1814 36  
1815 11  
1816 7   
1817 94  
1818 18  
1819 36  
1820 17  
1821 83  
1822 89  
1823 35  
1824 30  
1825 54  
1826 26  
1827 10  
1828 65  
1829 73  
1830 65  
1831 15  
1832 34  
1833 9   
1834 49  
1835 99  
1836 32  
1837 41  
1838 40  
1839 42  
1840 77  
1841 47  
1842 70  
1843 2   
1844 14  
1845 11  
1846 95  
1847 41  
1848 23  
1849 43  
1850 74  
1851 59  
1852 51  
1853 69  
1854 4   
1855 26  
1856 26  
1857 75  
1858 65  
1859 71  
1860 26  
1861 39  
1862 68  
1863 24  
1864 70  
1865 25  
1866 76  
1867 7   
1868 79  
1869 63  
1870 24  
1871 13  
1872 100 
1873 14  
1874 58  
1875 58  
1876 88  
1877 75  
1878 37  
1879 69  
1880 32  
1881 34  
1882 38  
1883 61  
1884 34  
1885 42  
1886 90  
1887 31  
1888 33  
1889 61  
1890 22  
1891 85  
1892 98  
1893 94  
1894 96  
1895 12  
1896 34  
1897 69  
1898 52  
1899 2   
1900 3   
1901 24  
1902 49  
1903 49  
1904 82  
1905 43  
1906 37  
1907 28  
1908 65  
1909 57  
1910 73  
1911 7   
1912 82  
1913 32  
1914 29  
1915 32  
1916 52  
1917 30  
1918 9   
1919 35  
1920 84  
1921 44  
1922 48  
1923 12  
1924 45  
1925 78  
1926 44  
1927 86  
1928 66  
1929 9   
1930 49  
1931 15  
1932 94  
1933 87  
1934 59  
1935 1   
1936 31  
1937 17  
1938 14  
1939 10  
1940 86  
1941 45  
1942 7   
1943 23  
1944 54  
1945 72  
1946 85  
1947 98  
1948 13  
1949 3   
1950 17  
1951 22  
1952 96  
1953 89  
1954 27  
1955 78  
1956 39  
1957 48  
1958 44  
1959 66  
1960 14  
1961 30  
1962 38  
1963 2   
1964 48  
1965 29  
1966 84  
1967 100 
1968 21  
1969 65  
1970 8   
1971 80  
1972 4   
1973 50  
1974 80  
1975 22  
1976 77  
1977 44  
1978 16  
1979 97  
1980 38  
1981 65  
1982 86  
1983 2   
1984 68  
1985 80  
1986 38  
1987 91  
1988 86  
1989 76  
1990 7   
1991 3   
1992 27  
1993 84  
1994 64  
1995 10  
1996 50  
1997 21  
1998 39  
1999 36  
2000 72  
2001 83  
2002 2   
2003 87  
2004 31  
2005 85  
2006 59  
2007 25  
2008 13  
2009 90  
2010 55  
2011 87  
2012 70  
2013 18  
2014 62  
2015 21  
2016 70  
2017 21  
2018 33  
2019 95  
2020 59  
2021 1   
2022 27  
2023 6   
2024 22  
2025 2   
2026 51  
2027 29  
2028 12  
2029 20  
2030 74  
2031 36  
2032 31  
2033 35  
2034 65  
2035 93  
2036 70  
2037 42  
2038 2   
2039 66  
2040 76  
2041 77  
2042 67  
2043 49  
2044 95  
2045 69  
2046 57  
2047 19  
2048 65  
2049 47  
2050 34  
2051 30  
2052 93  
2053 17  
2054 9   
2055 38  
2056 34  
2057 69  
2058 41  
2059 6   
2060 90  
2061 83  
2062 89  
2063 100 
2064 14  
2065 9   
2066 19  
2067 12  
2068 53  
2069 37  
2070 34  
2071 57  
2072 59  
2073 1   
2074 67  
2075 91  
2076 11  
2077 84  
2078 97  
2079 6   
2080 53  
2081 76  
2082 60  
2083 94  
2084 53  
2085 52  
2086 23  
2087 100 
2088 4   
2089 12  
2090 17  
2091 46  
2092 99  
2093 30  
2094 27  
2095 57  
2096 89  
2097 12  
2098 66  
2099 17  
2100 49  
2101 85  
2102 34  
2103 23  
2104 26  
2105 84  
2106 42  
2107 52  
2108 17  
2109 73  
2110 94  
2111 23  
2112 50  
2113 24  
2114 47  
2115 94  
2116 37  
2117 25  
2118 37  
2119 74  
2120 51  
2121 59  
2122 77  
2123 2   
2124 13  
2125 68  
2126 47  
2127 51  
2128 65  
2129 19  
2130 96  
2131 36  
2132 77  
2133 39  
2134 33  
2135 23  
2136 67  
2137 99  
2138 86  
2139 24  
2140 35  
2141 51  
2142 29  
2143 100 
2144 14  
2145 63  
2146 16  
2147 16  
2148 11  
2149 52  
2150 14  
2151 11  
2152 39  
2153 95  
2154 97  
2155 20  
2156 74  
2157 46  
2158 90  
2159 85  
2160 31  
2161 56  
2162 87  
2163 94  
2164 89  
2165 10  
2166 39  
2167 86  
2168 63  
2169 88  
2170 70  
2171 29  
2172 44  
2173 22  
2174 5   
2175 99  
2176 96  
2177 70  
2178 70  
2179 64  
2180 12  
2181 92  
2182 69  
2183 10  
2184 65  
2185 43  
2186 25  
2187 82  
2188 56  
2189 22  
2190 52  
2191 12  
2192 63  
2193 88  
2194 89  
2195 76  
2196 4   
2197 41  
2198 95  
2199 27  
2200 7   
2201 52  
2202 45  
2203 66  
2204 35  
2205 23  
2206 12  
2207 96  
2208 86  
2209 72  
2210 77  
2211 80  
2212 57  
2213 95  
2214 30  
2215 43  
2216 55  
2217 52  
2218 3   
2219 16  
2220 53  
2221 81  
2222 31  
2223 91  
2224 1   
2225 37  
2226 19  
2227 30  
2228 48  
2229 94  
2230 98  
2231 40  
2232 63  
2233 40  
2234 11  
2235 15  
2236 98  
2237 72  
2238 9   
2239 47  
2240 51  
2241 73  
2242 60  
2243 83  
2244 56  
2245 49  
2246 59  
2247 77  
2248 11  
2249 64  
2250 42  
2251 34  
2252 73  
2253 67  
2254 4   
2255 27  
2256 20  
2257 48  
2258 88  
2259 20  
2260 71  
2261 82  
2262 49  
2263 3   
2264 82  
2265 74  
2266 88  
2267 37  
2268 26  
2269 6   
2270 89  
2271 75  
2272 23  
2273 72  
2274 69  
2275 99  
2276 10  
2277 99  
2278 20  
2279 75  
2280 72  
2281 65  
2282 16  
2283 77  
2284 37  
2285 83  
2286 24  
2287 65  
2288 90  
2289 29  
2290 28  
2291 36  
2292 35  
2293 6   
2294 37  
2295 21  
2296 29  
2297 91  
2298 36  
2299 53  
2300 2   
2301 76  
2302 82  
2303 58  
2304 48  
2305 33  
2306 52  
2307 48  
2308 63  
2309 64  
2310 11  
2311 25  
2312 89  
2313 1   
2314 76  
2315 64  
2316 10  
2317 57  
2318 19  
2319 89  
2320 55  
2321 32  
2322 29  
2323 97  
2324 38  
2325 62  
2326 39  
2327 24  
2328 96  
2329 18  
2330 22  
2331 60  
2332 67  
2333 8   
2334 55  
2335 6   
2336 52  
2337 2   
2338 10  
2339 40  
2340 45  
2341 97  
2342 41  
2343 48  
2344 20  
2345 100 
2346 65  
2347 12  
2348 76  
2349 96  
2350 50  
2351 65  
2352 75  
2353 61  
2354 22  
2355 93  
2356 36  
2357 38  
2358 8   
2359 53  
2360 2   
2361 14  
2362 61  
2363 57  
2364 95  
2365 33  
2366 47  
2367 35  
2368 9   
2369 23  
2370 1   
2371 1   
2372 4   
2373 62  
2374 73  
2375 32  
2376 84  
2377 37  
2378 87  
2379 17  
2380 76  
2381 49  
2382 41  
2383 50  
2384 87  
2385 61  
2386 53  
2387 78  
2388 42  
2389 25  
2390 38  
2391 39  
2392 39  
2393 10  
2394 60  
2395 10  
2396 79  
2397 94  
2398 28  
2399 90  
2400 100 
2401 18  
2402 3   
2403 30  
2404 5   
2405 81  
2406 61  
2407 2   
2408 17  
2409 82  
2410 22  
2411 60  
2412 88  
2413 8   
2414 38  
2415 2   
2416 60  
2417 45  
2418 53  
2419 87  
2420 86  
2421 60  
2422 83  
2423 79  
2424 25  
2425 8   
2426 25  
2427 88  
2428 59  
2429 16  
2430 18  
2431 52  
2432 15  
2433 61  
2434 74  
2435 59  
2436 85  
2437 88  
2438 3   
2439 17  
2440 34  
2441 48  
2442 47  
2443 79  
2444 99  
2445 44  
2446 60  
2447 96  
2448 93  
2449 83  
2450 19  
2451 29  
2452 27  
2453 6   
2454 53  
2455 96  
2456 44  
2457 21  
2458 58  
2459 92  
2460 57  
2461 36  
2462 51  
2463 48  
2464 58  
2465 88  
2466 17  
2467 76  
2468 27  
2469 59  
2470 25  
2471 71  
2472 76  
2473 76  
2474 70  
2475 52  
2476 29  
2477 21  
2478 88  
2479 79  
2480 65  
2481 76  
2482 28  
2483 17  
2484 77  
2485 41  
2486 66  
2487 35  
2488 61  
2489 22  
2490 80  
2491 75  
2492 55  
2493 33  
2494 92  
2495 34  
2496 14  
2497 10  
2498 66  
2499 48  
2500 86  
2501 96  
2502 76  
2503 52  
2504 25  
2505 8   
2506 5   
2507 32  
2508 5   
2509 6   
2510 16  
2511 13  
2512 2   
2513 13  
2514 71  
2515 9   
2516 56  
2517 35  
2518 80  
2519 36  
2520 63  
2521 97  
2522 91  
2523 88  
2524 96  
2525 50  
2526 37  
2527 72  
2528 12  
2529 35  
2530 72  
2531 95  
2532 66  
2533 49  
2534 30  
2535 24  
2536 17  
2537 55  
2538 79  
2539 73  
2540 10  
2541 23  
2542 82  
2543 80  
2544 6   
2545 93  
2546 60  
2547 35  
2548 41  
2549 51  
2550 38  
2551 4   
2552 42  
2553 50  
2554 10  
2555 12  
2556 99  
2557 100 
2558 14  
2559 99  
2560 42  
2561 44  
2562 5   
2563 12  
2564 9   
2565 25  
2566 79  
2567 56  
2568 80  
2569 3   
2570 4   
2571 46  
2572 96  
2573 35  
2574 6   
2575 70  
2576 51  
2577 9   
2578 72  
2579 39  
2580 4   
2581 51  
2582 71  
2583 41  
2584 55  
2585 93  
2586 25  
2587 7   
2588 86  
2589 89  
2590 92  
2591 90  
2592 82  
2593 62  
2594 88  
2595 35  
2596 74  
2597 8   
2598 93  
2599 78  
2600 76  
2601 3   
2602 71  
2603 33  
2604 7   
2605 5   
2606 1   
2607 25  
2608 25  
2609 88  
2610 16  
2611 66  
2612 28  
2613 26  
2614 91  
2615 44  
2616 5   
2617 15  
2618 14  
2619 48  
2620 23  
2621 59  
2622 94  
2623 4   
2624 31  
2625 94  
2626 73  
2627 100 
2628 14  
2629 42  
2630 21  
2631 67  
2632 77  
2633 4   
2634 75  
2635 71  
2636 22  
2637 50  
2638 67  
2639 30  
2640 30  
2641 20  
2642 17  
2643 51  
2644 82  
2645 96  
2646 56  
2647 92  
2648 48  
2649 87  
2650 3   
2651 89  
2652 1   
2653 93  
2654 41  
2655 86  
2656 93  
2657 5   
2658 3   
2659 55  
2660 40  
2661 98  
2662 68  
2663 40  
2664 56  
2665 35  
2666 43  
2667 30  
2668 93  
2669 39  
2670 4   
2671 50  
2672 54  
2673 10  
2674 93  
2675 22  
2676 37  
2677 88  
2678 54  
2679 9   
2680 76  
2681 47  
2682 78  
2683 53  
2684 49  
2685 11  
2686 33  
2687 89  
2688 3   
2689 17  
2690 100 
2691 80  
2692 62  
2693 43  
2694 90  
2695 45  
2696 10  
2697 54  
2698 57  
2699 18  
2700 83  
2701 47  
2702 40  
2703 8   
2704 92  
2705 77  
2706 82  
2707 38  
2708 28  
2709 74  
2710 74  
2711 60  
2712 23  
2713 94  
2714 58  
2715 50  
2716 31  
2717 25  
2718 13  
2719 10  
2720 14  
2721 50  
2722 18  
2723 80  
2724 68  
2725 36  
2726 45  
2727 12  
2728 2   
2729 37  
2730 68  
2731 45  
2732 76  
2733 2   
2734 30  
2735 99  
2736 7   
2737 85  
2738 22  
2739 19  
2740 34  
2741 86  
2742 49  
2743 91  
2744 55  
2745 84  
2746 61  
2747 46  
2748 39  
2749 18  
2750 6   
2751 74  
2752 60  
2753 24  
2754 98  
2755 60  
2756 70  
2757 100 
2758 16  
2759 9   
2760 88  
2761 76  
2762 38  
2763 97  
2764 87  
2765 29  
2766 14  
2767 38  
2768 12  
2769 28  
2770 79  
2771 31  
2772 24  
2773 38  
2774 62  
2775 44  
2776 40  
2777 73  
2778 79  
2779 48  
2780 73  
2781 69  
2782 100 
2783 47  
2784 76  
2785 1   
2786 23  
2787 94  
2788 4   
2789 75  
2790 28  
2791 38  
2792 19  
2793 41  
2794 37  
2795 68  
2796 31  
2797 43  
2798 72  
2799 52  
2800 28  
2801 38  
2802 23  
2803 84  
2804 92  
2805 9   
2806 32  
2807 2   
2808 100 
2809 20  
2810 99  
2811 48  
2812 28  
2813 74  
2814 31  
2815 3   
2816 82  
2817 50  
2818 85  
2819 21  
2820 17  
2821 29  
2822 26  
2823 43  
2824 74  
2825 51  
2826 17  
2827 7   
2828 51  
2829 54  
2830 57  
2831 73  
2832 81  
2833 22  
2834 95  
2835 99  
2836 90  
2837 37  
2838 69  
2839 8   
2840 100 
2841 51  
2842 95  
2843 33  
2844 17  
2845 90  
2846 90  
2847 64  
2848 90  
2849 8   
2850 18  
2851 43  
2852 59  
2853 79  
2854 32  
2855 25  
2856 40  
2857 71  
2858 57  
2859 97  
2860 22  
2861 24  
2862 100 
2863 3   
2864 12  
2865 55  
2866 46  
2867 28  
2868 50  
2869 65  
2870 50  
2871 82  
2872 56  
2873 62  
2874 4   
2875 57  
2876 6   
2877 13  
2878 68  
2879 98  
2880 42  
2881 58  
2882 7   
2883 64  
2884 97  
2885 59  
2886 23  
2887 9   
2888 16  
2889 69  
2890 52  
2891 42  
2892 10  
2893 31  
2894 53  
2895 19  
2896 47  
2897 38  
2898 73  
2899 30  
2900 60  
2901 61  
2902 89  
2903 72  
2904 45  
2905 53  
2906 53  
2907 73  
2908 28  
2909 3   
2910 54  
2911 17  
2912 57  
2913 97  
2914 64  
2915 52  
2916 65  
2917 1   
2918 52  
2919 10  
2920 54  
2921 68  
2922 32  
2923 32  
2924 29  
2925 57  
2926 65  
2927 3   
2928 83  
2929 46  
2930 48  
2931 70  
2932 58  
2933 64  
2934 12  
2935 51  
2936 25  
2937 3   
2938 39  
2939 55  
2940 93  
2941 23  
2942 48  
2943 34  
2944 44  
2945 12  
2946 6   
2947 62  
2948 61  
2949 35  
2950 67  
2951 62  
2952 8   
2953 33  
2954 80  
2955 100 
2956 95  
2957 82  
2958 83  
2959 13  
2960 39  
2961 95  
2962 80  
2963 57  
2964 45  
2965 68  
2966 73  
2967 2   
2968 75  
2969 14  
2970 55  
2971 66  
2972 52  
2973 10  
2974 2   
2975 88  
2976 59  
2977 15  
2978 62  
2979 30  
2980 32  
2981 76  
2982 67  
2983 95  
2984 76  
2985 58  
2986 31  
2987 55  
2988 65  
2989 18  
2990 70  
2991 76  
2992 92  
2993 83  
2994 74  
2995 59  
2996 29  
2997 81  
2998 30  
2999 21  
3000 43  
3001 15  
3002 78  
3003 90  
3004 74  
3005 50  
3006 24  
3007 95  
3008 19  
3009 13  
3010 23  
3011 15  
3012 63  
3013 39  
3014 71  
3015 6   
3016 57  
3017 84  
3018 49  
3019 52  
3020 55  
3021 4   
3022 47  
3023 87  
3024 64  
3025 85  
3026 89  
3027 90  
3028 77  
3029 86  
3030 17  
3031 32  
3032 60  
3033 100 
3034 40  
3035 74  
3036 6   
3037 33  
3038 85  
3039 81  
3040 45  
3041 13  
3042 35  
3043 94  
3044 15  
3045 40  
3046 24  
3047 32  
3048 38  
3049 80  
3050 17  
3051 96  
3052 24  
3053 12  
3054 23  
3055 93  
3056 11  
3057 75  
3058 12  
3059 27  
3060 41  
3061 24  
3062 23  
3063 14  
3064 4   
3065 20  
3066 85  
3067 34  
3068 13  
3069 29  
3070 93  
3071 27  
3072 43  
3073 32  
3074 32  
3075 33  
3076 40  
3077 66  
3078 43  
3079 85  
3080 6   
3081 52  
3082 67  
3083 53  
3084 9   
3085 71  
3086 10  
3087 7   
3088 35  
3089 37  
3090 90  
3091 36  
3092 90  
3093 63  
3094 80  
3095 11  
3096 80  
3097 64  
3098 61  
3099 69  
3100 28  
3101 49  
3102 23  
3103 99  
3104 25  
3105 73  
3106 34  
3107 62  
3108 50  
3109 85  
3110 78  
3111 98  
3112 77  
3113 38  
3114 21  
3115 50  
3116 29  
3117 42  
3118 1   
3119 53  
3120 49  
3121 99  
3122 55  
3123 29  
3124 20  
3125 73  
3126 95  
3127 31  
3128 11  
3129 95  
3130 91  
3131 72  
3132 6   
3133 5   
3134 82  
3135 69  
3136 70  
3137 44  
3138 49  
3139 65  
3140 85  
3141 44  
3142 53  
3143 17  
3144 75  
3145 25  
3146 69  
3147 49  
3148 58  
3149 85  
3150 63  
3151 96  
3152 45  
3153 38  
3154 92  
3155 64  
3156 98  
3157 65  
3158 9   
3159 69  
3160 1   
3161 7   
3162 5   
3163 67  
3164 7   
3165 38  
3166 77  
3167 84  
3168 18  
3169 81  
3170 66  
3171 47  
3172 24  
3173 15  
3174 5   
3175 30  
3176 52  
3177 82  
3178 74  
3179 23  
3180 96  
3181 53  
3182 76  
3183 91  
3184 46  
3185 41  
3186 90  
3187 94  
3188 40  
3189 3   
3190 6   
3191 63  
3192 20  
3193 65  
3194 14  
3195 55  
3196 74  
3197 46  
3198 30  
3199 7   
3200 91  
3201 9   
3202 60  
3203 53  
3204 70  
3205 1   
3206 83  
3207 90  
3208 11  
3209 9   
3210 15  
3211 97  
3212 24  
3213 46  
3214 42  
3215 86  
3216 30  
3217 50  
3218 5   
3219 72  
3220 99  
3221 21  
3222 41  
3223 69  
3224 56  
3225 82  
3226 81  
3227 97  
3228 30  
3229 98  
3230 1   
3231 78  
3232 58  
3233 80  
3234 92  
3235 5   
3236 84  
3237 76  
3238 31  
3239 34  
3240 45  
3241 99  
3242 77  
3243 24  
3244 52  
3245 60  
3246 53  
3247 83  
3248 37  
3249 64  
3250 35  
3251 50  
3252 76  
3253 22  
3254 91  
3255 93  
3256 13  
3257 92  
3258 30  
3259 40  
3260 91  
3261 1   
3262 36  
3263 44  
3264 93  
3265 4   
3266 21  
3267 78  
3268 15  
3269 57  
3270 20  
3271 60  
3272 55  
3273 67  
3274 51  
3275 28  
3276 49  
3277 34  
3278 60  
3279 49  
3280 48  
3281 19  
3282 23  
3283 9   
3284 82  
3285 70  
3286 87  
3287 83  
3288 88  
3289 72  
3290 48  
3291 81  
3292 23  
3293 39  
3294 41  
3295 53  
3296 48  
3297 11  
3298 88  
3299 7   
3300 64  
3301 85  
3302 69  
3303 40  
3304 91  
3305 96  
3306 21  
3307 66  
3308 26  
3309 72  
3310 16  
3311 13  
3312 33  
3313 70  
3314 99  
3315 88  
3316 27  
3317 10  
3318 1   
3319 83  
3320 64  
3321 44  
3322 49  
3323 38  
3324 71  
3325 99  
3326 1   
3327 58  
3328 28  
3329 65  
3330 26  
3331 88  
3332 80  
3333 86  
3334 53  
3335 33  
3336 100 
3337 52  
3338 46  
3339 60  
3340 67  
3341 9   
3342 67  
3343 40  
3344 67  
3345 33  
3346 92  
3347 26  
3348 20  
3349 86  
3350 65  
3351 9   
3352 7   
3353 21  
3354 98  
3355 73  
3356 68  
3357 8   
3358 51  
3359 100 
3360 64  
3361 19  
3362 87  
3363 74  
3364 10  
3365 50  
3366 58  
3367 68  
3368 34  
3369 9   
3370 1   
3371 96  
3372 21  
3373 31  
3374 82  
3375 53  
3376 40  
3377 12  
3378 95  
3379 73  
3380 63  
3381 56  
3382 54  
3383 73  
3384 37  
3385 58  
3386 35  
3387 36  
3388 60  
3389 43  
3390 80  
3391 25  
3392 98  
3393 84  
3394 82  
3395 26  
3396 92  
3397 52  
3398 29  
3399 65  
3400 22  
3401 82  
3402 24  
3403 29  
3404 18  
3405 27  
3406 65  
3407 35  
3408 59  
3409 65  
3410 4   
3411 3   
3412 7   
3413 36  
3414 17  
3415 78  
3416 13  
3417 33  
3418 49  
3419 49  
3420 38  
3421 97  
3422 82  
3423 9   
3424 59  
3425 65  
3426 39  
3427 11  
3428 91  
3429 66  
3430 98  
3431 43  
3432 5   
3433 98  
3434 93  
3435 63  
3436 5   
3437 86  
3438 4   
3439 100 
3440 17  
3441 60  
3442 68  
3443 42  
3444 73  
3445 66  
3446 17  
3447 55  
3448 59  
3449 33  
3450 76  
3451 10  
3452 58  
3453 54  
3454 90  
3455 72  
3456 54  
3457 22  
3458 24  
3459 12  
3460 81  
3461 34  
3462 24  
3463 89  
3464 62  
3465 89  
3466 63  
3467 6   
3468 84  
3469 40  
3470 3   
3471 26  
3472 50  
3473 71  
3474 31  
3475 46  
3476 50  
3477 65  
3478 22  
3479 29  
3480 66  
3481 78  
3482 38  
3483 78  
3484 55  
3485 23  
3486 96  
3487 92  
3488 72  
3489 82  
3490 71  
3491 87  
3492 23  
3493 37  
3494 14  
3495 74  
3496 97  
3497 36  
3498 92  
3499 21  
3500 16  
3501 70  
3502 95  
3503 34  
3504 93  
3505 39  
3506 14  
3507 35  
3508 14  
3509 30  
3510 95  
3511 59  
3512 74  
3513 70  
3514 71  
3515 23  
3516 73  
3517 84  
3518 99  
3519 42  
3520 39  
3521 50  
3522 51  
3523 61  
3524 71  
3525 75  
3526 11  
3527 38  
3528 50  
3529 98  
3530 85  
3531 93  
3532 48  
3533 12  
3534 63  
3535 59  
3536 1   
3537 75  
3538 8   
3539 6   
3540 21  
3541 18  
3542 4   
3543 94  
3544 14  
3545 64  
3546 19  
3547 4   
3548 18  
3549 44  
3550 100 
3551 66  
3552 19  
3553 7   
3554 12  
3555 87  
3556 87  
3557 8   
3558 81  
3559 29  
3560 22  
3561 74  
3562 72  
3563 72  
3564 91  
3565 76  
3566 21  
3567 40  
3568 44  
3569 24  
3570 70  
3571 26  
3572 83  
3573 10  
3574 84  
3575 71  
3576 63  
3577 15  
3578 30  
3579 40  
3580 54  
3581 28  
3582 22  
3583 44  
3584 22  
3585 3   
3586 7   
3587 42  
3588 20  
3589 48  
3590 30  
3591 66  
3592 86  
3593 60  
3594 25  
3595 16  
3596 59  
3597 96  
3598 68  
3599 98  
3600 96  
3601 33  
3602 55  
3603 72  
3604 14  
3605 6   
3606 96  
3607 97  
3608 18  
3609 23  
3610 94  
3611 44  
3612 73  
3613 39  
3614 70  
3615 76  
3616 30  
3617 49  
3618 3   
3619 44  
3620 62  
3621 52  
3622 23  
3623 66  
3624 76  
3625 90  
3626 6   
3627 47  
3628 7   
3629 21  
3630 41  
3631 93  
3632 14  
3633 18  
3634 82  
3635 85  
3636 13  
3637 79  
3638 44  
3639 20  
3640 81  
3641 95  
3642 38  
3643 50  
3644 24  
3645 86  
3646 15  
3647 79  
3648 91  
3649 43  
3650 6   
3651 29  
3652 85  
3653 91  
3654 59  
3655 5   
3656 87  
3657 76  
3658 90  
3659 59  
3660 4   
3661 94  
3662 33  
3663 26  
3664 52  
3665 37  
3666 41  
3667 35  
3668 8   
3669 93  
3670 87  
3671 58  
3672 77  
3673 11  
3674 74  
3675 34  
3676 25  
3677 62  
3678 10  
3679 68  
3680 15  
3681 38  
3682 58  
3683 10  
3684 4   
3685 23  
3686 100 
3687 24  
3688 56  
3689 55  
3690 44  
3691 86  
3692 6   
3693 13  
3694 73  
3695 45  
3696 43  
3697 7   
3698 29  
3699 10  
3700 16  
3701 43  
3702 17  
3703 45  
3704 54  
3705 42  
3706 67  
3707 50  
3708 33  
3709 93  
3710 77  
3711 77  
3712 55  
3713 40  
3714 71  
3715 74  
3716 70  
3717 15  
3718 2   
3719 98  
3720 15  
3721 20  
3722 93  
3723 30  
3724 63  
3725 10  
3726 52  
3727 40  
3728 65  
3729 1   
3730 5   
3731 8   
3732 41  
3733 53  
3734 18  
3735 49  
3736 40  
3737 3   
3738 10  
3739 93  
3740 94  
3741 10  
3742 64  
3743 89  
3744 92  
3745 44  
3746 87  
3747 24  
3748 19  
3749 98  
3750 66  
3751 75  
3752 50  
3753 72  
3754 61  
3755 66  
3756 15  
3757 71  
3758 76  
3759 98  
3760 75  
3761 12  
3762 36  
3763 8   
3764 61  
3765 26  
3766 30  
3767 74  
3768 47  
3769 64  
3770 46  
3771 3   
3772 76  
3773 98  
3774 76  
3775 65  
3776 94  
3777 98  
3778 51  
3779 46  
3780 98  
3781 24  
3782 37  
3783 42  
3784 97  
3785 22  
3786 61  
3787 34  
3788 71  
3789 71  
3790 31  
3791 80  
3792 85  
3793 53  
3794 59  
3795 77  
3796 58  
3797 35  
3798 92  
3799 70  
3800 36  
3801 38  
3802 78  
3803 21  
3804 25  
3805 84  
3806 17  
3807 47  
3808 22  
3809 77  
3810 17  
3811 17  
3812 64  
3813 51  
3814 47  
3815 34  
3816 6   
3817 44  
3818 39  
3819 79  
3820 62  
3821 91  
3822 53  
3823 67  
3824 20  
3825 68  
3826 4   
3827 69  
3828 22  
3829 62  
3830 57  
3831 5   
3832 84  
3833 56  
3834 68  
3835 72  
3836 23  
3837 30  
3838 24  
3839 47  
3840 5   
3841 31  
3842 84  
3843 16  
3844 3   
3845 6   
3846 92  
3847 96  
3848 12  
3849 100 
3850 87  
3851 62  
3852 92  
3853 41  
3854 48  
3855 34  
3856 60  
3857 41  
3858 78  
3859 64  
3860 43  
3861 72  
3862 5   
3863 92  
3864 7   
3865 44  
3866 37  
3867 96  
3868 67  
3869 18  
3870 22  
3871 62  
3872 71  
3873 68  
3874 50  
3875 5   
3876 22  
3877 95  
3878 59  
3879 82  
3880 61  
3881 30  
3882 65  
3883 13  
3884 13  
3885 18  
3886 87  
3887 33  
3888 93  
3889 11  
3890 29  
3891 70  
3892 30  
3893 73  
3894 34  
3895 58  
3896 26  
3897 85  
3898 71  
3899 82  
3900 28  
3901 14  
3902 14  
3903 78  
3904 63  
3905 65  
3906 56  
3907 37  
3908 5   
3909 23  
3910 91  
3911 63  
3912 10  
3913 12  
3914 65  
3915 33  
3916 87  
3917 17  
3918 98  
3919 45  
3920 79  
3921 53  
3922 51  
3923 56  
3924 1   
3925 36  
3926 70  
3927 4   
3928 60  
3929 56  
3930 24  
3931 71  
3932 77  
3933 20  
3934 62  
3935 58  
3936 22  
3937 31  
3938 56  
3939 14  
3940 48  
3941 6   
3942 18  
3943 52  
3944 68  
3945 88  
3946 52  
3947 76  
3948 96  
3949 25  
3950 35  
3951 85  
3952 51  
3953 39  
3954 29  
3955 83  
3956 96  
3957 23  
3958 45  
3959 84  
3960 47  
3961 87  
3962 28  
3963 69  
3964 97  
3965 90  
3966 69  
3967 10  
3968 2   
3969 41  
3970 83  
3971 6   
3972 38  
3973 11  
3974 60  
3975 28  
3976 64  
3977 64  
3978 56  
3979 75  
3980 42  
3981 76  
3982 44  
3983 54  
3984 73  
3985 76  
3986 56  
3987 9   
3988 25  
3989 80  
3990 29  
3991 90  
3992 10  
3993 10  
3994 68  
3995 22  
3996 33  
3997 16  
3998 55  
3999 81  
4000 79  
4001 31  
4002 56  
4003 23  
4004 92  
4005 96  
4006 43  
4007 27  
4008 71  
4009 98  
4010 93  
4011 88  
4012 96  
4013 61  
4014 82  
4015 8   
4016 23  
4017 85  
4018 46  
4019 5   
4020 72  
4021 58  
4022 100 
4023 51  
4024 23  
4025 83  
4026 77  
4027 67  
4028 89  
4029 25  
4030 97  
4031 11  
4032 70  
4033 13  
4034 64  
4035 83  
4036 90  
4037 44  
4038 5   
4039 52  
4040 80  
4041 77  
4042 37  
4043 90  
4044 42  
4045 4   
4046 100 
4047 23  
4048 54  
4049 24  
4050 55  
4051 20  
4052 78  
4053 91  
4054 93  
4055 71  
4056 46  
4057 33  
4058 3   
4059 15  
4060 35  
4061 94  
4062 39  
4063 21  
4064 63  
4065 4   
4066 11  
4067 6   
4068 91  
4069 94  
4070 33  
4071 49  
4072 80  
4073 60  
4074 59  
4075 22  
4076 72  
4077 65  
4078 35  
4079 82  
4080 21  
4081 66  
4082 23  
4083 20  
4084 67  
4085 69  
4086 48  
4087 22  
4088 3   
4089 18  
4090 16  
4091 54  
4092 57  
4093 9   
4094 33  
4095 51  
4096 61  
4097 82  
4098 91  
4099 8   
4100 66  
4101 27  
4102 36  
4103 25  
4104 16  
4105 18  
4106 57  
4107 85  
4108 56  
4109 79  
4110 88  
4111 79  
4112 72  
4113 33  
4114 34  
4115 19  
4116 63  
4117 26  
4118 18  
4119 88  
4120 16  
4121 98  
4122 45  
4123 84  
4124 18  
4125 91  
4126 10  
4127 68  
4128 53  
4129 22  
4130 74  
4131 64  
4132 75  
4133 60  
4134 29  
4135 50  
4136 70  
4137 95  
4138 16  
4139 95  
4140 60  
4141 35  
4142 68  
4143 44  
4144 33  
4145 29  
4146 38  
4147 33  
4148 83  
4149 65  
4150 65  
4151 21  
4152 81  
4153 86  
4154 79  
4155 94  
4156 97  
4157 27  
4158 2   
4159 99  
4160 32  
4161 23  
4162 99  
4163 77  
4164 49  
4165 44  
4166 77  
4167 72  
4168 55  
4169 69  
4170 16  
4171 87  
4172 21  
4173 32  
4174 45  
4175 24  
4176 10  
4177 38  
4178 26  
4179 52  
4180 57  
4181 100 
4182 70  
4183 95  
4184 22  
4185 52  
4186 96  
4187 23  
4188 52  
4189 40  
4190 99  
4191 47  
4192 57  
4193 100 
4194 51  
4195 7   
4196 31  
4197 44  
4198 47  
4199 79  
4200 87  
4201 66  
4202 24  
4203 67  
4204 33  
4205 6   
4206 61  
4207 78  
4208 51  
4209 43  
4210 49  
4211 69  
4212 22  
4213 38  
4214 86  
4215 82  
4216 13  
4217 60  
4218 22  
4219 87  
4220 45  
4221 37  
4222 58  
4223 3   
4224 35  
4225 74  
4226 87  
4227 6   
4228 16  
4229 72  
4230 70  
4231 96  
4232 48  
4233 24  
4234 33  
4235 94  
4236 3   
4237 78  
4238 64  
4239 11  
4240 54  
4241 43  
4242 52  
4243 12  
4244 58  
4245 97  
4246 23  
4247 71  
4248 41  
4249 89  
4250 43  
4251 89  
4252 74  
4253 73  
4254 75  
4255 19  
4256 42  
4257 22  
4258 20  
4259 71  
4260 95  
4261 55  
4262 32  
4263 99  
4264 86  
4265 11  
4266 49  
4267 95  
4268 4   
4269 40  
4270 51  
4271 17  
4272 85  
4273 34  
4274 87  
4275 77  
4276 33  
4277 44  
4278 41  
4279 31  
4280 3   
4281 98  
4282 11  
4283 82  
4284 3   
4285 37  
4286 73  
4287 26  
4288 86  
4289 3   
4290 36  
4291 98  
4292 95  
4293 61  
4294 18  
4295 64  
4296 87  
4297 80  
4298 63  
4299 100 
4300 56  
4301 20  
4302 52  
4303 45  
4304 54  
4305 41  
4306 34  
4307 43  
4308 92  
4309 96  
4310 33  
4311 71  
4312 63  
4313 72  
4314 73  
4315 53  
4316 14  
4317 31  
4318 56  
4319 39  
4320 24  
4321 1   
4322 48  
4323 95  
4324 34  
4325 11  
4326 8   
4327 5   
4328 14  
4329 87  
4330 49  
4331 78  
4332 13  
4333 41  
4334 62  
4335 86  
4336 6   
4337 29  
4338 9   
4339 92  
4340 50  
4341 1   
4342 13  
4343 1   
4344 19  
4345 47  
4346 31  
4347 20  
4348 94  
4349 7   
4350 92  
4351 93  
4352 13  
4353 39  
4354 41  
4355 35  
4356 56  
4357 95  
4358 57  
4359 85  
4360 77  
4361 60  
4362 44  
4363 61  
4364 34  
4365 79  
4366 80  
4367 96  
4368 13  
4369 1   
4370 62  
4371 64  
4372 2   
4373 63  
4374 18  
4375 84  
4376 18  
4377 49  
4378 35  
4379 7   
4380 39  
4381 48  
4382 35  
4383 75  
4384 46  
4385 78  
4386 44  
4387 27  
4388 78  
4389 29  
4390 90  
4391 60  
4392 55  
4393 5   
4394 46  
4395 86  
4396 98  
4397 38  
4398 66  
4399 57  
4400 78  
4401 25  
4402 97  
4403 39  
4404 76  
4405 96  
4406 64  
4407 75  
4408 87  
4409 78  
4410 88  
4411 1   
4412 42  
4413 63  
4414 12  
4415 5   
4416 6   
4417 82  
4418 1   
4419 65  
4420 92  
4421 71  
4422 36  
4423 78  
4424 13  
4425 41  
4426 13  
4427 40  
4428 32  
4429 68  
4430 92  
4431 82  
4432 38  
4433 98  
4434 55  
4435 69  
4436 57  
4437 81  
4438 95  
4439 18  
4440 26  
4441 37  
4442 99  
4443 27  
4444 68  
4445 8   
4446 78  
4447 46  
4448 50  
4449 83  
4450 20  
4451 16  
4452 13  
4453 9   
4454 42  
4455 57  
4456 8   
4457 73  
4458 14  
4459 37  
4460 36  
4461 18  
4462 63  
4463 41  
4464 12  
4465 42  
4466 74  
4467 78  
4468 77  
4469 76  
4470 18  
4471 64  
4472 3   
4473 65  
4474 98  
4475 51  
4476 39  
4477 16  
4478 1   
4479 66  
4480 88  
4481 63  
4482 38  
4483 74  
4484 27  
4485 89  
4486 76  
4487 57  
4488 46  
4489 53  
4490 99  
4491 41  
4492 70  
4493 70  
4494 2   
4495 27  
4496 16  
4497 91  
4498 39  
4499 40  
4500 23  
4501 75  
4502 25  
4503 25  
4504 8   
4505 38  
4506 36  
4507 38  
4508 19  
4509 1   
4510 92  
4511 81  
4512 31  
4513 59  
4514 55  
4515 56  
4516 87  
4517 93  
4518 81  
4519 89  
4520 58  
4521 5   
4522 94  
4523 24  
4524 49  
4525 97  
4526 53  
4527 100 
4528 93  
4529 37  
4530 14  
4531 44  
4532 35  
4533 84  
4534 98  
4535 8   
4536 46  
4537 86  
4538 22  
4539 79  
4540 83  
4541 4   
4542 35  
4543 52  
4544 70  
4545 56  
4546 22  
4547 49  
4548 70  
4549 64  
4550 95  
4551 45  
4552 84  
4553 4   
4554 77  
4555 48  
4556 47  
4557 83  
4558 48  
4559 55  
4560 9   
4561 75  
4562 12  
4563 27  
4564 75  
4565 18  
4566 42  
4567 94  
4568 71  
4569 30  
4570 98  
4571 78  
4572 52  
4573 23  
4574 15  
4575 3   
4576 32  
4577 17  
4578 6   
4579 32  
4580 75  
4581 33  
4582 77  
4583 21  
4584 19  
4585 47  
4586 95  
4587 46  
4588 30  
4589 14  
4590 20  
4591 59  
4592 71  
4593 23  
4594 72  
4595 38  
4596 53  
4597 69  
4598 81  
4599 33  
4600 48  
4601 58  
4602 9   
4603 54  
4604 66  
4605 37  
4606 65  
4607 44  
4608 54  
4609 62  
4610 8   
4611 91  
4612 84  
4613 55  
4614 20  
4615 28  
4616 55  
4617 68  
4618 49  
4619 42  
4620 80  
4621 10  
4622 11  
4623 54  
4624 77  
4625 9   
4626 85  
4627 23  
4628 48  
4629 35  
4630 87  
4631 96  
4632 93  
4633 17  
4634 50  
4635 37  
4636 13  
4637 44  
4638 67  
4639 63  
4640 8   
4641 21  
4642 53  
4643 36  
4644 63  
4645 65  
4646 73  
4647 86  
4648 76  
4649 22  
4650 35  
4651 14  
4652 51  
4653 77  
4654 3   
4655 38  
4656 88  
4657 12  
4658 19  
4659 22  
4660 66  
4661 62  
4662 100 
4663 22  
4664 18  
4665 42  
4666 72  
4667 21  
4668 47  
4669 11  
4670 47  
4671 58  
4672 23  
4673 99  
4674 52  
4675 69  
4676 79  
4677 84  
4678 30  
4679 51  
4680 17  
4681 1   
4682 67  
4683 1   
4684 35  
4685 60  
4686 67  
4687 30  
4688 87  
4689 49  
4690 46  
4691 91  
4692 56  
4693 75  
4694 14  
4695 15  
4696 64  
4697 54  
4698 7   
4699 12  
4700 70  
4701 24  
4702 21  
4703 90  
4704 53  
4705 65  
4706 83  
4707 39  
4708 17  
4709 48  
4710 13  
4711 91  
4712 88  
4713 34  
4714 40  
4715 5   
4716 24  
4717 42  
4718 81  
4719 5   
4720 8   
4721 86  
4722 10  
4723 24  
4724 9   
4725 21  
4726 89  
4727 87  
4728 94  
4729 37  
4730 79  
4731 84  
4732 23  
4733 49  
4734 1   
4735 72  
4736 5   
4737 91  
4738 34  
4739 77  
4740 91  
4741 46  
4742 75  
4743 44  
4744 56  
4745 31  
4746 2   
4747 81  
4748 30  
4749 90  
4750 75  
4751 23  
4752 17  
4753 27  
4754 65  
4755 89  
4756 27  
4757 39  
4758 100 
4759 53  
4760 52  
4761 2   
4762 18  
4763 24  
4764 1   
4765 20  
4766 3   
4767 24  
4768 89  
4769 12  
4770 99  
4771 24  
4772 84  
4773 73  
4774 42  
4775 45  
4776 96  
4777 18  
4778 50  
4779 97  
4780 83  
4781 22  
4782 87  
4783 56  
4784 65  
4785 31  
4786 22  
4787 89  
4788 49  
4789 32  
4790 14  
4791 18  
4792 62  
4793 20  
4794 30  
4795 29  
4796 36  
4797 53  
4798 3   
4799 31  
4800 44  
4801 95  
4802 46  
4803 18  
4804 75  
4805 18  
4806 15  
4807 65  
4808 92  
4809 25  
4810 50  
4811 20  
4812 92  
4813 60  
4814 17  
4815 45  
4816 40  
4817 84  
4818 98  
4819 36  
4820 10  
4821 70  
4822 67  
4823 65  
4824 27  
4825 9   
4826 65  
4827 32  
4828 47  
4829 5   
4830 80  
4831 10  
4832 60  
4833 87  
4834 2   
4835 72  
4836 76  
4837 51  
4838 58  
4839 95  
4840 81  
4841 83  
4842 29  
4843 19  
4844 66  
4845 15  
4846 6   
4847 90  
4848 30  
4849 23  
4850 57  
4851 94  
4852 45  
4853 45  
4854 67  
4855 71  
4856 69  
4857 69  
4858 37  
4859 83  
4860 82  
4861 20  
4862 87  
4863 66  
4864 100 
4865 34  
4866 40  
4867 65  
4868 10  
4869 21  
4870 97  
4871 86  
4872 69  
4873 33  
4874 22  
4875 44  
4876 68  
4877 61  
4878 93  
4879 62  
4880 29  
4881 65  
4882 66  
4883 22  
4884 51  
4885 5   
4886 76  
4887 20  
4888 23  
4889 35  
4890 34  
4891 42  
4892 96  
4893 82  
4894 1   
4895 87  
4896 17  
4897 19  
4898 21  
4899 1   
4900 77  
4901 25  
4902 86  
4903 71  
4904 94  
4905 15  
4906 88  
4907 78  
4908 43  
4909 12  
4910 23  
4911 93  
4912 48  
4913 75  
4914 71  
4915 27  
4916 83  
4917 90  
4918 85  
4919 47  
4920 33  
4921 24  
4922 29  
4923 54  
4924 76  
4925 92  
4926 4   
4927 37  
4928 97  
4929 82  
4930 60  
4931 67  
4932 23  
4933 60  
4934 64  
4935 17  
4936 92  
4937 69  
4938 98  
4939 55  
4940 36  
4941 43  
4942 82  
4943 36  
4944 67  
4945 89  
4946 50  
4947 94  
4948 99  
4949 13  
4950 16  
4951 98  
4952 9   
4953 69  
4954 71  
4955 56  
4956 57  
4957 83  
4958 60  
4959 31  
4960 14  
4961 100 
4962 59  
4963 66  
4964 52  
4965 9   
4966 86  
4967 76  
4968 94  
4969 65  
4970 26  
4971 50  
4972 20  
4973 8   
4974 97  
4975 53  
4976 34  
4977 23  
4978 8   
4979 67  
4980 1   
4981 22  
4982 37  
4983 12  
4984 12  
4985 85  
4986 20  
4987 98  
4988 97  
4989 85  
4990 47  
4991 24  
4992 14  
4993 41  
4994 18  
4995 25  
4996 36  
4997 7   
4998 53  
4999 17  
5000 97  
5001 77  
5002 76  
5003 56  
5004 66  
5005 73  
5006 33  
5007 79  
5008 31  
5009 43  
5010 42  
5011 40  
5012 65  
5013 1   
5014 100 
5015 61  
5016 82  
5017 76  
5018 76  
5019 1   
5020 51  
5021 43  
5022 36  
5023 75  
5024 99  
5025 74  
5026 89  
5027 31  
5028 51  
5029 41  
5030 86  
5031 29  
5032 91  
5033 93  
5034 15  
5035 20  
5036 75  
5037 61  
5038 9   
5039 43  
5040 28  
5041 73  
5042 43  
5043 96  
5044 65  
5045 88  
5046 78  
5047 50  
5048 6   
5049 96  
5050 24  
5051 23  
5052 10  
5053 15  
5054 30  
5055 68  
5056 56  
5057 75  
5058 17  
5059 27  
5060 70  
5061 13  
5062 35  
5063 53  
5064 85  
5065 8   
5066 30  
5067 40  
5068 25  
5069 76  
5070 93  
5071 59  
5072 4   
5073 51  
5074 49  
5075 11  
5076 60  
5077 88  
5078 79  
5079 86  
5080 40  
5081 55  
5082 29  
5083 19  
5084 76  
5085 3   
5086 36  
5087 85  
5088 16  
5089 40  
5090 49  
5091 85  
5092 64  
5093 8   
5094 65  
5095 14  
5096 44  
5097 26  
5098 44  
5099 42  
5100 57  
5101 63  
5102 38  
5103 92  
5104 91  
5105 11  
5106 31  
5107 42  
5108 67  
5109 32  
5110 14  
5111 66  
5112 76  
5113 67  
5114 47  
5115 16  
5116 13  
5117 86  
5118 68  
5119 25  
5120 78  
5121 21  
5122 22  
5123 59  
5124 12  
5125 38  
5126 66  
5127 80  
5128 60  
5129 12  
5130 75  
5131 88  
5132 16  
5133 48  
5134 46  
5135 1   
5136 77  
5137 74  
5138 46  
5139 47  
5140 6   
5141 35  
5142 79  
5143 9   
5144 45  
5145 82  
5146 75  
5147 11  
5148 93  
5149 48  
5150 9   
5151 72  
5152 79  
5153 70  
5154 2   
5155 8   
5156 21  
5157 90  
5158 48  
5159 93  
5160 75  
5161 37  
5162 90  
5163 10  
5164 9   
5165 3   
5166 72  
5167 56  
5168 90  
5169 83  
5170 45  
5171 80  
5172 58  
5173 37  
5174 17  
5175 39  
5176 51  
5177 6   
5178 91  
5179 63  
5180 53  
5181 71  
5182 79  
5183 36  
5184 57  
5185 64  
5186 18  
5187 99  
5188 70  
5189 9   
5190 76  
5191 90  
5192 7   
5193 4   
5194 87  
5195 26  
5196 42  
5197 83  
5198 39  
5199 18  
5200 21  
5201 71  
5202 61  
5203 67  
5204 56  
5205 3   
5206 7   
5207 34  
5208 29  
5209 76  
5210 2   
5211 47  
5212 88  
5213 70  
5214 69  
5215 33  
5216 48  
5217 55  
5218 29  
5219 13  
5220 68  
5221 39  
5222 6   
5223 52  
5224 33  
5225 42  
5226 65  
5227 31  
5228 73  
5229 5   
5230 59  
5231 12  
5232 47  
5233 98  
5234 48  
5235 46  
5236 91  
5237 60  
5238 58  
5239 59  
5240 66  
5241 76  
5242 37  
5243 85  
5244 88  
5245 58  
5246 94  
5247 61  
5248 46  
5249 62  
5250 93  
5251 35  
5252 58  
5253 15  
5254 76  
5255 26  
5256 3   
5257 21  
5258 53  
5259 59  
5260 89  
5261 77  
5262 57  
5263 80  
5264 75  
5265 35  
5266 89  
5267 62  
5268 59  
5269 100 
5270 19  
5271 24  
5272 5   
5273 97  
5274 49  
5275 61  
5276 95  
5277 40  
5278 56  
5279 41  
5280 72  
5281 86  
5282 59  
5283 60  
5284 3   
5285 94  
5286 91  
5287 13  
5288 33  
5289 46  
5290 82  
5291 63  
5292 27  
5293 24  
5294 60  
5295 63  
5296 25  
5297 38  
5298 24  
5299 1   
5300 50  
5301 10  
5302 80  
5303 69  
5304 7   
5305 52  
5306 50  
5307 93  
5308 29  
5309 88  
5310 14  
5311 22  
5312 80  
5313 91  
5314 59  
5315 39  
5316 62  
5317 8   
5318 5   
5319 30  
5320 40  
5321 28  
5322 10  
5323 80  
5324 48  
5325 25  
5326 54  
5327 4   
5328 97  
5329 13  
5330 58  
5331 96  
5332 75  
5333 92  
5334 1   
5335 100 
5336 97  
5337 46  
5338 67  
5339 41  
5340 51  
5341 95  
5342 96  
5343 32  
5344 68  
5345 43  
5346 40  
5347 99  
5348 58  
5349 22  
5350 9   
5351 49  
5352 5   
5353 27  
5354 71  
5355 18  
5356 61  
5357 8   
5358 96  
5359 7   
5360 18  
5361 95  
5362 66  
5363 20  
5364 9   
5365 2   
5366 95  
5367 96  
5368 78  
5369 60  
5370 2   
5371 39  
5372 60  
5373 44  
5374 39  
5375 73  
5376 34  
5377 57  
5378 62  
5379 22  
5380 82  
5381 48  
5382 3   
5383 7   
5384 11  
5385 20  
5386 29  
5387 18  
5388 24  
5389 69  
5390 64  
5391 67  
5392 36  
5393 21  
5394 2   
5395 92  
5396 41  
5397 73  
5398 28  
5399 70  
5400 63  
5401 52  
5402 10  
5403 78  
5404 18  
5405 11  
5406 48  
5407 29  
5408 52  
5409 66  
5410 24  
5411 91  
5412 16  
5413 13  
5414 76  
5415 59  
5416 65  
5417 5   
5418 80  
5419 43  
5420 33  
5421 59  
5422 9   
5423 18  
5424 95  
5425 97  
5426 92  
5427 17  
5428 54  
5429 30  
5430 89  
5431 71  
5432 98  
5433 80  
5434 17  
5435 43  
5436 11  
5437 8   
5438 73  
5439 58  
5440 18  
5441 89  
5442 88  
5443 52  
5444 78  
5445 91  
5446 74  
5447 99  
5448 76  
5449 64  
5450 5   
5451 96  
5452 37  
5453 4   
5454 7   
5455 38  
5456 10  
5457 6   
5458 39  
5459 53  
5460 58  
5461 52  
5462 58  
5463 2   
5464 22  
5465 21  
5466 81  
5467 39  
5468 39  
5469 47  
5470 24  
5471 62  
5472 16  
5473 65  
5474 11  
5475 43  
5476 89  
5477 10  
5478 76  
5479 60  
5480 26  
5481 94  
5482 38  
5483 42  
5484 3   
5485 23  
5486 42  
5487 57  
5488 83  
5489 63  
5490 63  
5491 96  
5492 88  
5493 51  
5494 48  
5495 69  
5496 35  
5497 16  
5498 18  
5499 36  
5500 82  
5501 25  
5502 9   
5503 9   
5504 39  
5505 93  
5506 18  
5507 96  
5508 61  
5509 17  
5510 90  
5511 69  
5512 45  
5513 40  
5514 54  
5515 38  
5516 97  
5517 37  
5518 3   
5519 88  
5520 64  
5521 36  
5522 49  
5523 36  
5524 64  
5525 97  
5526 30  
5527 50  
5528 73  
5529 47  
5530 6   
5531 37  
5532 17  
5533 76  
5534 23  
5535 68  
5536 8   
5537 64  
5538 97  
5539 23  
5540 9   
5541 93  
5542 91  
5543 84  
5544 59  
5545 64  
5546 51  
5547 38  
5548 41  
5549 74  
5550 44  
5551 17  
5552 71  
5553 98  
5554 57  
5555 10  
5556 93  
5557 10  
5558 67  
5559 55  
5560 13  
5561 20  
5562 68  
5563 14  
5564 44  
5565 93  
5566 86  
5567 59  
5568 48  
5569 26  
5570 25  
5571 98  
5572 16  
5573 35  
5574 82  
5575 23  
5576 55  
5577 36  
5578 8   
5579 99  
5580 81  
5581 71  
5582 39  
5583 32  
5584 74  
5585 85  
5586 12  
5587 32  
5588 25  
5589 91  
5590 50  
5591 76  
5592 21  
5593 53  
5594 65  
5595 36  
5596 67  
5597 76  
5598 27  
5599 32  
5600 99  
5601 4   
5602 58  
5603 99  
5604 22  
5605 44  
5606 81  
5607 20  
5608 42  
5609 2   
5610 41  
5611 13  
5612 56  
5613 42  
5614 5   
5615 90  
5616 36  
5617 96  
5618 2   
5619 97  
5620 50  
5621 86  
5622 12  
5623 16  
5624 22  
5625 7   
5626 26  
5627 9   
5628 98  
5629 38  
5630 40  
5631 75  
5632 24  
5633 29  
5634 57  
5635 11  
5636 52  
5637 41  
5638 99  
5639 26  
5640 20  
5641 31  
5642 40  
5643 33  
5644 8   
5645 79  
5646 34  
5647 95  
5648 66  
5649 34  
5650 94  
5651 60  
5652 11  
5653 61  
5654 61  
5655 42  
5656 28  
5657 82  
5658 77  
5659 44  
5660 66  
5661 100 
5662 2   
5663 65  
5664 48  
5665 40  
5666 46  
5667 67  
5668 89  
5669 30  
5670 14  
5671 2   
5672 97  
5673 2   
5674 96  
5675 48  
5676 22  
5677 36  
5678 36  
5679 1   
5680 86  
5681 86  
5682 99  
5683 73  
5684 19  
5685 41  
5686 20  
5687 18  
5688 86  
5689 87  
5690 2   
5691 74  
5692 45  
5693 15  
5694 81  
5695 37  
5696 62  
5697 59  
5698 64  
5699 43  
5700 32  
5701 67  
5702 84  
5703 12  
5704 39  
5705 81  
5706 8   
5707 15  
5708 13  
5709 88  
5710 73  
5711 62  
5712 62  
5713 8   
5714 38  
5715 90  
5716 72  
5717 39  
5718 91  
5719 5   
5720 17  
5721 28  
5722 31  
5723 12  
5724 63  
5725 26  
5726 94  
5727 54  
5728 21  
5729 71  
5730 12  
5731 25  
5732 57  
5733 47  
5734 53  
5735 38  
5736 61  
5737 100 
5738 63  
5739 75  
5740 68  
5741 39  
5742 12  
5743 99  
5744 71  
5745 39  
5746 74  
5747 52  
5748 74  
5749 35  
5750 58  
5751 47  
5752 99  
5753 35  
5754 36  
5755 8   
5756 52  
5757 5   
5758 30  
5759 21  
5760 92  
5761 38  
5762 67  
5763 94  
5764 80  
5765 72  
5766 62  
5767 42  
5768 86  
5769 8   
5770 46  
5771 83  
5772 10  
5773 66  
5774 57  
5775 73  
5776 57  
5777 42  
5778 23  
5779 2   
5780 86  
5781 44  
5782 25  
5783 68  
5784 21  
5785 58  
5786 87  
5787 61  
5788 15  
5789 15  
5790 20  
5791 40  
5792 26  
5793 24  
5794 68  
5795 11  
5796 29  
5797 2   
5798 55  
5799 25  
5800 2   
5801 20  
5802 57  
5803 82  
5804 70  
5805 95  
5806 3   
5807 85  
5808 80  
5809 6   
5810 67  
5811 64  
5812 46  
5813 56  
5814 11  
5815 12  
5816 27  
5817 75  
5818 69  
5819 33  
5820 68  
5821 58  
5822 86  
5823 10  
5824 47  
5825 76  
5826 58  
5827 92  
5828 19  
5829 1   
5830 29  
5831 49  
5832 19  
5833 7   
5834 1   
5835 93  
5836 66  
5837 77  
5838 100 
5839 1   
5840 97  
5841 66  
5842 72  
5843 5   
5844 66  
5845 25  
5846 52  
5847 48  
5848 2   
5849 93  
5850 32  
5851 5   
5852 57  
5853 30  
5854 20  
5855 73  
5856 27  
5857 38  
5858 85  
5859 49  
5860 15  
5861 24  
5862 17  
5863 1   
5864 10  
5865 68  
5866 48  
5867 10  
5868 97  
5869 1   
5870 24  
5871 40  
5872 77  
5873 94  
5874 29  
5875 91  
5876 79  
5877 45  
5878 39  
5879 38  
5880 44  
5881 82  
5882 43  
5883 78  
5884 96  
5885 23  
5886 52  
5887 3   
5888 32  
5889 51  
5890 42  
5891 54  
5892 63  
5893 47  
5894 46  
5895 38  
5896 47  
5897 71  
5898 95  
5899 100 
5900 45  
5901 88  
5902 68  
5903 2   
5904 33  
5905 76  
5906 17  
5907 20  
5908 32  
5909 72  
5910 22  
5911 61  
5912 79  
5913 82  
5914 80  
5915 76  
5916 62  
5917 97  
5918 12  
5919 22  
5920 99  
5921 5   
5922 60  
5923 14  
5924 57  
5925 70  
5926 12  
5927 87  
5928 58  
5929 39  
5930 27  
5931 20  
5932 39  
5933 74  
5934 15  
5935 92  
5936 16  
5937 75  
5938 16  
5939 37  
5940 17  
5941 80  
5942 2   
5943 71  
5944 44  
5945 53  
5946 6   
5947 44  
5948 10  
5949 46  
5950 91  
5951 75  
5952 74  
5953 7   
5954 38  
5955 2   
5956 99  
5957 34  
5958 24  
5959 53  
5960 3   
5961 86  
5962 24  
5963 3   
5964 87  
5965 14  
5966 36  
5967 40  
5968 89  
5969 65  
5970 33  
5971 80  
5972 87  
5973 42  
5974 46  
5975 98  
5976 71  
5977 29  
5978 86  
5979 49  
5980 50  
5981 6   
5982 23  
5983 46  
5984 40  
5985 12  
5986 81  
5987 33  
5988 72  
5989 27  
5990 87  
5991 79  
5992 2   
5993 35  
5994 100 
5995 10  
5996 54  
5997 69  
5998 26  
5999 81  
6000 5   
6001 98  
6002 96  
6003 42  
6004 40  
6005 66  
6006 39  
6007 40  
6008 4   
6009 98  
6010 46  
6011 33  
6012 87  
6013 66  
6014 100 
6015 96  
6016 35  
6017 70  
6018 20  
6019 20  
6020 11  
6021 98  
6022 71  
6023 34  
6024 33  
6025 9   
6026 83  
6027 13  
6028 93  
6029 38  
6030 58  
6031 68  
6032 89  
6033 57  
6034 64  
6035 32  
6036 93  
6037 39  
6038 57  
6039 51  
6040 91  
6041 19  
6042 56  
6043 49  
6044 57  
6045 60  
6046 88  
6047 16  
6048 41  
6049 85  
6050 27  
6051 80  
6052 13  
6053 92  
6054 66  
6055 38  
6056 58  
6057 15  
6058 42  
6059 79  
6060 38  
6061 37  
6062 44  
6063 86  
6064 85  
6065 24  
6066 89  
6067 62  
6068 45  
6069 58  
6070 58  
6071 30  
6072 40  
6073 49  
6074 14  
6075 73  
6076 84  
6077 1   
6078 97  
6079 95  
6080 91  
6081 56  
6082 60  
6083 83  
6084 23  
6085 86  
6086 29  
6087 6   
6088 100 
6089 54  
6090 34  
6091 68  
6092 16  
6093 19  
6094 63  
6095 89  
6096 56  
6097 81  
6098 32  
6099 54  
6100 67  
6101 43  
6102 99  
6103 10  
6104 3   
6105 87  
6106 54  
6107 75  
6108 21  
6109 40  
6110 39  
6111 98  
6112 1   
6113 50  
6114 99  
6115 24  
6116 92  
6117 88  
6118 13  
6119 41  
6120 13  
6121 52  
6122 77  
6123 70  
6124 68  
6125 91  
6126 62  
6127 97  
6128 28  
6129 52  
6130 3   
6131 31  
6132 53  
6133 65  
6134 32  
6135 3   
6136 91  
6137 12  
6138 26  
6139 57  
6140 53  
6141 70  
6142 28  
6143 48  
6144 4   
6145 9   
6146 20  
6147 92  
6148 15  
6149 54  
6150 78  
6151 31  
6152 60  
6153 92  
6154 1   
6155 95  
6156 37  
6157 20  
6158 16  
6159 91  
6160 10  
6161 95  
6162 30  
6163 2   
6164 41  
6165 68  
6166 44  
6167 70  
6168 92  
6169 94  
6170 48  
6171 69  
6172 17  
6173 9   
6174 100 
6175 98  
6176 8   
6177 78  
6178 58  
6179 22  
6180 41  
6181 33  
6182 57  
6183 100 
6184 26  
6185 66  
6186 73  
6187 25  
6188 19  
6189 11  
6190 23  
6191 43  
6192 73  
6193 81  
6194 47  
6195 12  
6196 51  
6197 9   
6198 45  
6199 96  
6200 35  
6201 50  
6202 32  
6203 48  
6204 65  
6205 78  
6206 20  
6207 71  
6208 14  
6209 15  
6210 91  
6211 72  
6212 28  
6213 95  
6214 75  
6215 4   
6216 9   
6217 37  
6218 32  
6219 9   
6220 99  
6221 83  
6222 24  
6223 8   
6224 24  
6225 70  
6226 13  
6227 52  
6228 21  
6229 20  
6230 32  
6231 25  
6232 61  
6233 25  
6234 71  
6235 57  
6236 4   
6237 62  
6238 63  
6239 17  
6240 38  
6241 100 
6242 43  
6243 29  
6244 43  
6245 45  
6246 58  
6247 88  
6248 2   
6249 100 
6250 52  
6251 80  
6252 37  
6253 49  
6254 16  
6255 94  
6256 7   
6257 32  
6258 91  
6259 83  
6260 5   
6261 24  
6262 71  
6263 25  
6264 75  
6265 35  
6266 94  
6267 5   
6268 27  
6269 24  
6270 31  
6271 68  
6272 58  
6273 51  
6274 45  
6275 68  
6276 80  
6277 44  
6278 18  
6279 64  
6280 57  
6281 98  
6282 62  
6283 83  
6284 59  
6285 12  
6286 12  
6287 56  
6288 89  
6289 54  
6290 11  
6291 55  
6292 22  
6293 79  
6294 8   
6295 76  
6296 78  
6297 46  
6298 87  
6299 7   
6300 43  
6301 27  
6302 60  
6303 29  
6304 3   
6305 91  
6306 25  
6307 14  
6308 82  
6309 40  
6310 49  
6311 41  
6312 14  
6313 56  
6314 98  
6315 68  
6316 2   
6317 18  
6318 88  
6319 71  
6320 17  
6321 46  
6322 35  
6323 73  
6324 83  
6325 82  
6326 1   
6327 32  
6328 96  
6329 9   
6330 48  
6331 38  
6332 34  
6333 28  
6334 80  
6335 9   
6336 50  
6337 59  
6338 89  
6339 37  
6340 2   
6341 76  
6342 93  
6343 56  
6344 8   
6345 60  
6346 33  
6347 74  
6348 52  
6349 90  
6350 31  
6351 83  
6352 57  
6353 9   
6354 73  
6355 41  
6356 64  
6357 86  
6358 52  
6359 93  
6360 80  
6361 26  
6362 35  
6363 23  
6364 26  
6365 100 
6366 86  
6367 81  
6368 79  
6369 27  
6370 64  
6371 32  
6372 71  
6373 23  
6374 70  
6375 11  
6376 9   
6377 71  
6378 38  
6379 5   
6380 69  
6381 55  
6382 93  
6383 4   
6384 87  
6385 91  
6386 18  
6387 62  
6388 57  
6389 63  
6390 26  
6391 33  
6392 55  
6393 55  
6394 37  
6395 50  
6396 78  
6397 85  
6398 43  
6399 29  
6400 25  
6401 90  
6402 88  
6403 19  
6404 23  
6405 26  
6406 94  
6407 41  
6408 25  
6409 77  
6410 39  
6411 10  
6412 30  
6413 68  
6414 94  
6415 77  
6416 21  
6417 95  
6418 93  
6419 17  
6420 64  
6421 67  
6422 69  
6423 9   
6424 87  
6425 89  
6426 47  
6427 96  
6428 30  
6429 20  
6430 96  
6431 62  
6432 41  
6433 64  
6434 41  
6435 77  
6436 5   
6437 17  
6438 76  
6439 10  
6440 97  
6441 39  
6442 26  
6443 1   
6444 81  
6445 20  
6446 60  
6447 33  
6448 86  
6449 91  
6450 74  
6451 96  
6452 53  
6453 47  
6454 78  
6455 53  
6456 19  
6457 12  
6458 96  
6459 61  
6460 76  
6461 38  
6462 82  
6463 48  
6464 27  
6465 99  
6466 97  
6467 55  
6468 17  
6469 83  
6470 3   
6471 48  
6472 4   
6473 74  
6474 68  
6475 63  
6476 98  
6477 12  
6478 92  
6479 40  
6480 24  
6481 13  
6482 6   
6483 33  
6484 7   
6485 69  
6486 15  
6487 74  
6488 72  
6489 84  
6490 85  
6491 47  
6492 100 
6493 18  
6494 6   
6495 39  
6496 96  
6497 13  
6498 86  
6499 80  
6500 61  
6501 73  
6502 86  
6503 10  
6504 87  
6505 19  
6506 47  
6507 20  
6508 64  
6509 17  
6510 84  
6511 46  
6512 75  
6513 63  
6514 71  
6515 40  
6516 2   
6517 43  
6518 20  
6519 80  
6520 3   
6521 44  
6522 85  
6523 61  
6524 74  
6525 93  
6526 47  
6527 60  
6528 88  
6529 43  
6530 41  
6531 91  
6532 86  
6533 68  
6534 12  
6535 15  
6536 93  
6537 69  
6538 55  
6539 22  
6540 81  
6541 10  
6542 75  
6543 39  
6544 39  
6545 97  
6546 50  
6547 91  
6548 79  
6549 48  
6550 17  
6551 16  
6552 87  
6553 97  
6554 91  
6555 59  
6556 81  
6557 38  
6558 18  
6559 15  
6560 96  
6561 26  
6562 91  
6563 12  
6564 44  
6565 66  
6566 52  
6567 47  
6568 56  
6569 28  
6570 70  
6571 8   
6572 16  
6573 56  
6574 90  
6575 45  
6576 83  
6577 16  
6578 22  
6579 56  
6580 2   
6581 25  
6582 81  
6583 46  
6584 74  
6585 68  
6586 84  
6587 69  
6588 91  
6589 16  
6590 64  
6591 85  
6592 27  
6593 22  
6594 5   
6595 69  
6596 26  
6597 16  
6598 18  
6599 79  
6600 83  
6601 34  
6602 96  
6603 18  
6604 13  
6605 66  
6606 59  
6607 99  
6608 61  
6609 80  
6610 46  
6611 2   
6612 31  
6613 18  
6614 22  
6615 51  
6616 67  
6617 90  
6618 60  
6619 97  
6620 64  
6621 70  
6622 64  
6623 78  
6624 18  
6625 72  
6626 35  
6627 61  
6628 49  
6629 71  
6630 61  
6631 10  
6632 20  
6633 36  
6634 92  
6635 34  
6636 7   
6637 34  
6638 17  
6639 57  
6640 43  
6641 82  
6642 50  
6643 81  
6644 43  
6645 16  
6646 9   
6647 99  
6648 55  
6649 6   
6650 56  
6651 6   
6652 27  
6653 42  
6654 5   
6655 72  
6656 2   
6657 81  
6658 50  
6659 79  
6660 52  
6661 82  
6662 78  
6663 68  
6664 5   
6665 28  
6666 50  
6667 81  
6668 4   
6669 35  
6670 23  
6671 41  
6672 27  
6673 98  
6674 21  
6675 82  
6676 57  
6677 7   
6678 17  
6679 19  
6680 41  
6681 16  
6682 89  
6683 24  
6684 83  
6685 64  
6686 60  
6687 53  
6688 68  
6689 49  
6690 74  
6691 5   
6692 99  
6693 60  
6694 66  
6695 94  
6696 86  
6697 90  
6698 16  
6699 35  
6700 53  
6701 91  
6702 49  
6703 87  
6704 10  
6705 58  
6706 97  
6707 94  
6708 72  
6709 36  
6710 84  
6711 82  
6712 55  
6713 65  
6714 13  
6715 6   
6716 78  
6717 35  
6718 60  
6719 9   
6720 82  
6721 4   
6722 55  
6723 43  
6724 95  
6725 26  
6726 97  
6727 54  
6728 54  
6729 86  
6730 96  
6731 98  
6732 23  
6733 30  
6734 13  
6735 1   
6736 69  
6737 45  
6738 26  
6739 64  
6740 83  
6741 25  
6742 89  
6743 32  
6744 11  
6745 72  
6746 53  
6747 76  
6748 10  
6749 57  
6750 61  
6751 6   
6752 27  
6753 43  
6754 88  
6755 39  
6756 22  
6757 41  
6758 91  
6759 85  
6760 87  
6761 55  
6762 45  
6763 85  
6764 28  
6765 12  
6766 36  
6767 69  
6768 78  
6769 28  
6770 61  
6771 42  
6772 55  
6773 85  
6774 90  
6775 52  
6776 91  
6777 59  
6778 96  
6779 57  
6780 94  
6781 47  
6782 46  
6783 12  
6784 14  
6785 19  
6786 70  
6787 13  
6788 36  
6789 44  
6790 3   
6791 8   
6792 82  
6793 45  
6794 100 
6795 28  
6796 56  
6797 73  
6798 45  
6799 41  
6800 35  
6801 65  
6802 83  
6803 15  
6804 78  
6805 38  
6806 53  
6807 71  
6808 16  
6809 73  
6810 2   
6811 51  
6812 64  
6813 77  
6814 42  
6815 73  
6816 82  
6817 51  
6818 84  
6819 57  
6820 28  
6821 54  
6822 92  
6823 84  
6824 12  
6825 36  
6826 17  
6827 49  
6828 37  
6829 84  
6830 51  
6831 91  
6832 2   
6833 54  
6834 10  
6835 62  
6836 76  
6837 60  
6838 74  
6839 2   
6840 100 
6841 7   
6842 10  
6843 25  
6844 57  
6845 57  
6846 50  
6847 55  
6848 28  
6849 48  
6850 67  
6851 22  
6852 20  
6853 5   
6854 93  
6855 50  
6856 17  
6857 65  
6858 64  
6859 75  
6860 78  
6861 63  
6862 71  
6863 53  
6864 78  
6865 50  
6866 40  
6867 64  
6868 77  
6869 93  
6870 29  
6871 53  
6872 65  
6873 97  
6874 35  
6875 76  
6876 37  
6877 48  
6878 2   
6879 69  
6880 2   
6881 67  
6882 26  
6883 72  
6884 89  
6885 84  
6886 17  
6887 70  
6888 30  
6889 26  
6890 30  
6891 23  
6892 23  
6893 16  
6894 88  
6895 77  
6896 98  
6897 56  
6898 13  
6899 81  
6900 5   
6901 100 
6902 35  
6903 48  
6904 13  
6905 82  
6906 70  
6907 99  
6908 58  
6909 77  
6910 92  
6911 35  
6912 86  
6913 68  
6914 8   
6915 74  
6916 29  
6917 36  
6918 26  
6919 24  
6920 3   
6921 40  
6922 9   
6923 10  
6924 93  
6925 36  
6926 13  
6927 86  
6928 66  
6929 17  
6930 13  
6931 34  
6932 55  
6933 2   
6934 83  
6935 41  
6936 37  
6937 8   
6938 44  
6939 59  
6940 33  
6941 98  
6942 6   
6943 80  
6944 49  
6945 11  
6946 95  
6947 9   
6948 82  
6949 7   
6950 77  
6951 58  
6952 49  
6953 80  
6954 43  
6955 5   
6956 5   
6957 81  
6958 11  
6959 67  
6960 28  
6961 48  
6962 54  
6963 36  
6964 26  
6965 52  
6966 18  
6967 17  
6968 30  
6969 15  
6970 12  
6971 42  
6972 18  
6973 47  
6974 48  
6975 58  
6976 14  
6977 21  
6978 93  
6979 20  
6980 86  
6981 57  
6982 37  
6983 45  
6984 2   
6985 83  
6986 89  
6987 97  
6988 47  
6989 36  
6990 87  
6991 96  
6992 67  
6993 65  
6994 32  
6995 41  
6996 79  
6997 89  
6998 27  
6999 5   
7000 53  
7001 89  
7002 73  
7003 88  
7004 17  
7005 53  
7006 42  
7007 30  
7008 13  
7009 82  
7010 31  
7011 31  
7012 91  
7013 40  
7014 49  
7015 1   
7016 53  
7017 58  
7018 53  
7019 3   
7020 92  
7021 93  
7022 92  
7023 3   
7024 84  
7025 16  
7026 63  
7027 16  
7028 97  
7029 90  
7030 62  
7031 18  
7032 5   
7033 3   
7034 50  
7035 58  
7036 72  
7037 60  
7038 11  
7039 67  
7040 84  
7041 95  
7042 2   
7043 50  
7044 15  
7045 98  
7046 99  
7047 21  
7048 73  
7049 13  
7050 64  
7051 72  
7052 64  
7053 27  
7054 38  
7055 91  
7056 17  
7057 17  
7058 97  
7059 42  
7060 18  
7061 71  
7062 88  
7063 56  
7064 25  
7065 26  
7066 81  
7067 1   
7068 30  
7069 24  
7070 94  
7071 85  
7072 92  
7073 93  
7074 68  
7075 32  
7076 75  
7077 75  
7078 99  
7079 64  
7080 98  
7081 69  
7082 41  
7083 18  
7084 77  
7085 26  
7086 48  
7087 67  
7088 95  
7089 47  
7090 67  
7091 79  
7092 80  
7093 25  
7094 94  
7095 92  
7096 39  
7097 44  
7098 7   
7099 76  
7100 25  
7101 23  
7102 59  
7103 62  
7104 81  
7105 56  
7106 36  
7107 37  
7108 70  
7109 8   
7110 79  
7111 5   
7112 65  
7113 88  
7114 86  
7115 55  
7116 18  
7117 22  
7118 5   
7119 45  
7120 17  
7121 74  
7122 26  
7123 90  
7124 35  
7125 68  
7126 96  
7127 25  
7128 3   
7129 28  
7130 63  
7131 56  
7132 9   
7133 47  
7134 11  
7135 1   
7136 12  
7137 90  
7138 92  
7139 12  
7140 76  
7141 88  
7142 57  
7143 4   
7144 93  
7145 24  
7146 96  
7147 23  
7148 39  
7149 47  
7150 18  
7151 14  
7152 67  
7153 18  
7154 54  
7155 48  
7156 21  
7157 47  
7158 44  
7159 33  
7160 14  
7161 83  
7162 47  
7163 45  
7164 46  
7165 62  
7166 25  
7167 92  
7168 12  
7169 28  
7170 52  
7171 32  
7172 78  
7173 59  
7174 72  
7175 77  
7176 45  
7177 9   
7178 90  
7179 65  
7180 11  
7181 92  
7182 16  
7183 22  
7184 55  
7185 66  
7186 93  
7187 82  
7188 12  
7189 60  
7190 50  
7191 87  
7192 40  
7193 90  
7194 4   
7195 55  
7196 18  
7197 92  
7198 53  
7199 36  
7200 22  
7201 51  
7202 8   
7203 75  
7204 72  
7205 87  
7206 17  
7207 100 
7208 1   
7209 55  
7210 98  
7211 25  
7212 77  
7213 60  
7214 80  
7215 47  
7216 56  
7217 90  
7218 29  
7219 11  
7220 10  
7221 19  
7222 99  
7223 55  
7224 90  
7225 32  
7226 74  
7227 93  
7228 58  
7229 52  
7230 22  
7231 80  
7232 19  
7233 40  
7234 38  
7235 35  
7236 55  
7237 19  
7238 100 
7239 88  
7240 23  
7241 35  
7242 32  
7243 2   
7244 20  
7245 80  
7246 83  
7247 62  
7248 83  
7249 30  
7250 48  
7251 93  
7252 97  
7253 29  
7254 90  
7255 60  
7256 86  
7257 62  
7258 100 
7259 35  
7260 95  
7261 15  
7262 36  
7263 13  
7264 67  
7265 67  
7266 74  
7267 3   
7268 96  
7269 55  
7270 85  
7271 6   
7272 35  
7273 66  
7274 45  
7275 31  
7276 99  
7277 66  
7278 99  
7279 11  
7280 69  
7281 93  
7282 18  
7283 18  
7284 98  
7285 30  
7286 39  
7287 78  
7288 86  
7289 99  
7290 84  
7291 46  
7292 91  
7293 32  
7294 37  
7295 73  
7296 38  
7297 25  
7298 31  
7299 10  
7300 100 
7301 31  
7302 36  
7303 84  
7304 92  
7305 28  
7306 29  
7307 80  
7308 5   
7309 95  
7310 54  
7311 70  
7312 78  
7313 93  
7314 27  
7315 49  
7316 11  
7317 42  
7318 55  
7319 30  
7320 41  
7321 79  
7322 78  
7323 20  
7324 15  
7325 91  
7326 87  
7327 34  
7328 64  
7329 37  
7330 29  
7331 53  
7332 22  
7333 68  
7334 50  
7335 1   
7336 11  
7337 87  
7338 76  
7339 9   
7340 96  
7341 91  
7342 2   
7343 8   
7344 1   
7345 29  
7346 95  
7347 77  
7348 27  
7349 33  
7350 78  
7351 92  
7352 19  
7353 39  
7354 90  
7355 38  
7356 13  
7357 83  
7358 32  
7359 40  
7360 100 
7361 98  
7362 56  
7363 2   
7364 83  
7365 16  
7366 100 
7367 37  
7368 56  
7369 80  
7370 96  
7371 98  
7372 48  
7373 53  
7374 60  
7375 18  
7376 25  
7377 65  
7378 40  
7379 82  
7380 34  
7381 85  
7382 88  
7383 22  
7384 18  
7385 72  
7386 17  
7387 4   
7388 16  
7389 51  
7390 60  
7391 65  
7392 48  
7393 25  
7394 82  
7395 29  
7396 51  
7397 52  
7398 10  
7399 43  
7400 97  
7401 53  
7402 3   
7403 44  
7404 6   
7405 42  
7406 17  
7407 25  
7408 90  
7409 59  
7410 52  
7411 16  
7412 35  
7413 46  
7414 52  
7415 60  
7416 98  
7417 13  
7418 38  
7419 54  
7420 48  
7421 64  
7422 63  
7423 60  
7424 38  
7425 78  
7426 70  
7427 86  
7428 38  
7429 86  
7430 19  
7431 36  
7432 4   
7433 37  
7434 2   
7435 65  
7436 2   
7437 24  
7438 70  
7439 82  
7440 24  
7441 22  
7442 29  
7443 10  
7444 9   
7445 96  
7446 92  
7447 74  
7448 37  
7449 56  
7450 12  
7451 27  
7452 87  
7453 36  
7454 97  
7455 72  
7456 23  
7457 5   
7458 14  
7459 14  
7460 88  
7461 62  
7462 43  
7463 58  
7464 49  
7465 32  
7466 24  
7467 41  
7468 90  
7469 89  
7470 66  
7471 97  
7472 44  
7473 30  
7474 12  
7475 4   
7476 24  
7477 34  
7478 97  
7479 6   
7480 22  
7481 67  
7482 98  
7483 76  
7484 93  
7485 80  
7486 77  
7487 21  
7488 88  
7489 87  
7490 80  
7491 29  
7492 9   
7493 67  
7494 66  
7495 42  
7496 60  
7497 46  
7498 48  
7499 84  
7500 56  
7501 62  
7502 77  
7503 15  
7504 45  
7505 25  
7506 56  
7507 70  
7508 97  
7509 88  
7510 86  
7511 78  
7512 4   
7513 74  
7514 39  
7515 69  
7516 96  
7517 21  
7518 50  
7519 78  
7520 5   
7521 31  
7522 72  
7523 60  
7524 29  
7525 88  
7526 77  
7527 61  
7528 26  
7529 63  
7530 49  
7531 40  
7532 83  
7533 53  
7534 73  
7535 82  
7536 99  
7537 92  
7538 39  
7539 36  
7540 28  
7541 83  
7542 43  
7543 57  
7544 12  
7545 91  
7546 56  
7547 62  
7548 77  
7549 72  
7550 85  
7551 7   
7552 98  
7553 77  
7554 7   
7555 1   
7556 11  
7557 66  
7558 36  
7559 63  
7560 68  
7561 28  
7562 12  
7563 92  
7564 18  
7565 99  
7566 21  
7567 98  
7568 61  
7569 26  
7570 1   
7571 11  
7572 93  
7573 53  
7574 17  
7575 15  
7576 91  
7577 56  
7578 6   
7579 69  
7580 45  
7581 66  
7582 39  
7583 63  
7584 6   
7585 36  
7586 29  
7587 100 
7588 5   
7589 49  
7590 94  
7591 86  
7592 71  
7593 10  
7594 48  
7595 71  
7596 28  
7597 5   
7598 68  
7599 2   
7600 89  
7601 28  
7602 32  
7603 57  
7604 65  
7605 36  
7606 29  
7607 50  
7608 3   
7609 83  
7610 24  
7611 19  
7612 64  
7613 13  
7614 7   
7615 84  
7616 87  
7617 4   
7618 14  
7619 46  
7620 3   
7621 96  
7622 33  
7623 11  
7624 26  
7625 68  
7626 70  
7627 13  
7628 48  
7629 36  
7630 22  
7631 20  
7632 2   
7633 32  
7634 26  
7635 77  
7636 10  
7637 52  
7638 63  
7639 69  
7640 58  
7641 98  
7642 33  
7643 2   
7644 33  
7645 21  
7646 18  
7647 93  
7648 93  
7649 90  
7650 99  
7651 47  
7652 26  
7653 99  
7654 60  
7655 25  
7656 5   
7657 40  
7658 15  
7659 16  
7660 99  
7661 26  
7662 36  
7663 57  
7664 64  
7665 55  
7666 97  
7667 40  
7668 43  
7669 87  
7670 43  
7671 48  
7672 53  
7673 55  
7674 45  
7675 73  
7676 77  
7677 90  
7678 55  
7679 64  
7680 93  
7681 23  
7682 99  
7683 48  
7684 26  
7685 97  
7686 30  
7687 98  
7688 45  
7689 73  
7690 35  
7691 50  
7692 40  
7693 25  
7694 62  
7695 12  
7696 57  
7697 84  
7698 98  
7699 62  
7700 83  
7701 70  
7702 38  
7703 68  
7704 93  
7705 25  
7706 21  
7707 39  
7708 8   
7709 9   
7710 89  
7711 52  
7712 68  
7713 78  
7714 72  
7715 18  
7716 18  
7717 56  
7718 83  
7719 3   
7720 69  
7721 87  
7722 24  
7723 32  
7724 47  
7725 80  
7726 25  
7727 71  
7728 40  
7729 13  
7730 1   
7731 7   
7732 33  
7733 91  
7734 90  
7735 54  
7736 100 
7737 29  
7738 78  
7739 69  
7740 68  
7741 81  
7742 65  
7743 81  
7744 8   
7745 62  
7746 56  
7747 98  
7748 58  
7749 70  
7750 63  
7751 88  
7752 20  
7753 92  
7754 47  
7755 65  
7756 49  
7757 43  
7758 48  
7759 30  
7760 100 
7761 12  
7762 72  
7763 35  
7764 65  
7765 66  
7766 64  
7767 43  
7768 58  
7769 80  
7770 1   
7771 18  
7772 52  
7773 73  
7774 4   
7775 8   
7776 83  
7777 16  
7778 17  
7779 55  
7780 100 
7781 98  
7782 69  
7783 76  
7784 39  
7785 97  
7786 100 
7787 94  
7788 46  
7789 4   
7790 73  
7791 9   
7792 97  
7793 53  
7794 75  
7795 2   
7796 91  
7797 80  
7798 10  
7799 77  
7800 46  
7801 28  
7802 13  
7803 19  
7804 5   
7805 86  
7806 28  
7807 88  
7808 28  
7809 13  
7810 4   
7811 41  
7812 69  
7813 36  
7814 45  
7815 8   
7816 40  
7817 71  
7818 99  
7819 47  
7820 24  
7821 90  
7822 21  
7823 19  
7824 63  
7825 81  
7826 3   
7827 62  
7828 11  
7829 31  
7830 63  
7831 63  
7832 15  
7833 32  
7834 37  
7835 32  
7836 48  
7837 60  
7838 38  
7839 77  
7840 33  
7841 17  
7842 80  
7843 60  
7844 23  
7845 69  
7846 30  
7847 68  
7848 55  
7849 52  
7850 84  
7851 35  
7852 100 
7853 94  
7854 24  
7855 68  
7856 68  
7857 20  
7858 50  
7859 60  
7860 78  
7861 69  
7862 84  
7863 94  
7864 34  
7865 83  
7866 29  
7867 12  
7868 63  
7869 50  
7870 17  
7871 61  
7872 88  
7873 92  
7874 74  
7875 58  
7876 100 
7877 19  
7878 87  
7879 87  
7880 57  
7881 95  
7882 5   
7883 9   
7884 5   
7885 86  
7886 15  
7887 96  
7888 17  
7889 72  
7890 61  
7891 65  
7892 29  
7893 64  
7894 83  
7895 25  
7896 86  
7897 14  
7898 84  
7899 34  
7900 55  
7901 60  
7902 70  
7903 99  
7904 55  
7905 96  
7906 27  
7907 91  
7908 18  
7909 16  
7910 14  
7911 1   
7912 35  
7913 9   
7914 14  
7915 61  
7916 35  
7917 25  
7918 55  
7919 3   
7920 89  
7921 17  
7922 28  
7923 74  
7924 94  
7925 71  
7926 2   
7927 95  
7928 6   
7929 62  
7930 45  
7931 25  
7932 8   
7933 55  
7934 9   
7935 25  
7936 72  
7937 77  
7938 87  
7939 74  
7940 37  
7941 48  
7942 77  
7943 96  
7944 97  
7945 53  
7946 7   
7947 67  
7948 57  
7949 99  
7950 1   
7951 98  
7952 10  
7953 91  
7954 44  
7955 78  
7956 64  
7957 97  
7958 70  
7959 1   
7960 9   
7961 42  
7962 53  
7963 52  
7964 1   
7965 100 
7966 62  
7967 69  
7968 60  
7969 99  
7970 33  
7971 34  
7972 34  
7973 87  
7974 33  
7975 80  
7976 47  
7977 86  
7978 100 
7979 69  
7980 84  
7981 3   
7982 48  
7983 89  
7984 14  
7985 5   
7986 77  
7987 65  
7988 61  
7989 73  
7990 21  
7991 83  
7992 20  
7993 4   
7994 89  
7995 76  
7996 82  
7997 72  
7998 80  
7999 27  
8000 80  
8001 44  
8002 51  
8003 59  
8004 43  
8005 90  
8006 94  
8007 29  
8008 60  
8009 10  
8010 90  
8011 38  
8012 19  
8013 73  
8014 94  
8015 56  
8016 96  
8017 9   
8018 49  
8019 53  
8020 92  
8021 30  
8022 34  
8023 80  
8024 11  
8025 12  
8026 98  
8027 57  
8028 55  
8029 100 
8030 8   
8031 20  
8032 89  
8033 56  
8034 31  
8035 63  
8036 80  
8037 54  
8038 20  
8039 44  
8040 19  
8041 49  
8042 14  
8043 91  
8044 85  
8045 38  
8046 31  
8047 80  
8048 50  
8049 36  
8050 52  
8051 99  
8052 78  
8053 99  
8054 66  
8055 27  
8056 60  
8057 77  
8058 27  
8059 57  
8060 53  
8061 18  
8062 70  
8063 50  
8064 32  
8065 53  
8066 61  
8067 42  
8068 69  
8069 56  
8070 57  
8071 6   
8072 48  
8073 43  
8074 3   
8075 51  
8076 48  
8077 41  
8078 7   
8079 69  
8080 58  
8081 100 
8082 30  
8083 59  
8084 95  
8085 65  
8086 16  
8087 40  
8088 48  
8089 74  
8090 42  
8091 23  
8092 23  
8093 25  
8094 34  
8095 21  
8096 62  
8097 35  
8098 20  
8099 76  
8100 1   
8101 87  
8102 16  
8103 74  
8104 45  
8105 66  
8106 67  
8107 29  
8108 15  
8109 69  
8110 39  
8111 1   
8112 63  
8113 73  
8114 85  
8115 49  
8116 74  
8117 59  
8118 78  
8119 50  
8120 91  
8121 7   
8122 97  
8123 57  
8124 50  
8125 50  
8126 21  
8127 44  
8128 43  
8129 84  
8130 53  
8131 12  
8132 66  
8133 44  
8134 39  
8135 10  
8136 55  
8137 41  
8138 89  
8139 21  
8140 34  
8141 63  
8142 58  
8143 100 
8144 86  
8145 66  
8146 54  
8147 69  
8148 22  
8149 12  
8150 68  
8151 50  
8152 49  
8153 34  
8154 56  
8155 46  
8156 31  
8157 33  
8158 20  
8159 43  
8160 1   
8161 49  
8162 20  
8163 51  
8164 39  
8165 52  
8166 63  
8167 22  
8168 35  
8169 11  
8170 65  
8171 75  
8172 28  
8173 48  
8174 95  
8175 47  
8176 77  
8177 80  
8178 66  
8179 18  
8180 25  
8181 87  
8182 26  
8183 11  
8184 78  
8185 97  
8186 42  
8187 47  
8188 44  
8189 56  
8190 82  
8191 54  
8192 22  
8193 86  
8194 90  
8195 24  
8196 42  
8197 7   
8198 4   
8199 55  
8200 76  
8201 39  
8202 38  
8203 32  
8204 11  
8205 21  
8206 7   
8207 39  
8208 86  
8209 49  
8210 67  
8211 42  
8212 88  
8213 94  
8214 83  
8215 48  
8216 96  
8217 56  
8218 53  
8219 35  
8220 2   
8221 91  
8222 92  
8223 25  
8224 37  
8225 74  
8226 36  
8227 81  
8228 97  
8229 24  
8230 21  
8231 36  
8232 45  
8233 61  
8234 15  
8235 62  
8236 49  
8237 50  
8238 15  
8239 2   
8240 29  
8241 77  
8242 53  
8243 65  
8244 64  
8245 99  
8246 67  
8247 35  
8248 39  
8249 13  
8250 39  
8251 65  
8252 66  
8253 72  
8254 85  
8255 98  
8256 37  
8257 37  
8258 43  
8259 4   
8260 46  
8261 75  
8262 36  
8263 78  
8264 78  
8265 38  
8266 16  
8267 65  
8268 64  
8269 97  
8270 19  
8271 49  
8272 38  
8273 31  
8274 26  
8275 77  
8276 27  
8277 75  
8278 74  
8279 25  
8280 7   
8281 14  
8282 11  
8283 83  
8284 68  
8285 39  
8286 26  
8287 39  
8288 27  
8289 21  
8290 51  
8291 69  
8292 74  
8293 90  
8294 2   
8295 77  
8296 40  
8297 62  
8298 31  
8299 65  
8300 70  
8301 2   
8302 62  
8303 53  
8304 86  
8305 3   
8306 72  
8307 9   
8308 91  
8309 49  
8310 54  
8311 50  
8312 97  
8313 62  
8314 33  
8315 25  
8316 68  
8317 47  
8318 38  
8319 46  
8320 51  
8321 100 
8322 69  
8323 93  
8324 20  
8325 20  
8326 74  
8327 62  
8328 35  
8329 94  
8330 91  
8331 24  
8332 68  
8333 67  
8334 16  
8335 60  
8336 76  
8337 44  
8338 36  
8339 19  
8340 88  
8341 57  
8342 15  
8343 74  
8344 51  
8345 82  
8346 35  
8347 7   
8348 52  
8349 78  
8350 55  
8351 2   
8352 32  
8353 7   
8354 90  
8355 80  
8356 2   
8357 88  
8358 7   
8359 62  
8360 43  
8361 52  
8362 34  
8363 45  
8364 75  
8365 11  
8366 42  
8367 6   
8368 22  
8369 44  
8370 36  
8371 85  
8372 34  
8373 4   
8374 18  
8375 4   
8376 47  
8377 48  
8378 32  
8379 46  
8380 45  
8381 31  
8382 66  
8383 97  
8384 66  
8385 77  
8386 17  
8387 80  
8388 71  
8389 6   
8390 51  
8391 52  
8392 72  
8393 74  
8394 97  
8395 13  
8396 33  
8397 22  
8398 53  
8399 52  
8400 61  
8401 41  
8402 35  
8403 97  
8404 72  
8405 51  
8406 83  
8407 31  
8408 62  
8409 86  
8410 74  
8411 53  
8412 69  
8413 69  
8414 54  
8415 97  
8416 51  
8417 36  
8418 6   
8419 16  
8420 43  
8421 90  
8422 4   
8423 50  
8424 68  
8425 36  
8426 81  
8427 91  
8428 35  
8429 10  
8430 100 
8431 83  
8432 26  
8433 97  
8434 72  
8435 73  
8436 54  
8437 10  
8438 76  
8439 44  
8440 81  
8441 4   
8442 41  
8443 3   
8444 42  
8445 73  
8446 81  
8447 54  
8448 85  
8449 59  
8450 81  
8451 55  
8452 40  
8453 90  
8454 44  
8455 78  
8456 79  
8457 16  
8458 96  
8459 45  
8460 22  
8461 75  
8462 87  
8463 71  
8464 16  
8465 64  
8466 41  
8467 25  
8468 55  
8469 60  
8470 76  
8471 70  
8472 47  
8473 46  
8474 37  
8475 43  
8476 8   
8477 90  
8478 9   
8479 69  
8480 69  
8481 13  
8482 27  
8483 73  
8484 72  
8485 18  
8486 93  
8487 100 
8488 10  
8489 11  
8490 2   
8491 20  
8492 48  
8493 61  
8494 84  
8495 58  
8496 74  
8497 95  
8498 30  
8499 70  
8500 65  
8501 26  
8502 65  
8503 94  
8504 17  
8505 71  
8506 13  
8507 25  
8508 59  
8509 28  
8510 32  
8511 54  
8512 64  
8513 7   
8514 59  
8515 42  
8516 62  
8517 23  
8518 22  
8519 14  
8520 19  
8521 88  
8522 40  
8523 5   
8524 49  
8525 69  
8526 31  
8527 70  
8528 89  
8529 72  
8530 25  
8531 10  
8532 37  
8533 9   
8534 17  
8535 19  
8536 73  
8537 31  
8538 78  
8539 29  
8540 75  
8541 24  
8542 92  
8543 75  
8544 4   
8545 93  
8546 40  
8547 89  
8548 82  
8549 14  
8550 77  
8551 81  
8552 17  
8553 91  
8554 13  
8555 70  
8556 72  
8557 72  
8558 60  
8559 3   
8560 81  
8561 28  
8562 57  
8563 53  
8564 13  
8565 40  
8566 92  
8567 42  
8568 94  
8569 87  
8570 31  
8571 24  
8572 51  
8573 48  
8574 28  
8575 18  
8576 11  
8577 1   
8578 74  
8579 21  
8580 48  
8581 93  
8582 77  
8583 4   
8584 67  
8585 87  
8586 3   
8587 61  
8588 34  
8589 87  
8590 17  
8591 62  
8592 19  
8593 35  
8594 30  
8595 79  
8596 60  
8597 6   
8598 67  
8599 21  
8600 52  
8601 52  
8602 22  
8603 33  
8604 100 
8605 62  
8606 71  
8607 56  
8608 50  
8609 89  
8610 67  
8611 3   
8612 8   
8613 95  
8614 59  
8615 69  
8616 14  
8617 23  
8618 52  
8619 83  
8620 70  
8621 45  
8622 15  
8623 45  
8624 39  
8625 8   
8626 82  
8627 84  
8628 7   
8629 83  
8630 58  
8631 50  
8632 13  
8633 10  
8634 76  
8635 32  
8636 73  
8637 88  
8638 65  
8639 82  
8640 41  
8641 64  
8642 40  
8643 93  
8644 68  
8645 79  
8646 22  
8647 38  
8648 67  
8649 15  
8650 92  
8651 75  
8652 86  
8653 27  
8654 5   
8655 40  
8656 34  
8657 91  
8658 66  
8659 96  
8660 30  
8661 46  
8662 81  
8663 12  
8664 52  
8665 56  
8666 30  
8667 48  
8668 84  
8669 15  
8670 53  
8671 93  
8672 68  
8673 45  
8674 36  
8675 65  
8676 19  
8677 55  
8678 47  
8679 18  
8680 84  
8681 73  
8682 80  
8683 93  
8684 76  
8685 4   
8686 69  
8687 10  
8688 47  
8689 7   
8690 34  
8691 57  
8692 86  
8693 1   
8694 14  
8695 88  
8696 79  
8697 15  
8698 62  
8699 8   
8700 91  
8701 21  
8702 96  
8703 64  
8704 34  
8705 68  
8706 90  
8707 12  
8708 8   
8709 45  
8710 97  
8711 3   
8712 57  
8713 84  
8714 31  
8715 53  
8716 71  
8717 53  
8718 65  
8719 57  
8720 33  
8721 32  
8722 82  
8723 33  
8724 93  
8725 13  
8726 80  
8727 95  
8728 2   
8729 31  
8730 4   
8731 10  
8732 73  
8733 43  
8734 34  
8735 27  
8736 81  
8737 56  
8738 8   
8739 71  
8740 20  
8741 37  
8742 4   
8743 17  
8744 7   
8745 66  
8746 26  
8747 44  
8748 24  
8749 37  
8750 79  
8751 52  
8752 16  
8753 98  
8754 85  
8755 65  
8756 66  
8757 42  
8758 35  
8759 81  
8760 21  
8761 10  
8762 88  
8763 76  
8764 24  
8765 65  
8766 82  
8767 47  
8768 85  
8769 99  
8770 92  
8771 42  
8772 4   
8773 28  
8774 65  
8775 99  
8776 15  
8777 23  
8778 67  
8779 63  
8780 18  
8781 100 
8782 21  
8783 59  
8784 81  
8785 58  
8786 44  
8787 4   
8788 88  
8789 9   
8790 2   
8791 67  
8792 5   
8793 87  
8794 35  
8795 77  
8796 41  
8797 5   
8798 20  
8799 97  
8800 69  
8801 7   
8802 31  
8803 39  
8804 8   
8805 12  
8806 71  
8807 58  
8808 33  
8809 39  
8810 53  
8811 93  
8812 54  
8813 8   
8814 33  
8815 84  
8816 95  
8817 84  
8818 21  
8819 80  
8820 65  
8821 3   
8822 34  
8823 62  
8824 4   
8825 98  
8826 32  
8827 38  
8828 20  
8829 33  
8830 1   
8831 51  
8832 63  
8833 34  
8834 20  
8835 71  
8836 26  
8837 100 
8838 66  
8839 96  
8840 56  
8841 60  
8842 79  
8843 26  
8844 9   
8845 7   
8846 39  
8847 98  
8848 53  
8849 62  
8850 83  
8851 15  
8852 2   
8853 81  
8854 37  
8855 32  
8856 58  
8857 83  
8858 7   
8859 73  
8860 24  
8861 3   
8862 36  
8863 25  
8864 95  
8865 30  
8866 25  
8867 81  
8868 23  
8869 63  
8870 21  
8871 82  
8872 14  
8873 93  
8874 38  
8875 32  
8876 93  
8877 78  
8878 21  
8879 68  
8880 42  
8881 15  
8882 12  
8883 43  
8884 14  
8885 80  
8886 60  
8887 34  
8888 75  
8889 71  
8890 72  
8891 44  
8892 90  
8893 6   
8894 48  
8895 57  
8896 72  
8897 42  
8898 58  
8899 6   
8900 17  
8901 71  
8902 79  
8903 59  
8904 14  
8905 72  
8906 47  
8907 52  
8908 19  
8909 61  
8910 11  
8911 19  
8912 66  
8913 64  
8914 85  
8915 47  
8916 39  
8917 53  
8918 35  
8919 55  
8920 46  
8921 42  
8922 46  
8923 69  
8924 59  
8925 89  
8926 24  
8927 53  
8928 91  
8929 92  
8930 99  
8931 55  
8932 64  
8933 33  
8934 76  
8935 47  
8936 86  
8937 57  
8938 63  
8939 84  
8940 94  
8941 84  
8942 92  
8943 19  
8944 57  
8945 7   
8946 39  
8947 93  
8948 25  
8949 38  
8950 16  
8951 75  
8952 66  
8953 3   
8954 9   
8955 20  
8956 77  
8957 99  
8958 47  
8959 32  
8960 52  
8961 6   
8962 30  
8963 71  
8964 45  
8965 5   
8966 67  
8967 43  
8968 88  
8969 12  
8970 3   
8971 66  
8972 46  
8973 84  
8974 96  
8975 61  
8976 72  
8977 14  
8978 59  
8979 80  
8980 65  
8981 81  
8982 68  
8983 92  
8984 60  
8985 50  
8986 11  
8987 62  
8988 98  
8989 46  
8990 64  
8991 58  
8992 15  
8993 66  
8994 46  
8995 56  
8996 48  
8997 46  
8998 14  
8999 30  
9000 71  
9001 66  
9002 86  
9003 90  
9004 84  
9005 40  
9006 20  
9007 44  
9008 38  
9009 62  
9010 5   
9011 6   
9012 39  
9013 64  
9014 39  
9015 26  
9016 16  
9017 10  
9018 84  
9019 13  
9020 89  
9021 42  
9022 8   
9023 76  
9024 37  
9025 83  
9026 81  
9027 35  
9028 16  
9029 2   
9030 41  
9031 56  
9032 39  
9033 72  
9034 15  
9035 49  
9036 55  
9037 2   
9038 73  
9039 15  
9040 19  
9041 33  
9042 16  
9043 91  
9044 63  
9045 86  
9046 63  
9047 62  
9048 60  
9049 4   
9050 93  
9051 16  
9052 6   
9053 14  
9054 85  
9055 29  
9056 34  
9057 53  
9058 86  
9059 11  
9060 67  
9061 37  
9062 91  
9063 71  
9064 2   
9065 1   
9066 77  
9067 4   
9068 88  
9069 38  
9070 37  
9071 14  
9072 66  
9073 60  
9074 22  
9075 75  
9076 4   
9077 46  
9078 10  
9079 76  
9080 9   
9081 33  
9082 24  
9083 60  
9084 88  
9085 2   
9086 36  
9087 89  
9088 9   
9089 8   
9090 51  
9091 33  
9092 30  
9093 80  
9094 74  
9095 65  
9096 24  
9097 17  
9098 54  
9099 49  
9100 34  
9101 75  
9102 97  
9103 23  
9104 28  
9105 55  
9106 82  
9107 50  
9108 86  
9109 29  
9110 36  
9111 98  
9112 94  
9113 5   
9114 11  
9115 92  
9116 96  
9117 45  
9118 80  
9119 44  
9120 40  
9121 67  
9122 38  
9123 9   
9124 38  
9125 43  
9126 71  
9127 8   
9128 70  
9129 100 
9130 45  
9131 86  
9132 83  
9133 31  
9134 19  
9135 100 
9136 8   
9137 95  
9138 41  
9139 37  
9140 94  
9141 5   
9142 21  
9143 49  
9144 42  
9145 85  
9146 32  
9147 72  
9148 68  
9149 90  
9150 88  
9151 92  
9152 26  
9153 61  
9154 4   
9155 15  
9156 80  
9157 97  
9158 59  
9159 85  
9160 82  
9161 74  
9162 88  
9163 20  
9164 46  
9165 91  
9166 7   
9167 98  
9168 46  
9169 28  
9170 25  
9171 24  
9172 7   
9173 74  
9174 29  
9175 51  
9176 75  
9177 99  
9178 4   
9179 73  
9180 11  
9181 4   
9182 58  
9183 6   
9184 70  
9185 75  
9186 15  
9187 46  
9188 58  
9189 68  
9190 91  
9191 43  
9192 39  
9193 64  
9194 37  
9195 32  
9196 26  
9197 25  
9198 52  
9199 2   
9200 91  
9201 83  
9202 66  
9203 69  
9204 95  
9205 24  
9206 15  
9207 27  
9208 49  
9209 85  
9210 19  
9211 16  
9212 90  
9213 36  
9214 4   
9215 1   
9216 5   
9217 52  
9218 97  
9219 89  
9220 63  
9221 1   
9222 31  
9223 8   
9224 21  
9225 59  
9226 20  
9227 15  
9228 70  
9229 79  
9230 46  
9231 48  
9232 77  
9233 67  
9234 15  
9235 53  
9236 47  
9237 19  
9238 54  
9239 60  
9240 83  
9241 80  
9242 56  
9243 96  
9244 53  
9245 41  
9246 75  
9247 64  
9248 29  
9249 89  
9250 45  
9251 87  
9252 7   
9253 16  
9254 70  
9255 7   
9256 72  
9257 11  
9258 12  
9259 57  
9260 63  
9261 86  
9262 23  
9263 25  
9264 16  
9265 3   
9266 63  
9267 12  
9268 4   
9269 63  
9270 71  
9271 66  
9272 43  
9273 9   
9274 65  
9275 26  
9276 14  
9277 90  
9278 11  
9279 100 
9280 3   
9281 58  
9282 87  
9283 1   
9284 56  
9285 1   
9286 68  
9287 27  
9288 78  
9289 95  
9290 35  
9291 53  
9292 11  
9293 53  
9294 21  
9295 78  
9296 5   
9297 98  
9298 80  
9299 73  
9300 67  
9301 43  
9302 61  
9303 15  
9304 50  
9305 93  
9306 70  
9307 47  
9308 26  
9309 34  
9310 51  
9311 44  
9312 98  
9313 7   
9314 48  
9315 35  
9316 66  
9317 28  
9318 48  
9319 23  
9320 12  
9321 85  
9322 76  
9323 31  
9324 70  
9325 78  
9326 44  
9327 86  
9328 19  
9329 6   
9330 93  
9331 80  
9332 49  
9333 38  
9334 30  
9335 99  
9336 49  
9337 58  
9338 8   
9339 87  
9340 24  
9341 27  
9342 27  
9343 100 
9344 59  
9345 79  
9346 53  
9347 81  
9348 37  
9349 9   
9350 71  
9351 87  
9352 8   
9353 26  
9354 58  
9355 79  
9356 57  
9357 66  
9358 29  
9359 67  
9360 91  
9361 95  
9362 15  
9363 25  
9364 62  
9365 23  
9366 87  
9367 97  
9368 46  
9369 18  
9370 71  
9371 61  
9372 30  
9373 48  
9374 11  
9375 79  
9376 65  
9377 81  
9378 57  
9379 85  
9380 44  
9381 38  
9382 86  
9383 84  
9384 43  
9385 25  
9386 99  
9387 16  
9388 35  
9389 15  
9390 2   
9391 6   
9392 64  
9393 83  
9394 64  
9395 31  
9396 95  
9397 22  
9398 27  
9399 31  
9400 56  
9401 74  
9402 86  
9403 40  
9404 69  
9405 25  
9406 15  
9407 77  
9408 69  
9409 100 
9410 49  
9411 59  
9412 75  
9413 12  
9414 40  
9415 99  
9416 89  
9417 57  
9418 69  
9419 81  
9420 65  
9421 92  
9422 59  
9423 72  
9424 65  
9425 29  
9426 56  
9427 97  
9428 75  
9429 89  
9430 44  
9431 6   
9432 94  
9433 31  
9434 63  
9435 14  
9436 56  
9437 93  
9438 54  
9439 86  
9440 97  
9441 55  
9442 43  
9443 52  
9444 46  
9445 77  
9446 83  
9447 63  
9448 78  
9449 18  
9450 12  
9451 42  
9452 14  
9453 89  
9454 25  
9455 46  
9456 73  
9457 58  
9458 82  
9459 39  
9460 72  
9461 63  
9462 68  
9463 26  
9464 80  
9465 91  
9466 46  
9467 82  
9468 26  
9469 40  
9470 83  
9471 19  
9472 97  
9473 58  
9474 73  
9475 75  
9476 34  
9477 82  
9478 16  
9479 5   
9480 9   
9481 94  
9482 40  
9483 7   
9484 43  
9485 70  
9486 59  
9487 50  
9488 44  
9489 15  
9490 6   
9491 52  
9492 71  
9493 37  
9494 28  
9495 46  
9496 13  
9497 6   
9498 1   
9499 77  
9500 33  
9501 35  
9502 41  
9503 71  
9504 66  
9505 63  
9506 80  
9507 88  
9508 41  
9509 54  
9510 90  
9511 5   
9512 42  
9513 55  
9514 1   
9515 11  
9516 96  
9517 51  
9518 77  
9519 2   
9520 86  
9521 98  
9522 66  
9523 59  
9524 47  
9525 82  
9526 53  
9527 27  
9528 53  
9529 82  
9530 26  
9531 72  
9532 5   
9533 96  
9534 12  
9535 70  
9536 90  
9537 33  
9538 98  
9539 35  
9540 95  
9541 89  
9542 28  
9543 32  
9544 4   
9545 89  
9546 78  
9547 66  
9548 48  
9549 10  
9550 62  
9551 99  
9552 84  
9553 85  
9554 17  
9555 78  
9556 17  
9557 22  
9558 12  
9559 46  
9560 43  
9561 41  
9562 60  
9563 15  
9564 62  
9565 23  
9566 27  
9567 50  
9568 77  
9569 30  
9570 91  
9571 94  
9572 92  
9573 41  
9574 86  
9575 9   
9576 75  
9577 34  
9578 30  
9579 27  
9580 81  
9581 24  
9582 67  
9583 26  
9584 54  
9585 96  
9586 8   
9587 15  
9588 51  
9589 12  
9590 74  
9591 97  
9592 32  
9593 46  
9594 37  
9595 3   
9596 50  
9597 73  
9598 91  
9599 50  
9600 49  
9601 61  
9602 74  
9603 70  
9604 74  
9605 12  
9606 22  
9607 82  
9608 6   
9609 93  
9610 3   
9611 59  
9612 86  
9613 99  
9614 67  
9615 27  
9616 50  
9617 34  
9618 39  
9619 17  
9620 83  
9621 43  
9622 1   
9623 56  
9624 14  
9625 25  
9626 44  
9627 51  
9628 54  
9629 6   
9630 14  
9631 64  
9632 84  
9633 69  
9634 81  
9635 60  
9636 41  
9637 34  
9638 87  
9639 82  
9640 4   
9641 72  
9642 26  
9643 9   
9644 59  
9645 21  
9646 14  
9647 46  
9648 95  
9649 78  
9650 33  
9651 31  
9652 2   
9653 6   
9654 14  
9655 14  
9656 74  
9657 52  
9658 89  
9659 17  
9660 63  
9661 74  
9662 74  
9663 87  
9664 90  
9665 52  
9666 86  
9667 73  
9668 9   
9669 90  
9670 92  
9671 58  
9672 15  
9673 48  
9674 23  
9675 29  
9676 42  
9677 74  
9678 27  
9679 97  
9680 95  
9681 58  
9682 85  
9683 49  
9684 70  
9685 70  
9686 52  
9687 93  
9688 41  
9689 46  
9690 84  
9691 28  
9692 73  
9693 85  
9694 30  
9695 16  
9696 81  
9697 97  
9698 86  
9699 52  
9700 82  
9701 44  
9702 50  
9703 89  
9704 21  
9705 70  
9706 22  
9707 49  
9708 49  
9709 33  
9710 65  
9711 66  
9712 94  
9713 14  
9714 31  
9715 46  
9716 3   
9717 18  
9718 24  
9719 5   
9720 77  
9721 19  
9722 3   
9723 69  
9724 88  
9725 15  
9726 78  
9727 91  
9728 53  
9729 84  
9730 55  
9731 31  
9732 74  
9733 5   
9734 90  
9735 46  
9736 8   
9737 52  
9738 23  
9739 52  
9740 77  
9741 58  
9742 82  
9743 96  
9744 81  
9745 45  
9746 73  
9747 60  
9748 1   
9749 57  
9750 56  
9751 9   
9752 17  
9753 42  
9754 68  
9755 29  
9756 79  
9757 96  
9758 46  
9759 7   
9760 63  
9761 87  
9762 100 
9763 27  
9764 60  
9765 28  
9766 81  
9767 61  
9768 50  
9769 69  
9770 34  
9771 40  
9772 45  
9773 19  
9774 77  
9775 66  
9776 80  
9777 92  
9778 100 
9779 61  
9780 41  
9781 81  
9782 65  
9783 11  
9784 91  
9785 25  
9786 14  
9787 66  
9788 89  
9789 18  
9790 78  
9791 1   
9792 29  
9793 22  
9794 87  
9795 97  
9796 64  
9797 76  
9798 69  
9799 82  
9800 34  
9801 39  
9802 19  
9803 92  
9804 34  
9805 80  
9806 25  
9807 31  
9808 84  
9809 37  
9810 66  
9811 34  
9812 6   
9813 86  
9814 79  
9815 11  
9816 11  
9817 56  
9818 31  
9819 47  
9820 73  
9821 27  
9822 8   
9823 37  
9824 78  
9825 25  
9826 54  
9827 78  
9828 13  
9829 97  
9830 35  
9831 85  
9832 46  
9833 41  
9834 68  
9835 19  
9836 73  
9837 2   
9838 90  
9839 2   
9840 70  
9841 19  
9842 77  
9843 99  
9844 54  
9845 24  
9846 77  
9847 49  
9848 95  
9849 16  
9850 67  
9851 41  
9852 20  
9853 68  
9854 64  
9855 14  
9856 11  
9857 88  
9858 37  
9859 26  
9860 90  
9861 93  
9862 82  
9863 17  
9864 98  
9865 99  
9866 13  
9867 76  
9868 94  
9869 68  
9870 44  
9871 99  
9872 12  
9873 68  
9874 51  
9875 54  
9876 24  
9877 62  
9878 100 
9879 31  
9880 29  
9881 14  
9882 11  
9883 100 
9884 34  
9885 53  
9886 38  
9887 76  
9888 44  
9889 26  
9890 58  
9891 1   
9892 1   
9893 96  
9894 8   
9895 86  
9896 66  
9897 47  
9898 83  
9899 34  
9900 17  
9901 69  
9902 19  
9903 67  
9904 84  
9905 42  
9906 42  
9907 86  
9908 45  
9909 80  
9910 29  
9911 41  
9912 94  
9913 100 
9914 30  
9915 66  
9916 41  
9917 34  
9918 7   
9919 64  
9920 37  
9921 84  
9922 35  
9923 62  
9924 59  
9925 87  
9926 97  
9927 32  
9928 15  
9929 77  
9930 84  
9931 28  
9932 79  
9933 36  
9934 88  
9935 16  
9936 81  
9937 62  
9938 41  
9939 79  
9940 19  
9941 69  
9942 1   
9943 59  
9944 36  
9945 18  
9946 46  
9947 66  
9948 56  
9949 15  
9950 14  
9951 17  
9952 76  
9953 100 
9954 3   
9955 85  
9956 96  
9957 48  
9958 87  
9959 83  
9960 73  
9961 25  
9962 91  
9963 23  
9964 58  
9965 61  
9966 52  
9967 11  
9968 97  
9969 7   
9970 70  
9971 71  
9972 92  
9973 65  
9974 58  
9975 26  
9976 41  
9977 10  
9978 80  
9979 16  
9980 52  
9981 78  
9982 14  
9983 84  
9984 62  
9985 64  
9986 28  
9987 85  
9988 15  
9989 72  
9990 94  
9991 87  
9992 77  
9993 26  
9994 30  
9995 57  
9996 23  
9997 9   
9998 2   
9999 16  
10000 91  
10001 1   
DEPOT_SECTION
1
-1
EOF
