NAME : XML10000_2153_01
COMMENT : Generated as the XML100 dataset from the CVRPLIB
TYPE : CVRP
DIMENSION : 10001
EDGE_WEIGHT_TYPE : EUC_2D
CAPACITY : 608
NODE_COORD_SECTION
1    5000 5000
2    2375 8590
3    7093 6671
4    8535 6780
5    2846 9513
6    6520 5968
7    6403 7262
8    820  2109
9    4993 1701
10   8443 8169
11   7195 2748
12   4990 9773
13   7401 1723
14   4977 2375
15   3737 3125
16   9055 6848
17   8724 8174
18   8997 7330
19   6407 8648
20   6099 5055
21   3273 9824
22   3125 8565
23   2792 1250
24   5396 6078
25   1385 5084
26   8711 5465
27   9664 3088
28   5342 2122
29   1530 711 
30   9417 1912
31   8661 1838
32   5913 4989
33   7627 8837
34   3472 2788
35   2724 8018
36   5601 8048
37   833  8667
38   9544 9226
39   3338 6389
40   8225 147 
41   4873 9547
42   2259 9537
43   8647 4040
44   6542 2045
45   9150 7532
46   224  6774
47   7527 4032
48   4778 2375
49   847  9055
50   6878 840 
51   8441 7673
52   1094 761 
53   2439 6544
54   8321 9889
55   3436 3510
56   5964 2838
57   9182 2657
58   7843 6978
59   3229 6303
60   8326 4341
61   5000 7519
62   165  3040
63   7548 5179
64   6605 3626
65   794  5103
66   4223 8051
67   2622 3316
68   4652 9061
69   3392 998 
70   8778 7732
71   6343 2783
72   184  8908
73   5656 8545
74   539  9468
75   9054 5176
76   1438 1243
77   3649 7034
78   9261 9081
79   8862 6184
80   7031 2563
81   6716 5569
82   2517 3888
83   2331 4616
84   8442 6288
85   482  4869
86   1874 1684
87   7764 667 
88   8820 8024
89   810  5926
90   9634 5899
91   302  4187
92   6584 1027
93   473  3547
94   5747 1612
95   5497 2849
96   4252 4762
97   6171 841 
98   9479 6018
99   8114 5453
100  3627 7153
101  9393 8700
102  7005 9651
103  146  5893
104  3292 9500
105  1906 8388
106  4370 4017
107  1785 7610
108  8028 7234
109  1637 9434
110  2286 4023
111  4642 7408
112  8381 4455
113  3019 8158
114  208  6080
115  662  7591
116  4946 7410
117  591  3091
118  45   3683
119  5645 9870
120  4051 6085
121  6007 9824
122  4090 9743
123  4461 9528
124  1995 9886
125  1145 4184
126  222  2859
127  9010 6162
128  6569 5280
129  2342 5055
130  6421 1544
131  192  2769
132  9640 787 
133  3479 6956
134  2795 8358
135  1343 7718
136  4869 1381
137  7889 2580
138  2472 3732
139  7112 2292
140  5868 1694
141  5516 6411
142  7054 6382
143  3958 8486
144  3874 8689
145  7993 5354
146  5946 1240
147  8583 7150
148  1457 7401
149  6925 2371
150  7125 5407
151  3702 6504
152  4904 9095
153  1446 5959
154  4587 9186
155  2509 1959
156  9174 3125
157  4041 3041
158  3538 1378
159  577  8881
160  7252 395 
161  4894 5238
162  1878 4423
163  4708 6773
164  4970 9879
165  7033 2928
166  874  3761
167  4543 7593
168  5291 2622
169  3534 8836
170  617  3496
171  8334 8178
172  6880 9132
173  5457 8098
174  3741 5665
175  2919 7664
176  3846 1368
177  2138 5804
178  4342 725 
179  811  9502
180  626  5720
181  1148 4021
182  7768 5187
183  8312 7265
184  7726 8119
185  5375 6891
186  8494 6482
187  2550 7054
188  6944 9990
189  586  9240
190  9127 6335
191  1728 9513
192  5193 8805
193  6511 6864
194  8609 4673
195  5046 8149
196  1204 461 
197  7952 2783
198  7898 7071
199  9351 5541
200  3954 8838
201  5308 1998
202  4732 5652
203  4388 3765
204  3928 7734
205  8337 8176
206  2544 7630
207  2265 5859
208  7610 7581
209  9186 5982
210  8060 4674
211  9348 3960
212  3291 7400
213  2118 7083
214  2564 4581
215  8541 6687
216  5897 9353
217  7972 2042
218  9147 5802
219  8465 118 
220  6949 9500
221  9722 262 
222  1898 1027
223  4631 9234
224  6759 3220
225  53   7546
226  5897 4335
227  9447 7609
228  9921 4581
229  4101 9242
230  2957 5108
231  5404 8076
232  7126 9951
233  7812 5052
234  5285 7856
235  6648 8379
236  8707 9461
237  4295 7123
238  8437 6916
239  2716 2612
240  4213 4138
241  6861 8391
242  813  3371
243  3008 9441
244  5130 5151
245  7484 9419
246  288  3886
247  465  2753
248  5484 7571
249  9005 2205
250  5431 1900
251  1935 1263
252  1834 1218
253  7740 9579
254  7352 3749
255  7990 3056
256  8066 5888
257  8256 2443
258  7802 7144
259  5252 4099
260  1837 2314
261  8153 1578
262  4566 6905
263  2778 1557
264  6152 8333
265  6910 6229
266  8799 1107
267  6570 5613
268  8121 7576
269  6759 6779
270  6546 1178
271  6431 1   
272  2455 8403
273  4477 8616
274  6205 9619
275  4248 815 
276  4141 7600
277  9602 4953
278  4670 5310
279  7160 426 
280  262  4169
281  2340 6153
282  5121 8886
283  1813 4352
284  8457 4061
285  4455 438 
286  7922 7532
287  4769 9751
288  4866 8919
289  6005 3147
290  9268 3077
291  118  3644
292  8646 2725
293  8467 2546
294  1153 3308
295  2768 2180
296  6535 9197
297  5334 5892
298  5922 4588
299  386  7256
300  7439 2067
301  3696 7667
302  3190 8981
303  9007 8771
304  4316 28  
305  1670 1141
306  3237 2579
307  7927 4265
308  8653 2578
309  1911 751 
310  8324 3574
311  6379 3416
312  6257 5157
313  4930 7603
314  8223 1384
315  6629 784 
316  4028 4157
317  982  4433
318  4594 444 
319  2844 2285
320  1192 7942
321  5414 7079
322  5405 9416
323  799  2355
324  566  7770
325  1222 4490
326  6026 8018
327  2944 6603
328  8919 6165
329  7933 611 
330  1657 6536
331  3262 82  
332  9058 3482
333  4521 5312
334  6180 9350
335  9368 4327
336  2956 7968
337  7824 1348
338  8277 8865
339  6912 4878
340  3083 9313
341  6608 1105
342  9371 9236
343  6543 825 
344  4795 752 
345  4477 2529
346  2526 8996
347  7624 5584
348  1161 2918
349  8664 4415
350  8087 5316
351  470  438 
352  182  8987
353  5714 1924
354  1187 7806
355  7143 4729
356  1436 9686
357  7436 8753
358  5433 5332
359  4016 7245
360  3751 9338
361  6786 7346
362  1235 8016
363  2279 2267
364  1027 1399
365  8472 9186
366  5632 4778
367  1886 3769
368  4371 3764
369  7143 7700
370  5841 1833
371  1386 6308
372  2836 5493
373  9812 4639
374  2946 2772
375  5560 5123
376  3032 5932
377  5374 8926
378  8168 6449
379  8274 2669
380  7120 5246
381  1104 2115
382  6526 8503
383  4787 2094
384  8010 3282
385  8838 5142
386  4281 5973
387  8298 8182
388  8597 1880
389  8079 5553
390  4721 7570
391  4422 7411
392  3034 3607
393  9647 4053
394  3229 426 
395  9051 6477
396  4224 7787
397  8595 7744
398  1961 9766
399  2108 819 
400  2528 5902
401  5493 8988
402  2072 5136
403  4512 5004
404  2129 2005
405  297  805 
406  4064 8264
407  5978 856 
408  4525 9879
409  1571 2198
410  3129 57  
411  9151 9210
412  9639 5892
413  675  8850
414  4817 8515
415  8061 8327
416  5889 6455
417  443  3250
418  4692 7487
419  4314 1873
420  8885 843 
421  9808 6482
422  1406 7457
423  5646 8108
424  1686 4850
425  1790 5229
426  4211 8606
427  1467 1537
428  9091 3990
429  3989 9757
430  2805 6141
431  3218 6692
432  7259 1808
433  2104 8494
434  9711 806 
435  1844 2248
436  8578 3138
437  3456 6270
438  2472 2107
439  1807 6579
440  9540 9533
441  9358 9564
442  404  4663
443  3436 5268
444  8942 8991
445  4855 9669
446  1620 3819
447  4569 7244
448  8094 9930
449  976  7509
450  6103 9690
451  3501 6568
452  6698 1794
453  3517 4945
454  3888 4683
455  1599 3403
456  8878 2515
457  6604 5305
458  7991 6562
459  5965 3867
460  7112 8479
461  4650 8085
462  6524 2708
463  6283 4564
464  7371 4974
465  6921 946 
466  2969 5429
467  2124 2378
468  1850 9139
469  651  4944
470  2293 3225
471  3392 4372
472  9234 1637
473  4122 1884
474  150  4691
475  3533 9431
476  2206 4623
477  2605 355 
478  1373 2070
479  7436 3716
480  234  8564
481  7833 9295
482  5855 3491
483  203  4076
484  5121 2868
485  4634 8500
486  6317 1241
487  4960 6040
488  1937 7413
489  9800 595 
490  4737 488 
491  9740 5067
492  2688 383 
493  6163 5376
494  4536 5247
495  5400 9254
496  6044 4060
497  8956 4092
498  3841 3311
499  9335 8437
500  8349 7970
501  3277 1545
502  9875 1857
503  6810 2828
504  3482 2775
505  2297 357 
506  4798 2216
507  3724 2803
508  3561 7703
509  8983 6069
510  3633 630 
511  272  2451
512  264  3191
513  4986 535 
514  8142 1508
515  5223 6098
516  3980 4223
517  475  7390
518  6241 3068
519  6092 4400
520  7786 4790
521  5907 1716
522  4910 1256
523  1075 2763
524  7097 1067
525  5985 6297
526  7560 6572
527  7904 2484
528  6187 3167
529  7278 1113
530  3892 7938
531  2565 8626
532  4147 5873
533  6904 6127
534  7553 8207
535  7175 7466
536  8912 5684
537  5734 9521
538  195  5664
539  85   157 
540  1800 8989
541  9160 6162
542  9850 2317
543  3835 3849
544  5387 4019
545  8440 9289
546  4243 2844
547  5776 7402
548  6649 895 
549  1342 116 
550  3077 4204
551  3995 9061
552  6741 9931
553  4927 5855
554  3000 2398
555  6612 7551
556  1997 3282
557  7488 6345
558  1359 6629
559  2027 4243
560  6633 2401
561  6511 8697
562  1068 4429
563  6828 9575
564  7416 1303
565  1019 3773
566  1354 6878
567  8619 4164
568  1351 4762
569  7184 3196
570  2125 5275
571  7332 5716
572  4636 4339
573  2151 8788
574  6390 8759
575  3079 769 
576  7599 5150
577  7944 8234
578  7598 8559
579  4695 9607
580  1459 7871
581  199  3502
582  4347 7829
583  4753 4864
584  998  4074
585  4929 8433
586  845  8934
587  1548 946 
588  5468 6720
589  5238 1099
590  8496 216 
591  8881 2606
592  9958 9316
593  9115 2381
594  1028 8153
595  3790 4288
596  9489 4972
597  7832 9324
598  8876 330 
599  7057 2139
600  5296 3628
601  1942 2708
602  8544 5225
603  4003 2695
604  1802 150 
605  8249 5424
606  4158 5071
607  9797 5585
608  2909 9535
609  185  2158
610  3727 2120
611  5182 9733
612  5580 1898
613  7466 4957
614  8199 2070
615  1508 2749
616  8259 4719
617  9775 534 
618  7960 2940
619  2962 8612
620  4645 6093
621  4322 247 
622  2500 7320
623  8305 2618
624  9345 5949
625  336  6631
626  6922 130 
627  6982 7022
628  2355 5756
629  414  6787
630  9852 3773
631  6338 5557
632  2597 9837
633  8546 5558
634  2437 2171
635  201  2675
636  6002 9377
637  8263 3394
638  7109 5386
639  8043 644 
640  718  4174
641  1499 8959
642  813  3914
643  2984 7429
644  8826 4953
645  2613 7759
646  3674 3467
647  1451 4953
648  6863 3537
649  7138 3280
650  2160 9094
651  8696 5512
652  6755 5548
653  580  3114
654  1734 252 
655  8591 3811
656  8795 3245
657  152  4856
658  667  3243
659  2146 1977
660  5640 1478
661  6134 7777
662  1034 3030
663  138  6716
664  6006 1571
665  9002 5476
666  2418 8312
667  4015 8867
668  2039 2484
669  2583 2464
670  6034 7721
671  4539 7906
672  6379 2727
673  4523 7682
674  2365 8481
675  2008 9475
676  1234 2867
677  4140 3037
678  3209 1619
679  2903 3000
680  897  7809
681  7243 7084
682  3464 8132
683  5126 5138
684  6116 5436
685  1130 6694
686  422  7519
687  1848 1082
688  9354 4345
689  4856 1071
690  3165 3254
691  5820 4835
692  8980 6176
693  3306 9757
694  1277 9050
695  7272 9348
696  4540 6181
697  1432 5396
698  1786 7637
699  191  5810
700  1493 6460
701  2966 4048
702  964  697 
703  5749 1165
704  9315 3653
705  5394 7318
706  5472 6362
707  3848 8876
708  3858 8423
709  5770 1985
710  6693 4800
711  7981 7539
712  2641 9039
713  8747 2443
714  6904 9244
715  4141 6170
716  5374 1980
717  1623 3630
718  7325 5623
719  7311 7016
720  8555 7066
721  1237 427 
722  3554 1425
723  5010 2273
724  485  6922
725  2253 2734
726  6505 2261
727  9205 1601
728  6388 7167
729  6235 7373
730  6846 9291
731  5763 8944
732  4941 6560
733  1351 3957
734  6220 5358
735  8321 7769
736  5387 8031
737  1311 4622
738  4982 6607
739  2051 2814
740  6504 6865
741  2804 6981
742  5587 32  
743  9497 1379
744  7867 2176
745  9035 3024
746  6901 698 
747  965  2480
748  6024 4287
749  9037 8710
750  1362 368 
751  2177 7077
752  9306 7665
753  4208 1236
754  6952 7707
755  608  9397
756  4609 2902
757  6520 4742
758  1421 7321
759  8921 2771
760  1016 9946
761  5426 6951
762  303  1259
763  7445 901 
764  5473 5863
765  292  632 
766  8701 4752
767  2597 835 
768  7467 8166
769  7982 6987
770  2019 5976
771  4796 5707
772  5084 4331
773  8934 5419
774  8820 258 
775  85   580 
776  7646 4816
777  6338 1036
778  6816 6248
779  5727 9564
780  2551 7428
781  7260 2718
782  6130 6104
783  7714 1519
784  8803 3247
785  3248 2022
786  261  9578
787  5991 5857
788  7133 7582
789  6870 3820
790  8241 1706
791  8300 4288
792  1422 9427
793  3697 4866
794  6117 4719
795  2553 5870
796  3888 6714
797  82   8926
798  5203 9569
799  8998 4175
800  7154 6122
801  7550 8908
802  7083 4773
803  834  9834
804  8404 3100
805  7701 8197
806  6092 2493
807  7379 7403
808  1510 8816
809  8588 3618
810  8095 454 
811  9389 7224
812  6373 43  
813  7114 3155
814  1141 3369
815  2544 4251
816  248  568 
817  1260 8606
818  8977 1594
819  6792 3963
820  9231 7725
821  9606 5286
822  3690 6221
823  6063 446 
824  9322 3471
825  9281 8264
826  4969 3966
827  1658 3723
828  2615 7535
829  1506 5551
830  57   9899
831  8043 4260
832  6774 8367
833  8302 7142
834  7625 7184
835  3762 700 
836  8293 6524
837  2089 3475
838  5213 9028
839  2584 3370
840  8534 3253
841  2699 6547
842  9855 885 
843  5157 7550
844  3571 156 
845  673  6103
846  1496 7204
847  109  4358
848  7859 9913
849  3145 5732
850  9237 849 
851  6446 7031
852  2615 4103
853  6653 8592
854  5181 8338
855  4478 2484
856  7329 6286
857  8834 8340
858  7913 1392
859  166  1058
860  766  8946
861  3524 4071
862  9773 2765
863  7740 3435
864  2691 510 
865  7107 8693
866  426  3797
867  7156 5606
868  4857 5743
869  2008 7946
870  967  2914
871  5831 7354
872  4596 1368
873  1033 3976
874  1964 2729
875  9359 6298
876  3271 9   
877  6351 2275
878  1679 4515
879  3997 671 
880  920  8420
881  1480 1757
882  9603 5510
883  1570 7522
884  7398 3119
885  2018 7569
886  8966 3950
887  8880 5324
888  9544 7203
889  6368 7381
890  5510 1350
891  7016 8693
892  9812 8394
893  5321 1309
894  4697 27  
895  7246 3738
896  555  2296
897  64   8286
898  3076 1666
899  7088 3896
900  862  4839
901  4367 1605
902  8578 4881
903  6089 8539
904  2995 6909
905  6244 2097
906  6918 4920
907  675  7856
908  5651 9623
909  1775 9297
910  8003 1359
911  3693 4673
912  964  1062
913  9148 2941
914  6856 2986
915  5171 4741
916  3487 9809
917  8964 5431
918  4296 1469
919  5930 5473
920  157  3363
921  1907 8950
922  6947 622 
923  3278 7965
924  9583 5851
925  3568 1125
926  9933 3053
927  9324 961 
928  8492 1248
929  2365 2502
930  2515 7706
931  7004 7830
932  1992 3337
933  4778 6094
934  4801 8019
935  105  7377
936  6477 8105
937  761  6775
938  5448 4857
939  3259 3607
940  975  5627
941  8034 1682
942  2163 2032
943  8223 7219
944  6769 32  
945  8266 2342
946  8873 3926
947  9671 5479
948  5717 2923
949  5267 8555
950  4435 3755
951  9359 567 
952  1396 6466
953  5334 7088
954  8857 3911
955  2489 4526
956  5136 5236
957  7493 577 
958  2306 1712
959  2903 6494
960  6614 4913
961  9400 666 
962  2618 9116
963  3370 172 
964  5253 5935
965  6535 6026
966  5688 2860
967  4356 9789
968  1690 8597
969  1537 3864
970  938  3051
971  4781 6787
972  8174 6526
973  7771 6457
974  9719 936 
975  6719 1519
976  8933 4032
977  4066 8733
978  9921 5475
979  238  7679
980  3710 6581
981  5927 5626
982  1466 7808
983  3876 2543
984  9836 978 
985  3356 5211
986  9333 7468
987  580  1413
988  9869 5285
989  8078 5901
990  1867 7841
991  4814 8026
992  6491 9860
993  3101 5102
994  1517 2761
995  7547 802 
996  7580 8716
997  6191 9423
998  8680 271 
999  8502 8032
1000 1452 5384
1001 8787 4050
1002 1441 4440
1003 8386 1685
1004 5946 8009
1005 3405 8219
1006 2122 9170
1007 4415 6587
1008 260  3129
1009 8636 4942
1010 5103 4841
1011 6106 2224
1012 1770 1910
1013 776  7695
1014 4334 1821
1015 6224 8625
1016 7534 6186
1017 5171 8102
1018 3927 1596
1019 5325 2681
1020 6610 7077
1021 1566 9667
1022 7277 4635
1023 4680 6750
1024 9692 3073
1025 6900 2310
1026 9642 2370
1027 8300 4949
1028 2921 877 
1029 3895 6076
1030 9577 9757
1031 2991 7431
1032 2219 7609
1033 9074 7966
1034 4397 844 
1035 2816 1753
1036 9507 714 
1037 6234 4861
1038 812  2513
1039 811  9999
1040 1639 5949
1041 3688 2234
1042 7671 5727
1043 7953 7068
1044 1508 3717
1045 3847 4923
1046 2538 975 
1047 7314 9   
1048 6288 8942
1049 794  9683
1050 2365 122 
1051 6002 1802
1052 2810 5690
1053 6720 3342
1054 4621 1476
1055 3124 2804
1056 9359 4192
1057 2835 5634
1058 1429 3588
1059 1846 263 
1060 9562 9566
1061 2962 7895
1062 5577 1371
1063 3298 6131
1064 2274 8190
1065 6729 6582
1066 6167 8143
1067 805  4289
1068 8225 7096
1069 3997 583 
1070 7527 7212
1071 8299 4127
1072 9426 7847
1073 431  9116
1074 239  7110
1075 8537 9184
1076 2337 5929
1077 9408 8361
1078 7502 713 
1079 7511 5656
1080 2656 2108
1081 1517 7951
1082 351  9616
1083 5658 2044
1084 5577 9770
1085 1722 2024
1086 4960 8656
1087 388  6764
1088 7551 7097
1089 9918 8452
1090 8590 1597
1091 3806 1638
1092 4899 8367
1093 8927 465 
1094 9562 144 
1095 5467 3322
1096 1254 8872
1097 6949 8944
1098 5507 8906
1099 3448 5424
1100 7366 3104
1101 9176 3962
1102 8022 1168
1103 3661 532 
1104 4080 6348
1105 1530 5237
1106 4799 5902
1107 5945 2540
1108 977  2384
1109 5213 8848
1110 8635 765 
1111 780  9474
1112 8637 8348
1113 5622 3927
1114 5477 624 
1115 7805 4671
1116 462  5240
1117 1960 8191
1118 4086 6821
1119 4285 5750
1120 243  9624
1121 2787 3465
1122 5157 7611
1123 9111 7212
1124 7568 9454
1125 6589 388 
1126 71   7357
1127 9311 8949
1128 9102 1954
1129 7081 52  
1130 5328 8388
1131 2329 6495
1132 8828 3356
1133 1813 407 
1134 9981 6069
1135 4500 8432
1136 4329 5229
1137 4927 8715
1138 6854 1638
1139 2187 2319
1140 6124 2569
1141 7252 1580
1142 833  4058
1143 351  2149
1144 8938 7257
1145 665  7809
1146 520  4252
1147 2816 4380
1148 5983 8683
1149 1578 5032
1150 6917 2631
1151 4518 9919
1152 287  8879
1153 5719 7598
1154 8987 7813
1155 871  3560
1156 4443 2621
1157 5909 3439
1158 6174 1583
1159 5687 2321
1160 8149 7521
1161 3936 8595
1162 7176 6592
1163 1171 229 
1164 6398 2736
1165 1058 2141
1166 9654 9017
1167 9858 4479
1168 9462 8940
1169 9396 5794
1170 4768 2066
1171 2844 4513
1172 4121 1684
1173 6397 2009
1174 5347 5722
1175 4035 9585
1176 5159 2871
1177 1306 5845
1178 5423 3510
1179 184  7056
1180 4725 1719
1181 2823 8914
1182 116  2507
1183 6860 9029
1184 7952 4823
1185 3886 5697
1186 4076 9412
1187 7023 7143
1188 2842 5681
1189 9082 273 
1190 9412 6453
1191 6610 1045
1192 1751 3058
1193 9605 105 
1194 7594 9322
1195 1462 3003
1196 6505 4642
1197 3751 1254
1198 8049 2347
1199 3209 6923
1200 77   5014
1201 1523 6440
1202 3961 555 
1203 180  5826
1204 6067 4913
1205 1072 9757
1206 1177 3110
1207 4072 8039
1208 6115 4125
1209 3097 8209
1210 3315 9030
1211 3069 4223
1212 561  7458
1213 7662 2171
1214 9671 5395
1215 3748 6348
1216 9556 7644
1217 2217 5745
1218 9988 4022
1219 9251 3069
1220 8446 4639
1221 2052 5814
1222 2337 2379
1223 6098 5367
1224 4093 3825
1225 631  1822
1226 8240 4945
1227 6179 5654
1228 174  1989
1229 3213 6616
1230 4177 3964
1231 3825 5440
1232 8142 6823
1233 5302 1742
1234 1500 4673
1235 5160 8594
1236 8463 7675
1237 6    3945
1238 7545 5617
1239 2873 4127
1240 7191 1590
1241 8330 9049
1242 7975 7486
1243 3343 3111
1244 4876 9963
1245 8391 1169
1246 6795 2246
1247 1012 6320
1248 7654 659 
1249 5991 640 
1250 3410 684 
1251 4903 4603
1252 4425 5640
1253 1077 6723
1254 5926 5716
1255 1051 4305
1256 5981 5015
1257 7535 6409
1258 8301 7689
1259 9332 1755
1260 6142 4762
1261 6518 3735
1262 9668 8646
1263 111  5623
1264 9419 3461
1265 4557 1177
1266 7323 4882
1267 4553 3989
1268 5503 5936
1269 9252 4880
1270 1454 1825
1271 6353 5091
1272 9780 8069
1273 9918 824 
1274 6320 199 
1275 2846 4909
1276 4996 6304
1277 325  7497
1278 1985 8216
1279 4570 4312
1280 8772 7017
1281 5107 5107
1282 4242 7139
1283 8400 4   
1284 3887 8081
1285 6345 3872
1286 5587 558 
1287 4450 1569
1288 1661 2041
1289 7376 1939
1290 6441 1510
1291 8422 1232
1292 7214 9846
1293 8409 5459
1294 9211 9485
1295 4065 9970
1296 3696 5167
1297 7331 8893
1298 5637 4028
1299 9076 1968
1300 2433 3938
1301 406  3   
1302 147  1937
1303 3617 1073
1304 2434 9537
1305 4092 4864
1306 5495 8518
1307 9184 9399
1308 8034 8698
1309 6673 9957
1310 6940 2288
1311 9434 2172
1312 5545 2919
1313 9406 6689
1314 9707 5329
1315 9973 7610
1316 2974 1283
1317 999  7547
1318 716  3719
1319 7611 9561
1320 7962 6563
1321 9372 8072
1322 7937 8275
1323 8952 4909
1324 2271 121 
1325 6812 4653
1326 6784 990 
1327 4187 7548
1328 4576 1152
1329 1256 4098
1330 9325 2072
1331 8263 8364
1332 348  2069
1333 2109 7864
1334 6860 5271
1335 940  1640
1336 7203 5858
1337 8003 8428
1338 1728 391 
1339 4614 7732
1340 5869 2834
1341 10000 3665
1342 4208 5233
1343 1776 6463
1344 3630 5854
1345 2247 5691
1346 6011 2226
1347 7894 8433
1348 9899 3593
1349 8218 6460
1350 7510 7047
1351 6022 7601
1352 8759 3911
1353 6575 8706
1354 3587 8414
1355 8370 9801
1356 1757 4111
1357 597  6707
1358 8331 6704
1359 1661 7336
1360 3760 9993
1361 3979 1302
1362 4141 1403
1363 8355 3071
1364 3779 4412
1365 4060 7278
1366 619  9678
1367 1074 4139
1368 3501 3031
1369 9598 9902
1370 3686 416 
1371 5323 5949
1372 1537 4325
1373 484  9599
1374 1522 8355
1375 5263 633 
1376 1823 868 
1377 1779 4135
1378 2030 9357
1379 5504 4171
1380 7190 7570
1381 9751 7835
1382 4764 5804
1383 6406 4346
1384 8635 8064
1385 563  8530
1386 1332 588 
1387 8115 3123
1388 4576 9999
1389 412  875 
1390 9189 7032
1391 1019 3528
1392 5799 5558
1393 8887 1170
1394 9754 4955
1395 6777 9252
1396 3933 7038
1397 7262 3230
1398 3665 7127
1399 7357 5787
1400 4236 5909
1401 216  1321
1402 6931 957 
1403 6401 5839
1404 5205 1279
1405 6027 1953
1406 3879 3813
1407 9280 255 
1408 4576 6852
1409 6097 6672
1410 2508 8410
1411 6304 1614
1412 530  7621
1413 1275 6596
1414 5274 683 
1415 5791 130 
1416 7035 7647
1417 2076 8229
1418 8926 4698
1419 2125 5667
1420 4546 2625
1421 3243 6358
1422 7626 2389
1423 5608 1755
1424 2461 3941
1425 764  2822
1426 4748 3392
1427 5793 68  
1428 7634 6879
1429 6205 1146
1430 1338 3123
1431 5761 7491
1432 7558 2443
1433 6147 725 
1434 1286 7234
1435 1079 6892
1436 6340 9887
1437 8997 4297
1438 6790 2568
1439 2367 379 
1440 9140 9970
1441 3908 6178
1442 9735 136 
1443 6219 2445
1444 8487 3412
1445 4535 2897
1446 1290 6314
1447 5173 5723
1448 7313 6659
1449 3234 9123
1450 9540 5708
1451 9943 2010
1452 6410 4890
1453 1489 6674
1454 9618 9440
1455 3871 7900
1456 7292 5361
1457 2930 7779
1458 2327 3519
1459 4826 3329
1460 605  4905
1461 6003 1041
1462 3928 4805
1463 683  4416
1464 3650 855 
1465 7262 752 
1466 6157 925 
1467 9089 4159
1468 8687 6476
1469 2300 9151
1470 5979 1209
1471 1147 1164
1472 8786 2846
1473 7340 1480
1474 7997 2833
1475 7092 2170
1476 8936 7736
1477 2000 1411
1478 2368 5784
1479 4560 8887
1480 3406 7974
1481 3334 8293
1482 9056 315 
1483 3267 729 
1484 4018 678 
1485 5546 8995
1486 4723 8414
1487 2264 9748
1488 9690 3189
1489 806  6281
1490 3258 2747
1491 1047 8426
1492 7834 631 
1493 9849 2808
1494 8167 7864
1495 7446 1605
1496 7453 1067
1497 148  4970
1498 7529 8464
1499 9541 2874
1500 2014 8688
1501 70   8973
1502 3729 9818
1503 3183 4179
1504 9629 2863
1505 6815 5290
1506 7579 9178
1507 67   9241
1508 1764 8079
1509 6724 7248
1510 2244 278 
1511 7024 5901
1512 7474 1940
1513 4416 156 
1514 8990 5766
1515 6491 2240
1516 8086 3831
1517 5375 6025
1518 1755 9554
1519 8889 6630
1520 1710 7527
1521 7253 3848
1522 5401 4411
1523 3435 8590
1524 4318 5267
1525 8359 7223
1526 9905 8015
1527 1171 8712
1528 6012 6174
1529 1717 8695
1530 5321 5718
1531 7933 8683
1532 4740 813 
1533 7946 6671
1534 8017 6361
1535 2858 2851
1536 7323 1084
1537 7025 7880
1538 7353 773 
1539 4115 4337
1540 6973 6347
1541 1085 5698
1542 2069 5322
1543 5046 9383
1544 4813 3123
1545 5234 6079
1546 2178 9144
1547 931  647 
1548 1010 7112
1549 9980 5722
1550 8251 3741
1551 5306 1720
1552 3774 6223
1553 5882 8890
1554 6358 5627
1555 321  6473
1556 614  7340
1557 2948 6241
1558 6046 8568
1559 2607 6060
1560 5790 1116
1561 4285 8620
1562 2913 8616
1563 4306 316 
1564 9923 2500
1565 6670 3592
1566 2019 6040
1567 9245 5373
1568 8010 3864
1569 7521 6789
1570 2280 4860
1571 3001 8099
1572 8291 9144
1573 665  9917
1574 6991 685 
1575 6887 2272
1576 8137 2715
1577 7562 689 
1578 603  376 
1579 5975 331 
1580 6235 3949
1581 8600 9742
1582 7111 2096
1583 1394 3868
1584 1503 7102
1585 3999 8117
1586 1670 9402
1587 5020 6252
1588 6189 9237
1589 8078 5020
1590 8236 1940
1591 7338 747 
1592 2954 8580
1593 1857 3692
1594 7553 2839
1595 5816 4326
1596 6762 2285
1597 5308 2659
1598 6840 1091
1599 9883 874 
1600 1023 5674
1601 8806 3496
1602 5802 944 
1603 6420 350 
1604 3115 9339
1605 6455 9415
1606 6189 5355
1607 1961 673 
1608 18   2513
1609 8317 5782
1610 9012 5994
1611 5103 841 
1612 3018 672 
1613 8688 2253
1614 5805 6497
1615 8875 9412
1616 8208 3620
1617 693  3361
1618 3732 6978
1619 1268 7595
1620 1992 4564
1621 1523 4054
1622 5983 6932
1623 5976 2283
1624 2242 5636
1625 1893 7229
1626 9378 2385
1627 6252 6901
1628 4308 1591
1629 5504 7085
1630 3137 1061
1631 9916 9377
1632 161  806 
1633 1433 1716
1634 2699 8687
1635 5687 3896
1636 1731 2491
1637 2174 1318
1638 1545 3367
1639 4352 3552
1640 497  4947
1641 9589 1441
1642 8427 5347
1643 5808 6167
1644 4311 386 
1645 7672 7481
1646 679  7594
1647 2867 2829
1648 9640 529 
1649 6102 924 
1650 4964 1528
1651 2346 8681
1652 1790 8545
1653 9253 9292
1654 7311 7754
1655 8962 9399
1656 190  6161
1657 9054 5221
1658 2652 1531
1659 5967 7012
1660 6459 1733
1661 394  3901
1662 4595 1601
1663 5510 716 
1664 3536 8903
1665 1354 4715
1666 1814 5275
1667 9524 9698
1668 3448 5925
1669 2873 6171
1670 5896 9359
1671 5474 1370
1672 6674 9807
1673 4519 6646
1674 509  2053
1675 6994 8259
1676 2160 9924
1677 4153 2450
1678 5588 8116
1679 7074 1470
1680 8195 520 
1681 7373 4467
1682 5882 8679
1683 3099 9890
1684 441  5251
1685 3930 7341
1686 3726 1974
1687 3847 4245
1688 7441 4646
1689 8725 3392
1690 9434 1306
1691 8972 8634
1692 665  7800
1693 5618 2382
1694 4100 8740
1695 9023 3916
1696 1086 8209
1697 2906 6053
1698 961  5416
1699 1645 947 
1700 4561 4816
1701 3758 4002
1702 4219 7580
1703 4810 9866
1704 6354 5262
1705 6205 8704
1706 8927 4209
1707 2802 1328
1708 5650 8998
1709 12   1220
1710 4356 825 
1711 4249 5283
1712 8951 7588
1713 7030 1123
1714 7865 3658
1715 3799 956 
1716 3920 6428
1717 8883 6383
1718 2562 4625
1719 3760 7148
1720 2742 7299
1721 8019 2494
1722 6460 6212
1723 7963 6939
1724 8046 3941
1725 5648 2762
1726 4986 4906
1727 3568 9977
1728 5534 2766
1729 8886 4187
1730 5143 9181
1731 9232 1469
1732 9403 1104
1733 5390 9114
1734 6197 2570
1735 8672 1662
1736 7623 4471
1737 2108 4339
1738 2065 911 
1739 3134 3949
1740 2357 239 
1741 845  7074
1742 5328 2608
1743 6864 3428
1744 7233 2285
1745 4604 9046
1746 6624 1329
1747 8496 7687
1748 7261 8180
1749 8456 5013
1750 2190 5400
1751 9959 690 
1752 3333 5338
1753 4621 5704
1754 7519 4693
1755 2804 7601
1756 4303 5869
1757 9800 1432
1758 9705 9141
1759 8103 7897
1760 2769 9270
1761 6336 7658
1762 9886 9427
1763 5631 1716
1764 3777 5770
1765 582  6503
1766 9182 3651
1767 5061 1831
1768 6409 4547
1769 9714 4516
1770 5847 5320
1771 3913 4240
1772 6088 2480
1773 8029 5370
1774 1674 3106
1775 7114 9954
1776 8061 4093
1777 8588 525 
1778 8679 588 
1779 6095 7883
1780 9700 2042
1781 2838 3666
1782 2617 3362
1783 2532 4191
1784 3632 7815
1785 6287 3761
1786 7868 2610
1787 7515 2842
1788 7161 1670
1789 6607 3845
1790 5914 4469
1791 5968 9695
1792 9344 7348
1793 9623 2806
1794 6992 8264
1795 2545 4158
1796 4158 5320
1797 949  3138
1798 2541 8125
1799 1059 4134
1800 4820 4688
1801 2979 239 
1802 1520 9904
1803 7125 1434
1804 5688 6888
1805 3658 2983
1806 3767 8386
1807 4165 7086
1808 8584 19  
1809 4979 9250
1810 7840 9712
1811 6947 7015
1812 473  8264
1813 4238 3394
1814 2525 9381
1815 5463 1479
1816 476  5521
1817 979  1629
1818 7980 82  
1819 369  6252
1820 3580 7642
1821 6552 5940
1822 8583 5417
1823 9517 1464
1824 3725 5338
1825 9735 7742
1826 5657 2523
1827 8374 745 
1828 3860 2195
1829 1138 3723
1830 5161 7929
1831 8087 4281
1832 7675 416 
1833 2709 8276
1834 9518 2213
1835 5623 6908
1836 4966 5940
1837 9243 4682
1838 7484 2861
1839 7191 3597
1840 3163 2601
1841 2654 5613
1842 5099 9456
1843 9062 2760
1844 6900 3032
1845 8951 1460
1846 2960 533 
1847 8720 500 
1848 4330 5632
1849 6893 726 
1850 1070 273 
1851 2556 1117
1852 6340 6545
1853 3100 4775
1854 2057 7737
1855 2347 7955
1856 4893 8102
1857 6248 5772
1858 883  3933
1859 8881 9182
1860 1588 8011
1861 3070 8310
1862 8060 8355
1863 8992 4038
1864 8048 9883
1865 5001 177 
1866 2949 1782
1867 9023 2275
1868 8639 7669
1869 8059 8067
1870 1611 9799
1871 3680 6299
1872 8205 8557
1873 9969 2695
1874 7906 9864
1875 7516 9308
1876 3964 2312
1877 182  4553
1878 655  9582
1879 3310 4290
1880 1670 6800
1881 4384 9308
1882 205  8971
1883 2567 2921
1884 1758 7974
1885 1332 7116
1886 9044 9525
1887 3848 9035
1888 4336 5692
1889 5293 9406
1890 5832 1989
1891 6151 6548
1892 880  433 
1893 558  2890
1894 9024 8500
1895 1470 9859
1896 3233 6512
1897 6951 7270
1898 9017 8987
1899 5531 2486
1900 6222 438 
1901 9731 3791
1902 6751 4189
1903 7658 1886
1904 538  509 
1905 5094 3658
1906 8316 4380
1907 8198 4653
1908 2967 1176
1909 9438 5560
1910 7306 7522
1911 8077 1100
1912 4496 2148
1913 5956 1103
1914 4592 6909
1915 368  8962
1916 2409 3955
1917 9328 1453
1918 6959 383 
1919 4404 6899
1920 4487 2108
1921 5597 4050
1922 2390 5816
1923 7164 574 
1924 8487 780 
1925 6215 9613
1926 156  8552
1927 3134 2198
1928 5263 7997
1929 3875 5532
1930 624  6547
1931 7203 844 
1932 6320 7299
1933 7824 9275
1934 2598 2722
1935 8724 4295
1936 6265 2529
1937 9341 4613
1938 7185 4882
1939 2553 6928
1940 6423 5509
1941 8271 344 
1942 5309 893 
1943 8629 4790
1944 9977 5586
1945 3979 800 
1946 5042 8445
1947 9888 7688
1948 3141 8130
1949 8628 730 
1950 9958 4006
1951 6836 2968
1952 7099 6901
1953 9685 8599
1954 9501 2552
1955 9596 5787
1956 6307 231 
1957 5768 1008
1958 5192 4634
1959 6530 8273
1960 8917 973 
1961 593  7442
1962 2255 7469
1963 3929 9279
1964 7352 785 
1965 1123 9642
1966 7307 7702
1967 5893 7961
1968 4062 9745
1969 9760 7140
1970 3188 7249
1971 1037 3050
1972 3103 6045
1973 8421 912 
1974 8776 9014
1975 9969 4674
1976 7290 7112
1977 544  9801
1978 8461 2270
1979 4337 3515
1980 4943 6737
1981 761  287 
1982 5263 5859
1983 8393 4117
1984 8714 7725
1985 7887 7423
1986 7575 4361
1987 5083 9288
1988 3040 4958
1989 2653 1306
1990 898  9852
1991 9576 821 
1992 8119 4392
1993 9292 9982
1994 3200 3620
1995 5038 2056
1996 960  6752
1997 7942 1729
1998 5643 1620
1999 6438 983 
2000 7112 8134
2001 4669 729 
2002 9617 2491
2003 2496 1728
2004 1495 6480
2005 3081 2997
2006 8507 6994
2007 9244 4969
2008 5276 1366
2009 3036 1302
2010 1458 757 
2011 6488 7466
2012 4943 4212
2013 7064 3459
2014 9381 9716
2015 720  6261
2016 3725 3882
2017 2215 7194
2018 332  8729
2019 3184 1589
2020 1954 1571
2021 1726 7175
2022 8949 3949
2023 6502 2021
2024 2495 5956
2025 9899 1855
2026 32   345 
2027 1166 5670
2028 6643 4901
2029 6474 1909
2030 5293 6461
2031 7062 166 
2032 8401 1840
2033 9637 1047
2034 5726 8513
2035 2649 1905
2036 5447 5414
2037 7434 1452
2038 2720 5740
2039 5094 7870
2040 2392 4162
2041 5593 5174
2042 7228 5043
2043 6133 2003
2044 6272 7388
2045 7702 8941
2046 3535 4736
2047 727  6615
2048 3282 2269
2049 7679 1566
2050 9927 809 
2051 3774 6491
2052 9785 9021
2053 4115 9714
2054 9382 4018
2055 1679 7437
2056 5220 582 
2057 1770 4849
2058 9943 3959
2059 6158 4398
2060 8248 5900
2061 6058 5917
2062 5631 5877
2063 6760 7449
2064 46   7185
2065 8213 890 
2066 4889 6097
2067 8354 4201
2068 922  3679
2069 2105 7904
2070 3894 9404
2071 3822 1172
2072 3992 341 
2073 2635 8691
2074 3579 2465
2075 8901 5610
2076 5754 482 
2077 8226 9536
2078 7141 6427
2079 2925 8095
2080 2230 4223
2081 9131 8563
2082 5883 8564
2083 1189 805 
2084 3350 1389
2085 385  177 
2086 3053 7163
2087 4871 4665
2088 6774 370 
2089 2462 6465
2090 7841 396 
2091 6330 1082
2092 5829 8556
2093 794  5821
2094 6795 1052
2095 3791 2783
2096 8230 9845
2097 9870 4952
2098 523  85  
2099 8774 239 
2100 3008 8189
2101 617  2726
2102 7725 3319
2103 8646 2342
2104 310  7214
2105 9919 8717
2106 8136 4934
2107 8497 5486
2108 8011 2471
2109 4871 1934
2110 3902 225 
2111 5049 2283
2112 6943 295 
2113 8352 1114
2114 6015 4940
2115 5797 6645
2116 2826 6039
2117 4540 7949
2118 8915 3178
2119 270  163 
2120 4973 2485
2121 8581 6659
2122 4982 3833
2123 725  8442
2124 6875 4571
2125 8736 9850
2126 7457 3436
2127 3190 81  
2128 7003 9523
2129 6464 4107
2130 9471 9081
2131 8454 2225
2132 9457 5660
2133 9001 4195
2134 7558 4084
2135 6109 3458
2136 2483 4406
2137 3802 3953
2138 517  2177
2139 7290 2392
2140 3267 9228
2141 389  2991
2142 2438 9765
2143 6965 5614
2144 8964 1874
2145 8052 9057
2146 8713 3798
2147 564  6698
2148 2865 7926
2149 8485 5562
2150 1711 7753
2151 8307 4896
2152 9807 1129
2153 6085 9473
2154 2111 2410
2155 1759 7900
2156 1566 4012
2157 2690 5788
2158 5123 7574
2159 161  1787
2160 2117 6041
2161 2651 226 
2162 267  499 
2163 3514 4436
2164 9002 9159
2165 3382 7180
2166 4825 6387
2167 6041 7129
2168 8931 7477
2169 2849 3635
2170 7482 9835
2171 1431 6009
2172 374  8948
2173 3894 5517
2174 9511 4132
2175 617  989 
2176 4905 3076
2177 3961 1908
2178 385  2795
2179 1875 52  
2180 736  7640
2181 5764 5681
2182 4576 781 
2183 235  7939
2184 6599 9982
2185 5748 156 
2186 8463 3912
2187 8932 9206
2188 108  1014
2189 1984 7511
2190 2041 1834
2191 5451 1579
2192 5521 5821
2193 195  318 
2194 7609 8590
2195 5    2421
2196 9181 493 
2197 7534 3668
2198 5395 6913
2199 1299 6675
2200 3250 5370
2201 5958 8493
2202 7887 270 
2203 9330 5323
2204 6779 3451
2205 7577 0   
2206 7234 2725
2207 8195 5828
2208 6629 6738
2209 2244 2417
2210 6699 9755
2211 5378 7320
2212 2630 529 
2213 6831 7863
2214 3116 5324
2215 6585 2285
2216 1986 1625
2217 2326 2645
2218 6316 3522
2219 9545 3137
2220 6518 8685
2221 2851 4298
2222 547  7169
2223 3403 4489
2224 2291 5538
2225 8499 1590
2226 3485 6532
2227 1430 5846
2228 1967 7385
2229 374  2703
2230 7845 7545
2231 8134 4770
2232 3154 3090
2233 560  7289
2234 3068 9690
2235 2133 7057
2236 4791 2029
2237 5783 7724
2238 4881 5969
2239 9660 4679
2240 2604 591 
2241 139  4849
2242 408  1906
2243 8185 9284
2244 4695 2673
2245 8805 4313
2246 2937 2555
2247 6449 8310
2248 8698 4592
2249 1155 4378
2250 7264 1391
2251 9017 1093
2252 626  1381
2253 2091 578 
2254 976  9271
2255 2201 5735
2256 6946 4279
2257 4125 5206
2258 8690 6726
2259 8143 4584
2260 6430 6512
2261 8477 7279
2262 807  9064
2263 4302 6935
2264 9325 7851
2265 6810 7855
2266 2863 17  
2267 504  9843
2268 9438 2741
2269 9885 2026
2270 4061 4650
2271 2925 4880
2272 5819 2739
2273 339  4453
2274 8830 5226
2275 5837 7571
2276 2545 6893
2277 8579 5905
2278 3196 7340
2279 744  3770
2280 9144 8703
2281 6553 6492
2282 7476 1006
2283 3854 60  
2284 8122 3444
2285 7439 7947
2286 8932 2124
2287 4786 3433
2288 888  1132
2289 4477 7833
2290 9614 1826
2291 9753 2198
2292 7466 4962
2293 7183 1302
2294 714  8357
2295 8138 3436
2296 6501 3693
2297 4890 2242
2298 7597 2876
2299 8369 8472
2300 7252 4563
2301 7569 7671
2302 3198 2131
2303 9651 6251
2304 9909 600 
2305 2773 6233
2306 7840 9307
2307 9936 522 
2308 6544 8892
2309 6829 9319
2310 3937 9929
2311 5398 3073
2312 2396 492 
2313 4668 5926
2314 3113 4524
2315 3947 941 
2316 9226 4063
2317 7329 5048
2318 4851 6332
2319 5101 8045
2320 7768 8434
2321 1945 9523
2322 5832 1216
2323 4363 2237
2324 5430 4009
2325 918  306 
2326 9136 1400
2327 666  7430
2328 5634 6353
2329 190  5057
2330 2857 7200
2331 5574 9159
2332 9517 5671
2333 3920 9383
2334 8095 8252
2335 4410 7034
2336 3848 4501
2337 8923 4486
2338 4917 6730
2339 74   5243
2340 1651 9888
2341 5481 6758
2342 7207 3892
2343 7112 2627
2344 2907 8206
2345 914  1009
2346 574  3435
2347 8852 3484
2348 9749 6282
2349 2689 3371
2350 9845 1746
2351 659  747 
2352 6171 8796
2353 5315 7800
2354 4828 8336
2355 4812 762 
2356 3943 5656
2357 3578 8124
2358 9208 3417
2359 8232 9224
2360 1613 7699
2361 7226 3696
2362 4049 3377
2363 8627 5534
2364 5783 5715
2365 2768 9067
2366 8849 1640
2367 1126 8540
2368 9073 3838
2369 7284 1153
2370 8422 1621
2371 2351 8394
2372 5109 2462
2373 5465 6106
2374 1871 4800
2375 551  6544
2376 4229 128 
2377 7631 3721
2378 5998 9955
2379 1450 8224
2380 9212 5587
2381 1735 8681
2382 2278 7273
2383 3801 5147
2384 9152 7952
2385 8635 7006
2386 4435 4429
2387 8370 9973
2388 4155 9634
2389 3298 9691
2390 752  6956
2391 6149 4830
2392 2201 5311
2393 3780 5711
2394 7238 8970
2395 1315 5845
2396 2144 1680
2397 9767 9238
2398 7386 1529
2399 7224 7400
2400 3139 1078
2401 3587 8673
2402 8550 793 
2403 2843 9739
2404 2346 8311
2405 2695 3997
2406 8073 8857
2407 3420 9599
2408 753  7657
2409 7085 5702
2410 9545 971 
2411 407  2234
2412 4394 1178
2413 1432 6807
2414 9793 2837
2415 2371 9068
2416 6361 9817
2417 484  5550
2418 9937 7074
2419 5767 6590
2420 7345 7715
2421 699  4017
2422 6533 8535
2423 2648 3838
2424 666  7008
2425 5221 754 
2426 9844 3134
2427 2817 559 
2428 9354 5304
2429 2149 5172
2430 2766 7930
2431 7599 5192
2432 6660 4649
2433 8816 6953
2434 519  365 
2435 9701 8621
2436 4513 1729
2437 6049 5313
2438 9335 2099
2439 8425 2144
2440 9992 4888
2441 9018 1763
2442 8128 593 
2443 4400 3745
2444 6989 8764
2445 758  9138
2446 3154 4125
2447 8035 7078
2448 2151 1393
2449 8387 8231
2450 5567 414 
2451 2548 8268
2452 6300 4350
2453 2410 6833
2454 3632 3843
2455 5067 9289
2456 7943 4984
2457 6305 1285
2458 2260 1958
2459 3368 357 
2460 983  420 
2461 92   9188
2462 453  901 
2463 1403 9138
2464 999  1490
2465 430  1167
2466 2049 7004
2467 6409 7000
2468 2899 9387
2469 8935 9161
2470 9479 4783
2471 1017 3903
2472 170  431 
2473 7234 9046
2474 8471 8821
2475 9361 8473
2476 4604 6171
2477 3401 5330
2478 1949 2362
2479 5697 8665
2480 4946 2402
2481 6094 6387
2482 1023 6227
2483 1635 9386
2484 4259 3188
2485 5874 262 
2486 6248 5373
2487 2478 7989
2488 5238 9980
2489 2587 7328
2490 1754 3736
2491 1215 2726
2492 5993 7104
2493 7026 2947
2494 9777 5899
2495 9172 1556
2496 2962 8871
2497 6641 3427
2498 2145 1628
2499 3350 9591
2500 7350 8141
2501 7222 6956
2502 1607 2182
2503 939  1161
2504 9845 4264
2505 3746 6178
2506 6248 209 
2507 8983 786 
2508 7193 951 
2509 2847 8198
2510 1109 6767
2511 6758 1159
2512 7765 2472
2513 3961 7015
2514 2693 1555
2515 9059 233 
2516 63   759 
2517 7118 1827
2518 4537 360 
2519 776  5872
2520 855  1863
2521 6841 5191
2522 5475 5695
2523 246  4274
2524 8453 7927
2525 2335 8543
2526 5430 4628
2527 5764 5916
2528 3412 9241
2529 5060 2662
2530 9054 8437
2531 9806 7717
2532 5756 8591
2533 5051 561 
2534 8793 3616
2535 9965 4008
2536 3868 8173
2537 8576 9155
2538 8624 5543
2539 4390 360 
2540 2746 9472
2541 3733 7529
2542 1246 4095
2543 640  2335
2544 8364 4092
2545 6935 5380
2546 9379 7663
2547 441  8165
2548 9767 3853
2549 5002 8207
2550 1443 7977
2551 49   9901
2552 1884 8889
2553 1163 5319
2554 7174 3049
2555 8086 311 
2556 9712 6826
2557 7967 7923
2558 1016 8869
2559 4083 1860
2560 700  6484
2561 8765 975 
2562 3170 5563
2563 7021 4993
2564 9725 49  
2565 1831 6625
2566 5314 7007
2567 708  4207
2568 6077 6901
2569 2538 6937
2570 4956 9071
2571 8599 2016
2572 5037 6301
2573 5546 2170
2574 213  6636
2575 5813 7948
2576 7721 8088
2577 657  7556
2578 3930 3343
2579 5321 3258
2580 3722 9958
2581 4931 927 
2582 7753 7563
2583 5903 3815
2584 4029 2926
2585 6783 6869
2586 2721 6091
2587 4942 7633
2588 8644 5737
2589 1962 3344
2590 3444 2593
2591 7629 7258
2592 7553 5009
2593 4195 1077
2594 8576 9797
2595 863  9368
2596 3914 509 
2597 782  5698
2598 9596 9049
2599 3241 3949
2600 8624 8907
2601 5368 2760
2602 9710 5810
2603 6476 485 
2604 7121 2188
2605 5546 3649
2606 190  6264
2607 3312 6194
2608 1921 6370
2609 3444 3162
2610 3277 8898
2611 65   3738
2612 9826 1301
2613 192  7440
2614 2193 2070
2615 2424 6924
2616 3853 6889
2617 2965 9841
2618 867  5946
2619 4537 7837
2620 4679 8878
2621 454  3719
2622 7358 7875
2623 3391 8492
2624 2124 6161
2625 1082 2246
2626 6271 7392
2627 5308 9337
2628 8336 1575
2629 8756 3504
2630 9702 833 
2631 2584 3866
2632 4825 4397
2633 6483 108 
2634 6628 7235
2635 5290 5050
2636 5691 1566
2637 1743 6372
2638 935  2775
2639 1250 5510
2640 1564 8829
2641 4760 6884
2642 7742 2987
2643 3103 4215
2644 2163 545 
2645 2026 3574
2646 2647 1203
2647 7784 8119
2648 2818 8776
2649 8442 9667
2650 1834 8972
2651 4512 3239
2652 4141 8976
2653 8410 8521
2654 3688 6313
2655 1591 4994
2656 5290 7067
2657 422  7290
2658 8548 3742
2659 2226 2068
2660 7580 2712
2661 5270 6200
2662 2844 752 
2663 3642 7004
2664 4263 1715
2665 9074 233 
2666 3112 5596
2667 7267 3133
2668 8654 6030
2669 3043 8893
2670 5033 2209
2671 4159 7559
2672 8533 7516
2673 5269 1282
2674 7696 9851
2675 1712 7129
2676 9472 2025
2677 1130 2582
2678 1486 2684
2679 7367 3584
2680 300  1435
2681 1997 9539
2682 6785 7674
2683 6786 9462
2684 3144 9693
2685 2795 8571
2686 601  9236
2687 8636 9248
2688 8801 3014
2689 1226 8477
2690 3260 524 
2691 992  950 
2692 679  878 
2693 7536 3359
2694 3318 4246
2695 9732 3812
2696 50   8475
2697 5222 7223
2698 5330 7977
2699 6423 4865
2700 7537 5488
2701 4303 8301
2702 1850 6836
2703 726  5078
2704 9007 7456
2705 8470 9007
2706 7548 7072
2707 167  7726
2708 4335 8621
2709 7176 7544
2710 4166 4806
2711 8921 6213
2712 746  7314
2713 2006 841 
2714 959  3198
2715 7132 2361
2716 6764 3905
2717 4825 6596
2718 2201 6969
2719 1000 5620
2720 345  6925
2721 7432 1608
2722 8794 4395
2723 1953 1609
2724 6897 9452
2725 6067 4301
2726 5576 2556
2727 4348 7898
2728 9880 3541
2729 1284 5633
2730 6616 9608
2731 3293 5682
2732 6650 9684
2733 506  5792
2734 6190 2733
2735 5929 5034
2736 1668 8890
2737 1440 4703
2738 817  6092
2739 1106 9151
2740 9286 2098
2741 9074 9999
2742 130  9727
2743 6001 8427
2744 4493 2223
2745 3503 245 
2746 29   354 
2747 9651 4244
2748 8676 19  
2749 9628 4035
2750 5874 1916
2751 5888 5214
2752 2310 4783
2753 7749 113 
2754 3862 2501
2755 5623 9027
2756 4808 2803
2757 6111 5019
2758 2282 7514
2759 6088 4432
2760 3148 1160
2761 4173 1079
2762 5062 2763
2763 2125 2553
2764 1604 3695
2765 1280 5778
2766 4503 5187
2767 4125 6861
2768 5284 1944
2769 2579 6080
2770 4482 4859
2771 612  8363
2772 3081 8322
2773 8072 2475
2774 4132 4719
2775 8757 4899
2776 8065 4677
2777 9401 5467
2778 5653 6919
2779 1778 6388
2780 8586 6857
2781 3842 3185
2782 9665 7280
2783 5082 4233
2784 9496 8143
2785 6933 1125
2786 162  5273
2787 5530 5482
2788 1111 8012
2789 5806 9833
2790 9860 2975
2791 1550 7528
2792 6341 1546
2793 7326 4864
2794 6584 1297
2795 5054 5251
2796 9869 1391
2797 7446 4196
2798 9081 5346
2799 8290 9669
2800 9700 1441
2801 7598 1611
2802 7414 4059
2803 1197 1870
2804 9728 7974
2805 3368 8349
2806 326  5656
2807 1762 9369
2808 1893 1922
2809 483  5614
2810 2043 1089
2811 8028 3614
2812 865  6971
2813 5435 5735
2814 878  9578
2815 7245 3277
2816 2040 2300
2817 392  7649
2818 9591 9873
2819 2280 7723
2820 5456 40  
2821 5368 1232
2822 4744 8895
2823 1425 5462
2824 647  2929
2825 971  2648
2826 9927 1227
2827 2500 8117
2828 7593 7834
2829 7347 9875
2830 5370 7521
2831 2878 1077
2832 2423 2620
2833 8518 2719
2834 2055 1586
2835 1316 3319
2836 3238 2221
2837 2467 8154
2838 8462 6818
2839 3840 8898
2840 2308 2570
2841 5127 9071
2842 1094 3868
2843 3817 7177
2844 2586 9922
2845 1587 1945
2846 3700 646 
2847 8744 5681
2848 6894 7988
2849 2970 7181
2850 129  7883
2851 5179 4124
2852 1622 2293
2853 5587 7186
2854 6336 4373
2855 4699 6383
2856 8065 2331
2857 5534 7990
2858 9750 6564
2859 6455 8038
2860 6827 498 
2861 8564 1041
2862 6384 7507
2863 3957 6223
2864 1735 9627
2865 6405 7084
2866 3513 6662
2867 2370 9354
2868 2003 6380
2869 7889 6361
2870 2743 9935
2871 4159 1534
2872 7415 9342
2873 1269 4655
2874 5189 1930
2875 6267 6907
2876 2564 8997
2877 5169 442 
2878 2564 1749
2879 5057 8032
2880 5958 250 
2881 1433 316 
2882 839  7145
2883 6420 6413
2884 8622 5226
2885 3698 1014
2886 4699 7896
2887 1188 8805
2888 1310 5865
2889 1994 103 
2890 4661 671 
2891 3108 8758
2892 4326 5105
2893 6177 1782
2894 4197 2379
2895 929  5466
2896 5754 585 
2897 388  5744
2898 2244 1531
2899 6938 3743
2900 5155 7794
2901 1074 3155
2902 9716 9096
2903 9748 9819
2904 3579 5396
2905 4049 4459
2906 2623 2554
2907 7420 6056
2908 7009 175 
2909 3263 5206
2910 3294 305 
2911 8278 1163
2912 1818 333 
2913 5904 6450
2914 7937 7073
2915 5801 6651
2916 8485 9485
2917 5094 803 
2918 3125 2910
2919 1693 5613
2920 966  1786
2921 5278 9330
2922 185  8368
2923 3129 8997
2924 1374 8427
2925 5849 9197
2926 7112 6921
2927 4344 9506
2928 3639 762 
2929 2676 5349
2930 6072 3713
2931 5008 7751
2932 1873 1746
2933 5371 8858
2934 4535 7281
2935 4583 173 
2936 4917 6558
2937 3954 5119
2938 1376 7465
2939 5467 9398
2940 788  4858
2941 1341 5074
2942 9789 1181
2943 1210 6908
2944 2563 5013
2945 7981 102 
2946 5642 564 
2947 5591 5935
2948 4690 1023
2949 2219 6380
2950 2052 3849
2951 3852 3694
2952 3790 7903
2953 200  6059
2954 8748 7751
2955 3462 2241
2956 5038 8152
2957 7446 5957
2958 5244 9174
2959 5100 3141
2960 4473 9453
2961 3642 2085
2962 5084 5263
2963 2882 739 
2964 76   6869
2965 9369 7197
2966 3976 1177
2967 1197 6465
2968 229  4752
2969 622  6725
2970 3397 1617
2971 1618 3025
2972 8848 7220
2973 2182 8986
2974 8539 2787
2975 3386 1593
2976 6913 5772
2977 5072 1316
2978 2164 1205
2979 4338 7342
2980 4387 6836
2981 340  4321
2982 2491 3091
2983 9377 7503
2984 5163 8535
2985 2867 3136
2986 7300 1983
2987 370  2091
2988 6962 5335
2989 4353 6805
2990 3941 2795
2991 4045 4036
2992 4870 97  
2993 7475 7471
2994 5292 7231
2995 7061 9727
2996 2127 5746
2997 4312 2366
2998 5397 3417
2999 8391 1390
3000 9923 1468
3001 4830 5744
3002 709  4544
3003 9504 8445
3004 5517 6753
3005 4706 5321
3006 2229 6683
3007 9687 9641
3008 4193 8043
3009 970  9731
3010 2514 7341
3011 8510 3061
3012 7588 7813
3013 6715 3859
3014 8850 5434
3015 8058 1599
3016 4119 397 
3017 7441 6341
3018 6982 2279
3019 4981 4896
3020 7802 5379
3021 6381 2289
3022 7561 4560
3023 4544 80  
3024 1300 4360
3025 5514 8456
3026 166  2663
3027 316  188 
3028 2070 4847
3029 4445 2421
3030 163  7891
3031 905  5701
3032 4475 962 
3033 2492 825 
3034 206  6858
3035 4949 514 
3036 4153 6298
3037 279  8885
3038 3184 672 
3039 6026 8577
3040 5681 3223
3041 379  6042
3042 1741 5858
3043 1420 1613
3044 6838 1317
3045 6437 2292
3046 5590 3656
3047 9939 1180
3048 2723 6806
3049 3303 2939
3050 9011 2801
3051 9468 5696
3052 103  5565
3053 130  7206
3054 8306 3352
3055 5209 9509
3056 1652 7199
3057 2733 2683
3058 3514 5904
3059 9199 1550
3060 9222 1807
3061 3456 5698
3062 2906 6841
3063 207  9004
3064 4405 7513
3065 956  7076
3066 3099 2235
3067 5176 4551
3068 294  5099
3069 4525 6809
3070 4215 2595
3071 1828 7673
3072 9919 1803
3073 1633 7768
3074 7092 2499
3075 6170 67  
3076 2031 5348
3077 8808 8187
3078 2295 9846
3079 2602 3225
3080 5443 3998
3081 8178 7305
3082 7297 8295
3083 3175 3528
3084 3805 9466
3085 4059 1373
3086 7416 372 
3087 1900 8802
3088 2510 7345
3089 7289 234 
3090 3524 4307
3091 4235 9449
3092 9918 5526
3093 9543 6174
3094 8754 8774
3095 5148 2356
3096 423  574 
3097 4921 4137
3098 8970 5442
3099 17   3836
3100 5919 2674
3101 4143 7381
3102 609  9327
3103 3197 3831
3104 9641 3428
3105 8613 7036
3106 4342 5183
3107 6786 7803
3108 9064 4707
3109 803  4650
3110 5574 5343
3111 9070 6700
3112 6876 7170
3113 4521 9195
3114 6398 3134
3115 7097 1923
3116 7066 1266
3117 1400 7124
3118 4259 9093
3119 4403 3399
3120 6743 1583
3121 2112 4298
3122 1525 1804
3123 2599 6710
3124 2538 9931
3125 5101 7682
3126 3918 69  
3127 1710 6201
3128 4489 9500
3129 2606 1421
3130 127  2102
3131 6517 5930
3132 7222 4903
3133 3937 9020
3134 8930 7279
3135 658  1150
3136 2903 4441
3137 3328 5467
3138 3968 6862
3139 582  405 
3140 4983 3227
3141 364  6741
3142 1301 2030
3143 127  7261
3144 1037 2020
3145 3544 9338
3146 9940 5562
3147 8395 4868
3148 6452 8054
3149 3792 2308
3150 2983 1441
3151 3238 3814
3152 6547 4433
3153 3835 9587
3154 9882 6684
3155 813  1382
3156 736  4837
3157 5458 6004
3158 9090 455 
3159 220  946 
3160 281  8703
3161 5896 1366
3162 1234 7259
3163 1470 1651
3164 3003 8122
3165 2316 7008
3166 1071 1493
3167 787  214 
3168 2643 9933
3169 5928 9340
3170 5969 9134
3171 4666 9135
3172 6030 1898
3173 8222 271 
3174 4172 5901
3175 5735 4472
3176 9320 9225
3177 7709 8790
3178 2250 3381
3179 7117 3529
3180 9291 9746
3181 9862 8497
3182 1766 3058
3183 8559 6488
3184 6369 4306
3185 7291 3484
3186 457  27  
3187 9040 9982
3188 7459 3105
3189 223  6469
3190 7865 2042
3191 6226 9680
3192 3422 5738
3193 9616 7160
3194 4173 9196
3195 8761 7684
3196 3342 626 
3197 8194 3755
3198 6627 1990
3199 5237 4625
3200 2182 2897
3201 3937 6772
3202 2992 1585
3203 7710 5539
3204 1842 2500
3205 9387 1654
3206 2593 2639
3207 4255 2929
3208 7773 2797
3209 1595 9931
3210 1850 8272
3211 8778 9472
3212 9693 794 
3213 7575 4967
3214 158  6829
3215 5320 6437
3216 9771 4452
3217 5617 585 
3218 4184 6581
3219 3928 4277
3220 1519 2490
3221 2472 5882
3222 1269 6959
3223 7940 8713
3224 4896 751 
3225 3061 256 
3226 4522 4742
3227 4338 3674
3228 1324 8095
3229 266  2132
3230 7746 3704
3231 6758 7599
3232 1879 359 
3233 6214 5316
3234 7134 5621
3235 3117 8963
3236 9406 8642
3237 6079 9494
3238 8990 144 
3239 8008 690 
3240 4214 7147
3241 2665 4146
3242 587  754 
3243 6779 1890
3244 9438 6982
3245 2904 1790
3246 9016 5267
3247 4603 1012
3248 3711 7982
3249 6304 7495
3250 5318 574 
3251 3818 9138
3252 9686 5732
3253 2450 5734
3254 6154 5006
3255 200  2589
3256 6846 819 
3257 6436 6495
3258 5849 2152
3259 8581 1666
3260 4192 1180
3261 7950 2923
3262 4739 5007
3263 285  6300
3264 2026 1521
3265 7396 741 
3266 7929 2034
3267 5823 8179
3268 1843 8336
3269 232  1205
3270 7687 2828
3271 7440 8896
3272 6057 7533
3273 1935 2358
3274 7606 6423
3275 1034 9930
3276 7231 922 
3277 3681 8869
3278 9446 6516
3279 4035 5087
3280 172  8863
3281 216  6304
3282 6519 3589
3283 7236 2415
3284 3393 1167
3285 8925 6404
3286 9855 6142
3287 680  25  
3288 9074 8269
3289 7327 8189
3290 895  6918
3291 9191 9868
3292 9139 2394
3293 5663 3600
3294 7934 2172
3295 7381 5220
3296 6091 3701
3297 7769 547 
3298 9885 6106
3299 404  8027
3300 2516 1360
3301 7388 7327
3302 5742 8170
3303 2134 5307
3304 5222 5215
3305 7933 9248
3306 8919 3296
3307 5109 7595
3308 7960 331 
3309 2159 3350
3310 5812 3703
3311 498  5420
3312 3728 9928
3313 6105 7507
3314 574  3549
3315 6228 6013
3316 4046 6668
3317 2794 8856
3318 7064 1175
3319 9089 8436
3320 3672 1268
3321 6934 2100
3322 4511 8178
3323 9608 4726
3324 5169 8670
3325 3272 1149
3326 2655 5655
3327 7046 9612
3328 5341 4688
3329 8302 6390
3330 7388 4489
3331 496  4470
3332 1244 258 
3333 1064 1960
3334 3802 1700
3335 6071 1370
3336 9197 7123
3337 9446 8721
3338 341  5293
3339 377  637 
3340 4479 3720
3341 7039 2020
3342 2184 3147
3343 943  7488
3344 1142 3088
3345 1035 9123
3346 5544 7475
3347 4205 7404
3348 293  5605
3349 5862 9030
3350 731  2936
3351 9894 3996
3352 1129 5621
3353 4599 5277
3354 8924 9687
3355 6460 5782
3356 3292 1776
3357 6213 1678
3358 6520 6265
3359 4255 1773
3360 3352 2892
3361 9435 34  
3362 3115 3890
3363 650  2917
3364 3961 6512
3365 6877 3356
3366 2567 2671
3367 1136 4895
3368 9932 2821
3369 7215 3804
3370 927  9974
3371 8605 6146
3372 5136 3091
3373 4634 5261
3374 1725 2107
3375 9370 9850
3376 2606 9694
3377 4807 8216
3378 254  3208
3379 8717 9627
3380 88   290 
3381 655  1618
3382 1907 1357
3383 1344 1993
3384 6739 3053
3385 2252 381 
3386 8466 2282
3387 4330 8767
3388 6719 6955
3389 1645 7074
3390 6728 5197
3391 8476 2103
3392 3481 4384
3393 4394 2874
3394 124  1158
3395 8946 576 
3396 2423 10  
3397 5415 8506
3398 4142 5843
3399 2930 2798
3400 7753 4086
3401 8338 7546
3402 986  7368
3403 6144 3184
3404 9203 4012
3405 8787 1709
3406 354  4477
3407 973  8366
3408 5988 6386
3409 107  4258
3410 5374 2377
3411 8251 1612
3412 9998 1010
3413 9974 3898
3414 3830 5004
3415 5437 6484
3416 1604 8186
3417 8234 4469
3418 2717 5250
3419 9878 1384
3420 6757 2741
3421 7599 7248
3422 185  2633
3423 9086 2497
3424 2832 4068
3425 2438 864 
3426 1028 5742
3427 5391 3489
3428 2724 409 
3429 8729 8828
3430 1339 2048
3431 9963 1930
3432 9851 2452
3433 346  3771
3434 1135 2242
3435 1423 404 
3436 7624 2337
3437 2383 4661
3438 2527 7653
3439 9488 5660
3440 2626 7313
3441 35   1134
3442 6818 7719
3443 9019 315 
3444 1964 2843
3445 2206 521 
3446 6332 1399
3447 9824 8519
3448 287  1932
3449 1139 9368
3450 4719 3997
3451 9483 89  
3452 7466 9347
3453 1294 2769
3454 2269 1564
3455 9421 9154
3456 8015 9945
3457 6136 4518
3458 1138 5851
3459 8846 4647
3460 2623 3057
3461 6739 889 
3462 4462 5812
3463 5048 8030
3464 474  4846
3465 1284 4681
3466 1386 1348
3467 3263 5810
3468 2371 2605
3469 7111 690 
3470 3140 9136
3471 2565 6105
3472 6371 1403
3473 8765 6032
3474 3074 6045
3475 3788 6297
3476 8740 1326
3477 5552 8700
3478 3251 6008
3479 4394 8117
3480 5944 9506
3481 844  638 
3482 9917 4836
3483 4629 935 
3484 6348 9161
3485 8097 321 
3486 6987 7891
3487 2079 4295
3488 9175 6442
3489 8559 6282
3490 3812 1366
3491 7533 8008
3492 923  5730
3493 2734 8567
3494 6804 750 
3495 9172 6800
3496 9570 5798
3497 4480 8949
3498 3703 3824
3499 4265 9871
3500 7312 1865
3501 9225 9416
3502 6939 5625
3503 7560 3723
3504 6310 7043
3505 4009 6186
3506 963  6898
3507 8007 4836
3508 3281 8795
3509 568  6697
3510 5533 5308
3511 6770 7525
3512 4332 4741
3513 6102 7122
3514 8977 5817
3515 316  8891
3516 5323 9528
3517 6166 8858
3518 5395 5954
3519 5622 2002
3520 9025 2855
3521 46   7970
3522 6887 5271
3523 9796 5899
3524 1542 1543
3525 7565 5050
3526 2365 8618
3527 9742 1773
3528 720  7759
3529 9280 6782
3530 8426 5887
3531 6436 7750
3532 4425 8321
3533 2664 7820
3534 8968 6487
3535 4033 251 
3536 4622 6567
3537 8988 8571
3538 9596 4083
3539 7670 4931
3540 5007 692 
3541 4444 9239
3542 3723 9430
3543 4505 448 
3544 8140 1886
3545 5412 8632
3546 7656 559 
3547 2706 9066
3548 6784 1812
3549 9064 105 
3550 8399 9434
3551 7790 8485
3552 9417 3764
3553 4637 7230
3554 5636 2308
3555 2234 438 
3556 8338 8782
3557 6707 4793
3558 9055 5559
3559 8441 3784
3560 7690 4829
3561 3773 3066
3562 5151 7521
3563 7563 6788
3564 7484 9792
3565 2037 4006
3566 5073 2094
3567 1792 9378
3568 9027 699 
3569 8454 1263
3570 2173 901 
3571 327  7214
3572 3043 3799
3573 3122 8189
3574 8482 7811
3575 5659 9308
3576 91   3139
3577 6771 1022
3578 8064 3611
3579 6902 3640
3580 3091 3270
3581 8809 4584
3582 5904 3963
3583 3301 6806
3584 6421 3436
3585 7117 4351
3586 7712 4008
3587 4036 8254
3588 6611 4946
3589 8978 4342
3590 7599 404 
3591 166  4252
3592 942  2290
3593 2875 1401
3594 4090 7772
3595 7719 391 
3596 1108 713 
3597 9395 7203
3598 2959 1481
3599 2371 2042
3600 5110 5994
3601 4786 7796
3602 6388 5527
3603 8813 8731
3604 4911 6364
3605 7273 2800
3606 3365 4975
3607 5167 8082
3608 5027 1063
3609 5314 2129
3610 257  4639
3611 6165 1774
3612 3756 3759
3613 4910 9977
3614 4286 2274
3615 884  3089
3616 6728 1701
3617 1714 8513
3618 1147 9558
3619 1570 8721
3620 974  4702
3621 6779 9903
3622 4630 6578
3623 6787 6438
3624 9709 9514
3625 471  868 
3626 7797 57  
3627 9599 4125
3628 5839 1944
3629 4321 5315
3630 5110 3533
3631 7630 7667
3632 8639 1604
3633 3725 5796
3634 9287 8717
3635 1366 91  
3636 1693 8695
3637 756  3433
3638 703  8259
3639 6305 4628
3640 6996 8720
3641 8447 6428
3642 1075 5608
3643 8338 2712
3644 4226 7221
3645 5913 7705
3646 6231 4867
3647 9448 5522
3648 9478 6701
3649 3732 5094
3650 6991 4132
3651 1538 5912
3652 6460 5952
3653 717  3391
3654 127  89  
3655 1554 7149
3656 2462 826 
3657 5110 5241
3658 9162 6372
3659 6159 7767
3660 8210 69  
3661 647  3853
3662 9297 267 
3663 545  6514
3664 4444 27  
3665 8547 3056
3666 1236 5711
3667 8467 1387
3668 9229 2891
3669 5860 5981
3670 973  1271
3671 6696 9901
3672 6902 9453
3673 5282 4210
3674 1316 399 
3675 9843 689 
3676 4950 9683
3677 4508 1467
3678 3841 7837
3679 4500 2351
3680 8478 2436
3681 8386 4004
3682 7922 6420
3683 268  9589
3684 4936 5561
3685 7433 3770
3686 675  4918
3687 817  9918
3688 1443 1737
3689 987  305 
3690 664  9495
3691 6538 9530
3692 1529 9237
3693 9695 2110
3694 5514 5248
3695 3738 6867
3696 2142 5042
3697 4398 6864
3698 1433 6884
3699 6374 3907
3700 1274 8069
3701 6084 56  
3702 7686 688 
3703 2587 9238
3704 1461 2095
3705 9535 4228
3706 425  4995
3707 6706 3903
3708 608  5214
3709 8406 7134
3710 558  3388
3711 8501 8345
3712 5606 6514
3713 1800 5845
3714 5021 7381
3715 6848 5712
3716 7473 5219
3717 2323 5709
3718 2818 5253
3719 3154 3956
3720 8848 2866
3721 2452 6298
3722 6810 6944
3723 8709 3527
3724 6795 5308
3725 9945 761 
3726 9355 6934
3727 9049 3776
3728 5133 8360
3729 8700 96  
3730 6017 1930
3731 7094 159 
3732 9873 1233
3733 4098 390 
3734 3651 6750
3735 9111 873 
3736 2300 5027
3737 6528 2759
3738 5863 842 
3739 7013 9719
3740 2528 289 
3741 7727 2907
3742 645  356 
3743 9411 7469
3744 2303 1690
3745 1563 8301
3746 59   2224
3747 2127 9355
3748 8980 2099
3749 2707 564 
3750 5294 9276
3751 7735 6917
3752 7552 64  
3753 8488 9153
3754 9166 8516
3755 3971 2546
3756 6141 823 
3757 6520 9133
3758 7827 7139
3759 4314 4721
3760 7700 8380
3761 4556 7294
3762 8449 3083
3763 3838 5179
3764 8550 9064
3765 4278 5199
3766 4509 8672
3767 4594 2131
3768 3343 5778
3769 3843 2909
3770 2381 7272
3771 400  9490
3772 5049 5596
3773 9206 5248
3774 2451 3689
3775 8017 5052
3776 6741 8988
3777 5964 5849
3778 7499 8512
3779 3348 8060
3780 7578 8049
3781 6530 866 
3782 9939 4096
3783 632  7436
3784 1731 4314
3785 3625 6355
3786 4368 2477
3787 6399 2182
3788 827  436 
3789 6049 5433
3790 479  9234
3791 4357 2040
3792 3350 1188
3793 7108 9667
3794 8826 5489
3795 3433 4647
3796 3120 2312
3797 6267 2329
3798 8145 9217
3799 4623 1994
3800 1913 5914
3801 2704 9398
3802 772  4108
3803 6345 108 
3804 4605 6454
3805 8001 9715
3806 7549 1604
3807 9906 4894
3808 5749 1039
3809 2727 964 
3810 9681 342 
3811 888  8107
3812 6820 6132
3813 9976 7017
3814 9984 3131
3815 4102 8007
3816 8072 3319
3817 3053 8046
3818 7526 94  
3819 5552 9728
3820 4966 4580
3821 2527 4125
3822 4192 3808
3823 6785 7481
3824 7659 3201
3825 1482 2107
3826 3711 5240
3827 799  663 
3828 7653 3734
3829 3312 4301
3830 946  1900
3831 1182 7139
3832 340  447 
3833 4974 2610
3834 435  485 
3835 1859 572 
3836 1932 8337
3837 6315 204 
3838 5624 810 
3839 6406 677 
3840 880  6727
3841 5366 2531
3842 9655 7507
3843 393  6197
3844 7746 1269
3845 1817 9184
3846 8633 5819
3847 4460 4254
3848 7850 3171
3849 6496 9761
3850 8903 9743
3851 401  1408
3852 6721 7387
3853 6921 2290
3854 8737 2858
3855 8046 2693
3856 6822 7261
3857 3957 6749
3858 6737 6114
3859 9397 6623
3860 8968 637 
3861 9988 5270
3862 541  8995
3863 6543 6377
3864 4865 9757
3865 6692 3433
3866 6323 2502
3867 3574 4497
3868 5721 8825
3869 5973 1155
3870 5427 1059
3871 7391 7499
3872 1850 1582
3873 7510 6360
3874 778  5610
3875 1512 8864
3876 807  5362
3877 5392 5852
3878 6114 7777
3879 1463 1326
3880 1280 1727
3881 8051 877 
3882 5391 9897
3883 6544 2638
3884 7823 4878
3885 5356 3497
3886 624  4593
3887 4056 6513
3888 6929 9344
3889 9928 2058
3890 4308 8395
3891 5409 5948
3892 2645 7915
3893 7089 8656
3894 1821 6362
3895 827  3962
3896 2465 9996
3897 210  1944
3898 2674 3333
3899 7639 5216
3900 2373 8354
3901 1720 9237
3902 7811 1550
3903 5177 5162
3904 4039 4740
3905 8068 7898
3906 7844 6294
3907 3601 8471
3908 7101 1691
3909 5256 2178
3910 9845 9056
3911 8106 6564
3912 7970 2780
3913 4716 9765
3914 8184 7683
3915 1978 8906
3916 9882 9191
3917 2920 6129
3918 4900 3828
3919 4201 9325
3920 7502 9969
3921 8003 9430
3922 9073 7787
3923 72   2139
3924 7514 121 
3925 1322 8392
3926 7275 6727
3927 4832 5141
3928 3341 1379
3929 1601 3674
3930 5057 4365
3931 4424 907 
3932 9684 7199
3933 5092 4018
3934 4814 152 
3935 7366 8478
3936 9984 4880
3937 3430 9634
3938 5603 9499
3939 1409 9589
3940 2286 8586
3941 5811 4433
3942 9112 1146
3943 265  3422
3944 2774 3371
3945 3918 4393
3946 8773 7389
3947 9259 5995
3948 3976 343 
3949 4161 6359
3950 2746 8769
3951 3841 531 
3952 1211 195 
3953 7498 873 
3954 7525 4515
3955 3379 169 
3956 2697 2145
3957 4774 8331
3958 9013 2401
3959 8722 7910
3960 2953 8401
3961 7857 9082
3962 6092 1418
3963 3107 1095
3964 1404 839 
3965 587  2355
3966 5607 5879
3967 4499 8350
3968 2641 8934
3969 6802 578 
3970 8492 7340
3971 4499 5841
3972 4547 6302
3973 9263 4683
3974 215  1347
3975 2056 7336
3976 6560 7792
3977 2133 1170
3978 5562 8114
3979 9416 9785
3980 5015 2131
3981 2230 344 
3982 5149 221 
3983 9692 9712
3984 2746 1303
3985 9984 6572
3986 6157 7188
3987 5560 3615
3988 9279 2726
3989 1566 2906
3990 9716 2124
3991 153  4121
3992 605  7094
3993 8309 2729
3994 9880 7459
3995 6865 1018
3996 5024 3631
3997 2192 7081
3998 1312 115 
3999 2729 3715
4000 503  2952
4001 934  6850
4002 3622 3351
4003 8182 3495
4004 3089 3543
4005 1473 160 
4006 6880 1608
4007 1332 5973
4008 9148 8393
4009 3504 2402
4010 3470 2023
4011 2446 2107
4012 4019 4834
4013 9746 8983
4014 9681 6973
4015 6694 1623
4016 6475 219 
4017 5821 7779
4018 7168 2622
4019 2050 9445
4020 2885 2615
4021 5460 8433
4022 9299 6507
4023 162  292 
4024 7817 2183
4025 4185 1726
4026 7323 7631
4027 1576 171 
4028 8902 8853
4029 723  5614
4030 6911 6577
4031 5693 3137
4032 2112 2278
4033 9073 1590
4034 1178 2407
4035 9138 7071
4036 1490 1749
4037 3822 7485
4038 4290 7834
4039 6365 5830
4040 6816 9088
4041 8096 5145
4042 8293 600 
4043 6271 7404
4044 4748 7039
4045 224  5130
4046 5373 9187
4047 9127 971 
4048 3715 2554
4049 2213 9413
4050 2632 2647
4051 8457 4649
4052 7422 5501
4053 2532 2032
4054 8310 7913
4055 1218 1517
4056 5313 3708
4057 193  9127
4058 7517 3644
4059 974  7109
4060 209  8999
4061 1802 4688
4062 8495 4807
4063 3132 7374
4064 7286 7713
4065 367  8176
4066 324  9963
4067 1853 8902
4068 4694 4974
4069 6521 7905
4070 270  6435
4071 7316 2994
4072 6829 9536
4073 6724 8764
4074 2835 1523
4075 1283 8598
4076 4187 4920
4077 6322 8472
4078 5576 3466
4079 5624 5839
4080 7131 2477
4081 7918 5901
4082 9121 2792
4083 6355 1155
4084 4207 4082
4085 6175 8084
4086 370  8906
4087 7185 4210
4088 1013 9966
4089 4571 7130
4090 6786 615 
4091 8376 5224
4092 1851 3189
4093 8697 3647
4094 8296 3040
4095 3311 3072
4096 5776 7554
4097 7558 9913
4098 2490 2238
4099 1800 6512
4100 9546 9698
4101 5800 4522
4102 6168 4408
4103 653  5586
4104 4267 5528
4105 5305 1160
4106 6811 9244
4107 6595 7404
4108 7125 6779
4109 6865 5533
4110 3194 4962
4111 2207 886 
4112 7655 9546
4113 3655 8918
4114 9582 4872
4115 5527 1299
4116 6844 7455
4117 974  7967
4118 200  8171
4119 726  2673
4120 1576 7284
4121 5896 7667
4122 3893 7504
4123 7823 8516
4124 6587 3394
4125 6982 9040
4126 158  6744
4127 5130 5122
4128 222  3323
4129 7399 4771
4130 2304 4149
4131 3781 3882
4132 6869 5248
4133 8793 8248
4134 1245 6561
4135 3321 9600
4136 367  2955
4137 6542 9646
4138 2796 9654
4139 2131 2492
4140 7832 9415
4141 5994 4711
4142 3305 2819
4143 1535 8374
4144 7120 3680
4145 2678 8733
4146 1686 7165
4147 4309 7481
4148 8029 9725
4149 7685 8112
4150 1998 30  
4151 5397 3164
4152 9656 7888
4153 1144 325 
4154 9554 8814
4155 9979 8371
4156 3598 3372
4157 9137 825 
4158 2307 5523
4159 8515 8742
4160 3958 8957
4161 4051 8020
4162 4581 3165
4163 5033 5113
4164 6129 3951
4165 4493 7352
4166 5344 6292
4167 2656 654 
4168 7886 6617
4169 9202 6276
4170 700  9288
4171 5923 9320
4172 9476 4568
4173 1403 7135
4174 1669 9474
4175 164  6526
4176 7746 3571
4177 586  5508
4178 7335 3098
4179 7306 6929
4180 6615 9596
4181 3153 2976
4182 5924 6832
4183 4509 2711
4184 2950 8429
4185 8229 8987
4186 1695 4066
4187 7680 3232
4188 814  3327
4189 9698 2002
4190 6170 6441
4191 8725 4803
4192 6873 5947
4193 2090 544 
4194 3854 1204
4195 374  7541
4196 302  9706
4197 7798 4728
4198 725  9877
4199 6382 5246
4200 2114 4981
4201 1243 4173
4202 7560 2356
4203 7555 6547
4204 8036 4404
4205 2374 8794
4206 6821 6429
4207 865  2036
4208 8948 9859
4209 5585 960 
4210 1767 6308
4211 4208 4160
4212 3212 9169
4213 4254 8478
4214 7654 9711
4215 8598 7423
4216 5546 1257
4217 1095 279 
4218 8936 2873
4219 8883 5094
4220 9902 3123
4221 5974 4241
4222 9310 5367
4223 609  5169
4224 6797 3014
4225 111  4491
4226 488  1011
4227 2856 7451
4228 6930 85  
4229 7251 6332
4230 2719 4969
4231 8757 6615
4232 137  5814
4233 1858 8564
4234 8193 2724
4235 3118 2630
4236 2782 7208
4237 4185 3923
4238 7371 6107
4239 3040 6070
4240 3036 2494
4241 3093 9856
4242 5932 8955
4243 9734 3837
4244 3737 1201
4245 9036 7692
4246 2931 7416
4247 5559 9408
4248 5433 1953
4249 9823 5474
4250 903  6749
4251 489  2918
4252 1755 1353
4253 8343 8694
4254 824  3824
4255 518  7264
4256 6509 3645
4257 9124 726 
4258 2754 8632
4259 6096 8824
4260 8021 9107
4261 2710 984 
4262 1563 7512
4263 1652 4769
4264 7683 5387
4265 5468 1667
4266 2578 9191
4267 9593 6477
4268 8338 4349
4269 774  6644
4270 4868 89  
4271 860  7200
4272 1484 1686
4273 5427 2718
4274 7893 9454
4275 8431 7299
4276 6794 3053
4277 57   9433
4278 3851 7318
4279 3440 8692
4280 9377 1693
4281 4401 774 
4282 42   8612
4283 4000 4654
4284 2509 7717
4285 7311 1674
4286 2689 2738
4287 413  9633
4288 6929 9923
4289 304  5472
4290 7600 39  
4291 725  2521
4292 6129 5256
4293 9346 9427
4294 9472 2005
4295 5926 9405
4296 9082 5399
4297 220  4354
4298 183  4494
4299 407  2261
4300 9479 5375
4301 3581 8656
4302 1699 846 
4303 1487 6107
4304 9975 6085
4305 6652 4900
4306 2178 7486
4307 933  8327
4308 4908 4868
4309 8896 9168
4310 5277 1210
4311 2803 308 
4312 1195 4036
4313 6774 8315
4314 8933 6188
4315 2656 1554
4316 3341 5723
4317 9583 4201
4318 6504 5317
4319 6792 2959
4320 3087 6124
4321 2287 5945
4322 8781 3588
4323 3805 703 
4324 1255 5203
4325 5915 2410
4326 1553 5301
4327 1711 9234
4328 9885 665 
4329 9721 9763
4330 4107 5488
4331 3868 2098
4332 3943 7354
4333 2989 6115
4334 7451 5266
4335 6737 5982
4336 7925 3496
4337 4223 8717
4338 257  5491
4339 8573 6328
4340 8190 1028
4341 821  7698
4342 5060 573 
4343 5333 4719
4344 9101 3416
4345 4232 6582
4346 2625 6766
4347 5399 4436
4348 8480 6918
4349 5592 4577
4350 743  1526
4351 7857 5819
4352 680  8921
4353 3346 5494
4354 4785 9702
4355 6172 4272
4356 2866 15  
4357 1776 926 
4358 339  1329
4359 8565 9405
4360 2668 2483
4361 4972 4498
4362 6400 2282
4363 8577 9085
4364 7697 239 
4365 2212 3584
4366 6674 6976
4367 719  3907
4368 7467 1705
4369 5750 720 
4370 7861 9534
4371 8164 8090
4372 9657 2944
4373 3960 621 
4374 8204 894 
4375 1211 1067
4376 5065 3858
4377 7874 816 
4378 759  7120
4379 9428 4824
4380 5913 4901
4381 6360 848 
4382 7001 3328
4383 1030 4855
4384 8942 3712
4385 3459 3014
4386 1253 8182
4387 4544 7614
4388 8774 8817
4389 7189 14  
4390 4820 1783
4391 4711 1518
4392 939  766 
4393 7790 2494
4394 2368 6222
4395 7868 7528
4396 3561 2429
4397 4777 6128
4398 3113 4555
4399 2332 2433
4400 4257 1756
4401 1094 8346
4402 8544 7965
4403 7246 4875
4404 4555 1287
4405 4626 3234
4406 612  1700
4407 1395 4283
4408 2208 2726
4409 6123 9882
4410 6002 5788
4411 2392 5591
4412 3668 8101
4413 1092 1857
4414 8392 2789
4415 5895 1237
4416 1148 8079
4417 5331 8704
4418 1765 7415
4419 2726 1530
4420 3465 2682
4421 7821 6145
4422 7445 3481
4423 9096 8280
4424 1006 8262
4425 2241 7434
4426 1260 9693
4427 5097 1613
4428 1999 8854
4429 5547 8062
4430 2310 1355
4431 1226 719 
4432 3994 7857
4433 7792 7252
4434 7083 8018
4435 347  3906
4436 4642 2395
4437 2894 4520
4438 5161 6298
4439 5443 2351
4440 4618 8753
4441 7000 3534
4442 5516 5828
4443 2002 5478
4444 1422 3296
4445 7733 4946
4446 6248 5871
4447 9570 4774
4448 3371 9544
4449 2373 4824
4450 3427 7157
4451 1190 7043
4452 4424 8626
4453 5767 362 
4454 8724 4499
4455 81   4782
4456 6439 3234
4457 3260 2826
4458 78   8153
4459 9002 4460
4460 6687 113 
4461 8368 4949
4462 826  2512
4463 2294 6559
4464 9593 4810
4465 8996 1066
4466 7760 8639
4467 4862 1012
4468 4696 3835
4469 7471 6549
4470 8172 3429
4471 6013 6639
4472 7976 4484
4473 1319 4521
4474 106  2920
4475 6053 7781
4476 1852 8400
4477 4545 9808
4478 6624 4205
4479 5748 8928
4480 9693 8868
4481 5394 8384
4482 1374 5402
4483 177  3904
4484 4687 8693
4485 2702 2855
4486 1273 3034
4487 5764 9781
4488 6217 4249
4489 7545 6014
4490 1305 3391
4491 9267 474 
4492 3242 1326
4493 4433 249 
4494 7108 707 
4495 1466 7018
4496 8315 4319
4497 9609 9176
4498 1898 8246
4499 6322 3124
4500 3112 8815
4501 9571 7993
4502 1851 8276
4503 8687 1500
4504 1055 8620
4505 4721 8856
4506 1321 5195
4507 6741 80  
4508 2464 5725
4509 939  8295
4510 8769 5869
4511 3553 1070
4512 7833 1081
4513 479  4496
4514 6659 9395
4515 2064 1689
4516 8269 6782
4517 8128 5890
4518 292  1117
4519 703  2173
4520 6020 9449
4521 6137 4267
4522 6889 5839
4523 8542 1998
4524 6795 2367
4525 6385 8935
4526 2000 609 
4527 8135 9828
4528 960  4454
4529 3480 7810
4530 851  7658
4531 4475 9826
4532 9844 2542
4533 9735 9326
4534 7877 5862
4535 5511 4422
4536 1700 8208
4537 1929 1669
4538 9221 1276
4539 68   4318
4540 2395 3969
4541 4025 6289
4542 4501 8860
4543 5942 8303
4544 7010 6634
4545 6237 6584
4546 8779 2709
4547 6991 4826
4548 5662 5019
4549 4473 413 
4550 6122 7144
4551 1208 5053
4552 75   3748
4553 283  7054
4554 2730 4497
4555 8924 3133
4556 1406 8724
4557 4278 1050
4558 5157 4594
4559 2453 4855
4560 878  8379
4561 988  3456
4562 3170 5871
4563 2049 5245
4564 1041 752 
4565 2245 7761
4566 2150 7797
4567 5834 8602
4568 5957 5340
4569 5164 1140
4570 2995 4442
4571 4721 4315
4572 6313 5932
4573 4245 7507
4574 7059 63  
4575 942  7466
4576 9445 3406
4577 1601 9957
4578 23   8687
4579 5395 1430
4580 1078 1500
4581 2589 7129
4582 2461 345 
4583 6239 3484
4584 2827 9003
4585 1549 9678
4586 6691 8114
4587 6137 2208
4588 5639 2513
4589 2172 7289
4590 8538 4300
4591 7340 6632
4592 3484 4837
4593 9235 434 
4594 7075 6988
4595 7345 4413
4596 7437 7225
4597 9490 5777
4598 2383 1866
4599 1824 7057
4600 4552 8286
4601 3962 2366
4602 3884 6154
4603 3160 3412
4604 8671 8796
4605 2699 8877
4606 2687 477 
4607 2200 5917
4608 1226 519 
4609 614  1588
4610 8776 4915
4611 7405 5031
4612 8348 6388
4613 9299 5430
4614 5978 396 
4615 9406 1030
4616 8203 5520
4617 9990 7283
4618 5263 3832
4619 2247 5761
4620 2818 2056
4621 8813 890 
4622 205  5510
4623 9744 9427
4624 1116 1740
4625 5315 2638
4626 5415 5123
4627 6593 1205
4628 7667 4287
4629 7097 2353
4630 6165 7100
4631 978  1093
4632 5105 9205
4633 1687 9749
4634 4553 5183
4635 5097 3846
4636 4227 6551
4637 6361 1459
4638 9327 7423
4639 7556 8795
4640 4424 7156
4641 7303 883 
4642 4858 3461
4643 6042 3853
4644 1545 371 
4645 5424 9971
4646 9079 6718
4647 2028 1914
4648 6489 6380
4649 441  5836
4650 5598 19  
4651 5353 3640
4652 8702 6105
4653 5888 7265
4654 4518 8135
4655 8855 3615
4656 7892 9464
4657 5270 3209
4658 1890 7769
4659 113  9676
4660 3124 3813
4661 4887 4795
4662 1503 2270
4663 1112 8768
4664 8135 3010
4665 647  6883
4666 3675 658 
4667 9137 4843
4668 6950 320 
4669 8664 1634
4670 6370 3490
4671 4279 2956
4672 428  5495
4673 6149 5751
4674 1301 4079
4675 6032 9502
4676 468  1631
4677 443  299 
4678 6026 535 
4679 84   559 
4680 3216 5080
4681 7277 437 
4682 5332 9595
4683 8918 3061
4684 7648 3483
4685 3442 1752
4686 126  3433
4687 6221 1391
4688 3851 1750
4689 4507 6992
4690 8464 3699
4691 501  999 
4692 3885 3563
4693 580  4774
4694 5717 2019
4695 1232 5084
4696 4148 2884
4697 1841 78  
4698 9554 2698
4699 6691 3237
4700 378  2392
4701 3674 9193
4702 3986 8669
4703 938  1646
4704 6364 7585
4705 2187 2279
4706 2856 4803
4707 5478 3430
4708 7904 2323
4709 6476 1095
4710 9253 530 
4711 604  520 
4712 1267 376 
4713 4940 5714
4714 1375 7761
4715 3085 5300
4716 379  6388
4717 9324 4097
4718 1950 244 
4719 1141 6665
4720 4488 7517
4721 7788 5776
4722 4157 7022
4723 7717 4764
4724 3187 6526
4725 8261 2723
4726 8425 8238
4727 8338 6316
4728 3839 4807
4729 2109 9918
4730 8304 9385
4731 912  2240
4732 7267 4445
4733 3832 9270
4734 783  9038
4735 6998 5204
4736 2074 7126
4737 4456 3998
4738 2645 7014
4739 443  3648
4740 5780 9847
4741 2687 6482
4742 7630 5446
4743 555  6903
4744 7021 6524
4745 4784 8416
4746 7174 12  
4747 3156 4497
4748 1272 5706
4749 9762 6724
4750 1695 4134
4751 4945 7232
4752 5197 1722
4753 9300 1867
4754 9139 9004
4755 1972 2409
4756 8066 2673
4757 1661 7954
4758 944  2596
4759 5795 9143
4760 8479 9070
4761 1197 9658
4762 3313 7715
4763 4384 6793
4764 4617 8243
4765 9906 1721
4766 5733 395 
4767 5602 1183
4768 2632 790 
4769 1681 7104
4770 2871 3933
4771 9961 4268
4772 6071 7652
4773 8677 7440
4774 7660 3347
4775 1183 8922
4776 8935 9604
4777 857  8224
4778 2322 9533
4779 4512 3551
4780 7907 9191
4781 3935 5150
4782 4163 3985
4783 8838 8431
4784 9304 6835
4785 6099 3580
4786 9711 985 
4787 8279 7734
4788 5893 2130
4789 5059 619 
4790 5645 1161
4791 7827 1610
4792 6034 6184
4793 3760 6668
4794 1982 9350
4795 3646 7457
4796 1843 6416
4797 5483 6441
4798 919  5896
4799 8278 1509
4800 3759 6987
4801 9293 6130
4802 86   5446
4803 1858 5935
4804 2499 327 
4805 9083 3830
4806 7853 2988
4807 848  996 
4808 6884 6866
4809 4413 5589
4810 6246 1438
4811 255  9112
4812 3943 1724
4813 1503 3043
4814 2663 9949
4815 6062 587 
4816 2763 8881
4817 1632 2511
4818 4810 4010
4819 1930 9383
4820 5373 4064
4821 5292 9701
4822 7061 6847
4823 8140 6974
4824 1952 5577
4825 5082 3590
4826 9154 9609
4827 5293 408 
4828 4038 5185
4829 2152 7452
4830 4818 2207
4831 5990 571 
4832 3103 1569
4833 1671 1155
4834 4866 5446
4835 5806 9700
4836 7702 5530
4837 1252 1068
4838 5145 5582
4839 2997 4618
4840 2677 2790
4841 7319 7815
4842 6902 288 
4843 3468 8104
4844 1739 358 
4845 4686 8534
4846 3532 9359
4847 8741 6987
4848 3984 8868
4849 1934 9362
4850 5862 6656
4851 4176 1845
4852 2284 5347
4853 8970 1086
4854 6982 9185
4855 843  1955
4856 1123 1771
4857 6642 6608
4858 1381 9236
4859 2320 2048
4860 9112 6658
4861 3681 9692
4862 5333 8556
4863 2592 4028
4864 6631 8948
4865 6934 2004
4866 6953 1581
4867 8441 7755
4868 1701 6660
4869 8922 2753
4870 216  2492
4871 5834 7385
4872 7461 8942
4873 9632 4145
4874 9550 2991
4875 4628 7091
4876 8523 6479
4877 4553 1944
4878 5886 8620
4879 6544 8516
4880 2954 6508
4881 6132 6400
4882 708  4472
4883 6650 1287
4884 9686 5830
4885 1394 9699
4886 243  3376
4887 8216 3995
4888 2829 9232
4889 5169 3225
4890 7150 4270
4891 5935 2916
4892 766  1348
4893 2249 191 
4894 3796 7793
4895 9856 8693
4896 5222 4070
4897 8479 1107
4898 2675 9543
4899 8929 1060
4900 8766 9328
4901 4023 7276
4902 9988 9739
4903 7785 9556
4904 8204 8920
4905 6356 829 
4906 4255 2019
4907 8709 5341
4908 3629 5178
4909 4182 5031
4910 9030 663 
4911 4580 1599
4912 6672 4326
4913 2281 3055
4914 9788 8733
4915 3954 5572
4916 7131 9203
4917 280  2095
4918 3192 4835
4919 835  6290
4920 9059 242 
4921 9288 2044
4922 361  9125
4923 6038 5532
4924 8857 5961
4925 2980 4476
4926 8020 1305
4927 2577 6291
4928 82   66  
4929 253  2399
4930 8373 8740
4931 1604 652 
4932 6341 3872
4933 4930 4079
4934 4783 4974
4935 9255 2850
4936 6182 5619
4937 6389 7488
4938 1084 3203
4939 5440 8876
4940 5247 1314
4941 6556 512 
4942 6815 7385
4943 2031 7396
4944 8162 8083
4945 5609 6753
4946 2102 7866
4947 5869 9850
4948 536  3716
4949 6901 159 
4950 740  6979
4951 3984 4143
4952 2819 9793
4953 7971 9121
4954 7144 8810
4955 2573 2353
4956 8575 8571
4957 6571 5819
4958 3234 1337
4959 6156 4874
4960 9760 4611
4961 7014 8879
4962 7262 8513
4963 4116 4185
4964 744  2388
4965 8234 2132
4966 698  1553
4967 3574 3036
4968 4157 3781
4969 8214 6325
4970 2945 8483
4971 8455 2176
4972 3012 6737
4973 892  5571
4974 5912 7886
4975 3756 991 
4976 4204 5195
4977 4741 6305
4978 9827 3660
4979 5547 8446
4980 5714 4965
4981 7081 4323
4982 9817 2982
4983 1091 8242
4984 8388 2902
4985 3745 4316
4986 4811 8379
4987 3974 3660
4988 8031 7134
4989 1163 4409
4990 6046 1336
4991 2354 8172
4992 4304 8508
4993 7178 3637
4994 9795 60  
4995 486  7512
4996 8525 1128
4997 5602 4425
4998 7306 7622
4999 1082 6102
5000 209  1314
5001 6920 5468
5002 2279 4956
5003 878  1204
5004 8865 6708
5005 4351 4197
5006 3134 5149
5007 9718 8157
5008 5066 2688
5009 7799 4859
5010 899  7591
5011 3224 6293
5012 6264 8020
5013 1972 7609
5014 9032 5709
5015 7414 7638
5016 729  3218
5017 2963 260 
5018 8371 8219
5019 9230 3597
5020 420  4025
5021 5750 1352
5022 2238 9541
5023 1816 1567
5024 1200 4524
5025 4835 616 
5026 3294 4060
5027 1851 6923
5028 347  197 
5029 9412 2453
5030 3230 2328
5031 7886 4406
5032 7827 8348
5033 6629 7824
5034 3846 6086
5035 3036 7351
5036 5326 7238
5037 802  3638
5038 7844 438 
5039 3692 6269
5040 1923 7844
5041 2797 4330
5042 1495 9413
5043 5057 6957
5044 6685 9695
5045 2641 4300
5046 6694 6381
5047 1537 8778
5048 4310 5214
5049 3806 3835
5050 3624 7190
5051 4811 7407
5052 266  6973
5053 1982 5741
5054 3857 7364
5055 6013 9692
5056 9127 9530
5057 7774 6179
5058 1600 6035
5059 367  9205
5060 9656 5402
5061 5973 2307
5062 1895 6361
5063 2206 2730
5064 2305 455 
5065 9278 1668
5066 5430 3882
5067 3041 9982
5068 7538 2698
5069 6926 5073
5070 5136 6207
5071 387  4970
5072 5113 390 
5073 9311 5164
5074 4909 5361
5075 7082 283 
5076 2319 851 
5077 1016 3168
5078 2157 2026
5079 7640 8073
5080 6821 702 
5081 4873 2645
5082 3218 5902
5083 4563 7259
5084 9960 6836
5085 2616 6817
5086 2135 9307
5087 9144 5237
5088 455  7849
5089 3431 6932
5090 1871 9068
5091 8411 9089
5092 7103 6205
5093 6891 1259
5094 8523 9023
5095 8014 2105
5096 651  9277
5097 4515 5917
5098 2399 9849
5099 4206 5492
5100 5307 6999
5101 1957 287 
5102 539  9011
5103 3119 3900
5104 7531 6969
5105 857  7561
5106 1768 8740
5107 3953 9746
5108 5518 8950
5109 8994 2908
5110 1920 5542
5111 6938 7333
5112 4078 149 
5113 3965 2200
5114 2334 8691
5115 183  7399
5116 3227 8320
5117 7937 6678
5118 5165 7651
5119 1859 9133
5120 4529 1245
5121 4147 9447
5122 1750 8790
5123 3018 18  
5124 71   8229
5125 1876 9542
5126 7415 5697
5127 4809 998 
5128 5799 6978
5129 6739 405 
5130 3647 358 
5131 5246 9045
5132 8707 1536
5133 9351 859 
5134 7522 3624
5135 5395 3888
5136 7525 6546
5137 4116 4113
5138 8028 4786
5139 5669 4127
5140 9756 1827
5141 3033 6413
5142 2237 3489
5143 7632 1750
5144 2264 9270
5145 9442 7396
5146 3308 3299
5147 546  6537
5148 7201 6391
5149 4363 6719
5150 4773 6924
5151 5777 9918
5152 8571 8755
5153 625  3629
5154 3737 8617
5155 5049 1404
5156 8191 2730
5157 8718 5136
5158 2393 9127
5159 2173 246 
5160 6655 6459
5161 1998 8751
5162 5722 8977
5163 301  6763
5164 2171 9402
5165 4726 8429
5166 8977 8327
5167 1084 381 
5168 5931 9814
5169 3189 4547
5170 6094 763 
5171 7356 6196
5172 7317 5418
5173 3676 7566
5174 3541 5991
5175 8343 3672
5176 2667 2758
5177 2209 7573
5178 4586 1640
5179 6255 9494
5180 5202 6787
5181 3030 184 
5182 9718 8505
5183 6732 194 
5184 5253 7017
5185 9920 5934
5186 3457 9005
5187 4114 3483
5188 4008 4148
5189 6887 2507
5190 5660 8314
5191 3372 2006
5192 1226 8777
5193 7615 4774
5194 7390 8303
5195 3120 5282
5196 1116 8328
5197 7296 9638
5198 6129 3415
5199 9314 1935
5200 4498 7880
5201 1927 2891
5202 9645 9386
5203 4123 4246
5204 8963 7522
5205 1197 7607
5206 9020 4977
5207 6319 153 
5208 2816 5011
5209 6206 8162
5210 3405 8047
5211 3996 5558
5212 65   1510
5213 7501 5438
5214 2923 3096
5215 66   5221
5216 3831 6694
5217 9422 9495
5218 4685 7468
5219 6905 1899
5220 5100 7444
5221 2542 7385
5222 4533 6088
5223 6820 9037
5224 4170 6382
5225 4421 9050
5226 2391 972 
5227 3623 5512
5228 8175 7567
5229 5233 678 
5230 8805 9099
5231 2826 6480
5232 5459 3300
5233 9249 5905
5234 2056 7316
5235 9666 4311
5236 4715 692 
5237 4475 3531
5238 9181 9112
5239 5423 5289
5240 2055 1974
5241 6306 5883
5242 2012 8371
5243 7251 5439
5244 107  4611
5245 2813 1281
5246 2357 543 
5247 7002 9194
5248 3446 8358
5249 9020 8838
5250 8525 5496
5251 4571 7050
5252 1794 1452
5253 9195 792 
5254 1173 1041
5255 1893 8387
5256 8497 4403
5257 4170 7556
5258 3174 3912
5259 3227 1516
5260 7240 9898
5261 7079 5592
5262 9739 6646
5263 923  3462
5264 831  2902
5265 2250 6894
5266 4178 1670
5267 9279 8790
5268 9447 9648
5269 1877 1990
5270 8688 1945
5271 1751 6566
5272 6312 1104
5273 256  3316
5274 666  9302
5275 4297 137 
5276 3502 596 
5277 6013 4496
5278 5129 9946
5279 286  9178
5280 1918 2880
5281 5859 5443
5282 7022 9197
5283 1257 1756
5284 9364 2954
5285 5560 6392
5286 5451 5845
5287 1410 8751
5288 1180 8261
5289 4367 6587
5290 9814 9561
5291 4080 1286
5292 8572 2603
5293 8575 4932
5294 9834 7975
5295 9636 5974
5296 1508 6965
5297 622  9335
5298 932  7166
5299 278  5792
5300 5090 1434
5301 9903 1005
5302 2403 214 
5303 643  4045
5304 6150 1450
5305 9518 7480
5306 1392 9079
5307 2698 1531
5308 9242 2599
5309 2480 3344
5310 6934 3757
5311 1460 7775
5312 1022 4936
5313 6270 5611
5314 9513 9144
5315 9698 955 
5316 8748 9123
5317 7534 3798
5318 7727 209 
5319 8486 1107
5320 320  8512
5321 396  9435
5322 2588 8080
5323 3815 699 
5324 8215 3912
5325 9973 4708
5326 9743 6185
5327 457  8506
5328 1124 317 
5329 6436 2759
5330 7313 6086
5331 9234 6476
5332 1003 2408
5333 141  4057
5334 9743 4458
5335 2464 2609
5336 5186 5199
5337 991  9684
5338 4866 3229
5339 7177 3585
5340 3239 4257
5341 4364 314 
5342 9361 6368
5343 6553 3399
5344 6125 5542
5345 343  9870
5346 6325 4831
5347 6875 6532
5348 5230 7354
5349 4573 6840
5350 8158 1651
5351 5516 1386
5352 4269 9428
5353 1098 7734
5354 6282 6019
5355 4615 7819
5356 4295 4347
5357 6292 3455
5358 4554 4531
5359 3360 9457
5360 6497 1939
5361 9886 7167
5362 9576 7976
5363 2685 5614
5364 2929 9552
5365 4305 9903
5366 1182 1996
5367 2200 3859
5368 5273 8292
5369 5236 9496
5370 7695 4646
5371 4449 9281
5372 1075 3570
5373 9131 2891
5374 8145 28  
5375 6669 7149
5376 5763 195 
5377 314  1469
5378 314  976 
5379 8263 3784
5380 4002 1723
5381 7038 1518
5382 1068 9575
5383 2000 5800
5384 5341 149 
5385 331  6272
5386 9842 1607
5387 1711 5323
5388 9578 1102
5389 3552 3211
5390 7372 9916
5391 4882 3051
5392 2394 5749
5393 7771 1633
5394 4922 9915
5395 5345 9836
5396 4689 9600
5397 7240 9312
5398 4596 9312
5399 2836 2886
5400 1039 807 
5401 65   1085
5402 4261 5315
5403 2472 441 
5404 4791 5662
5405 4191 7174
5406 8074 1995
5407 8824 1874
5408 9864 6371
5409 4364 1504
5410 4663 8209
5411 9744 7848
5412 8385 814 
5413 2217 5923
5414 979  2926
5415 6692 6256
5416 6919 6078
5417 5504 2768
5418 3678 1587
5419 4234 6083
5420 5265 4273
5421 1740 3074
5422 6185 4366
5423 254  8416
5424 6657 9305
5425 9645 8825
5426 9561 6616
5427 8975 4544
5428 4755 27  
5429 5568 3910
5430 9714 8169
5431 8157 8323
5432 5149 7663
5433 2172 773 
5434 5605 2762
5435 8893 4381
5436 1589 5813
5437 6517 411 
5438 5835 8284
5439 4088 4675
5440 1953 8968
5441 5466 7399
5442 9095 5078
5443 2661 1704
5444 765  4241
5445 4543 3334
5446 9169 8103
5447 8235 7973
5448 2459 3527
5449 5198 5946
5450 7705 2990
5451 6542 6761
5452 2121 6240
5453 7588 1673
5454 9199 343 
5455 4340 6841
5456 3853 5499
5457 1355 9751
5458 6576 911 
5459 8535 6331
5460 230  708 
5461 6189 8322
5462 5906 7884
5463 5920 181 
5464 7195 4507
5465 8048 708 
5466 8122 7035
5467 5075 3832
5468 5239 3738
5469 9205 4977
5470 6491 3170
5471 7703 9030
5472 7398 4442
5473 7836 8043
5474 4165 5362
5475 8910 902 
5476 7613 8429
5477 274  5951
5478 8290 5230
5479 2300 2182
5480 4337 5381
5481 9984 8275
5482 2610 6318
5483 6670 2488
5484 4372 9088
5485 2377 8471
5486 6991 3403
5487 4211 37  
5488 8572 8084
5489 1256 2600
5490 5980 8558
5491 3599 3844
5492 5750 9340
5493 8528 8077
5494 883  7839
5495 2811 4820
5496 1668 7155
5497 4658 8418
5498 5772 4781
5499 7952 4382
5500 2953 200 
5501 2168 9647
5502 7919 1469
5503 1634 6328
5504 4617 7174
5505 7317 8594
5506 9549 2592
5507 4658 4074
5508 3136 4801
5509 7066 795 
5510 8128 5945
5511 7455 9870
5512 6718 4962
5513 2391 5757
5514 6607 5181
5515 1897 6788
5516 3642 1333
5517 4776 6232
5518 6227 4914
5519 578  700 
5520 3258 1082
5521 2420 6805
5522 3642 5756
5523 3207 8786
5524 8314 5855
5525 4795 4209
5526 4459 9141
5527 5502 2340
5528 2783 3294
5529 7020 2183
5530 5773 2618
5531 7476 3390
5532 80   5334
5533 9554 7581
5534 6518 1028
5535 3309 3091
5536 8876 9   
5537 5937 8454
5538 4390 840 
5539 6184 4727
5540 7862 2006
5541 7792 9705
5542 3211 575 
5543 3875 4556
5544 8492 6790
5545 4653 3719
5546 7546 9124
5547 8241 3735
5548 6161 3557
5549 739  15  
5550 6599 1635
5551 3951 7799
5552 1156 1970
5553 3772 2743
5554 1763 1012
5555 3050 5336
5556 1296 4566
5557 338  7996
5558 8934 7981
5559 4241 282 
5560 3479 8281
5561 7973 734 
5562 566  995 
5563 3738 5006
5564 8627 1660
5565 2010 822 
5566 5547 8534
5567 7849 7229
5568 8513 2405
5569 5214 3813
5570 7887 809 
5571 1484 2205
5572 4539 5602
5573 758  9921
5574 8598 9377
5575 1824 5877
5576 1736 3521
5577 1574 7274
5578 7148 4900
5579 5422 9966
5580 4614 1430
5581 4684 4887
5582 9363 2588
5583 2571 5183
5584 4770 2123
5585 8445 5889
5586 6707 2144
5587 6904 3243
5588 3928 6731
5589 4576 642 
5590 2766 5930
5591 6904 8699
5592 7604 2433
5593 8073 7158
5594 3127 4291
5595 3701 6406
5596 3718 229 
5597 3792 4901
5598 4318 7477
5599 2830 5150
5600 401  4191
5601 2985 8785
5602 1133 2792
5603 628  1640
5604 1676 9437
5605 4320 6857
5606 9499 8393
5607 3204 9642
5608 2838 9976
5609 9208 3793
5610 5842 3631
5611 4465 6493
5612 6076 6267
5613 2314 6458
5614 8729 1814
5615 3780 747 
5616 1916 9458
5617 3813 4516
5618 4544 5006
5619 8895 5710
5620 4618 7125
5621 8935 6896
5622 5591 2074
5623 5690 2449
5624 6964 4882
5625 6701 3648
5626 2859 7463
5627 7617 4195
5628 1086 1882
5629 9798 380 
5630 3625 8821
5631 4985 3077
5632 2553 9433
5633 7255 1262
5634 9727 6434
5635 3334 5484
5636 3673 2280
5637 4656 5710
5638 7914 9224
5639 9839 3501
5640 3108 6076
5641 9127 1825
5642 9482 2352
5643 995  9364
5644 1867 8028
5645 2777 864 
5646 4167 5751
5647 3270 3504
5648 1218 391 
5649 4230 5990
5650 2815 585 
5651 5713 5693
5652 1009 7038
5653 1343 3409
5654 2313 1803
5655 5794 4163
5656 5003 4431
5657 5847 8845
5658 5335 8665
5659 9740 1941
5660 1347 1059
5661 5497 5170
5662 8958 2612
5663 1966 4344
5664 1984 6220
5665 5839 4907
5666 4765 8556
5667 9984 7235
5668 3262 4658
5669 3358 5368
5670 6310 1710
5671 5850 1144
5672 3756 4896
5673 6766 979 
5674 9974 9964
5675 2996 5026
5676 46   9421
5677 9692 2536
5678 9786 613 
5679 8097 2441
5680 2913 969 
5681 6102 6666
5682 5656 8469
5683 4029 4453
5684 2924 6504
5685 9958 2643
5686 7792 2726
5687 845  5729
5688 677  3071
5689 8911 7629
5690 2393 8830
5691 6063 6293
5692 1394 7195
5693 8548 1401
5694 6602 6913
5695 9219 1882
5696 609  2294
5697 6458 9178
5698 8232 7381
5699 3692 8945
5700 8574 2832
5701 166  1270
5702 7781 9595
5703 2057 7865
5704 6127 4625
5705 6227 9992
5706 9234 2112
5707 6890 639 
5708 447  7347
5709 3466 2317
5710 8802 9538
5711 7087 6148
5712 1239 249 
5713 4351 8636
5714 7542 2210
5715 6687 8658
5716 548  712 
5717 6471 3052
5718 135  4347
5719 2652 6997
5720 9711 2119
5721 9686 1096
5722 1801 6335
5723 293  6172
5724 6498 5838
5725 5542 2254
5726 617  2280
5727 6744 8240
5728 3900 7311
5729 9783 8143
5730 7960 2871
5731 8490 788 
5732 6650 6739
5733 3340 9858
5734 2575 4347
5735 4789 8981
5736 6364 9310
5737 7709 5910
5738 8408 7308
5739 5427 9677
5740 2150 2742
5741 4363 9964
5742 7044 1504
5743 2247 3892
5744 7607 7507
5745 2147 6796
5746 9088 7919
5747 1453 3428
5748 6627 7242
5749 803  6922
5750 2027 899 
5751 7071 2277
5752 5869 6749
5753 5322 4660
5754 7322 3152
5755 1832 5339
5756 1974 4106
5757 3178 8790
5758 1419 9200
5759 2992 7051
5760 6416 6379
5761 4346 5312
5762 4478 101 
5763 9206 9350
5764 6265 9301
5765 195  1476
5766 8740 7307
5767 2292 7499
5768 5871 7786
5769 9069 294 
5770 7811 1118
5771 5087 6774
5772 66   6191
5773 2304 2903
5774 5150 9082
5775 7097 9170
5776 7635 6266
5777 5396 1791
5778 6236 1097
5779 1794 5455
5780 2649 2472
5781 1477 7351
5782 8944 4679
5783 4402 970 
5784 2800 9937
5785 7344 8358
5786 3778 2077
5787 4883 1897
5788 9615 1371
5789 1645 6423
5790 1477 7512
5791 2857 5335
5792 547  6047
5793 9548 3569
5794 6243 8646
5795 6301 1049
5796 9839 2478
5797 9362 2142
5798 8532 9074
5799 8374 288 
5800 5190 1605
5801 9682 2155
5802 3012 1000
5803 1205 1659
5804 7098 6784
5805 8868 9583
5806 9723 3065
5807 7417 5421
5808 6030 5487
5809 5883 4676
5810 966  3628
5811 6812 8217
5812 9007 4205
5813 6571 8036
5814 2434 8646
5815 160  5998
5816 7446 1617
5817 8881 8061
5818 9805 8624
5819 2909 8843
5820 2742 3123
5821 5079 5173
5822 8148 5139
5823 1131 6008
5824 1750 6910
5825 7918 8132
5826 2128 904 
5827 6899 8357
5828 2858 7194
5829 139  5650
5830 2133 9683
5831 5890 4329
5832 7099 1973
5833 4071 9604
5834 2999 5091
5835 1050 1215
5836 1908 3368
5837 7109 7997
5838 309  1780
5839 3032 5992
5840 5179 8494
5841 6585 8594
5842 1954 2196
5843 9204 4587
5844 4793 2764
5845 4446 8381
5846 9013 8777
5847 9184 1040
5848 3782 8503
5849 4073 1284
5850 2161 6135
5851 7185 4122
5852 3773 731 
5853 7106 272 
5854 8281 208 
5855 6500 7955
5856 8868 4782
5857 3646 5662
5858 5094 9819
5859 6559 1219
5860 3460 8095
5861 141  5781
5862 118  8436
5863 257  6133
5864 183  6003
5865 8349 9905
5866 7421 339 
5867 1620 6168
5868 4509 4467
5869 1380 8464
5870 9251 969 
5871 3894 7026
5872 525  424 
5873 4160 2331
5874 502  9691
5875 4592 1250
5876 3492 3822
5877 1931 6013
5878 4560 8545
5879 1535 7116
5880 4795 7979
5881 5733 8545
5882 8954 173 
5883 8793 8374
5884 5792 8695
5885 2152 5380
5886 1712 3048
5887 4346 6499
5888 1715 5164
5889 2761 2910
5890 3634 5653
5891 3049 1523
5892 7923 5266
5893 2720 5152
5894 8748 2253
5895 618  5712
5896 4318 7657
5897 8488 9428
5898 1028 4269
5899 2711 3497
5900 8003 562 
5901 8579 8009
5902 3449 4283
5903 4849 9112
5904 9011 621 
5905 3883 2191
5906 4119 7341
5907 4458 7082
5908 5703 1350
5909 8142 6738
5910 602  7583
5911 3765 2064
5912 2041 2420
5913 5740 9596
5914 6846 6357
5915 6989 7940
5916 8129 7931
5917 3261 3786
5918 6725 2829
5919 7523 3324
5920 3435 3931
5921 9137 2982
5922 2872 942 
5923 4554 8629
5924 8054 7538
5925 8746 6529
5926 7774 862 
5927 1240 3969
5928 6894 9353
5929 2443 5548
5930 5641 1913
5931 564  8566
5932 773  7973
5933 5019 6549
5934 1487 5832
5935 946  223 
5936 8308 4356
5937 3368 2085
5938 2917 8543
5939 8750 4294
5940 1344 8880
5941 7485 6949
5942 6186 2786
5943 9920 7382
5944 9688 3155
5945 3672 637 
5946 6749 1149
5947 5707 139 
5948 2678 9773
5949 1111 6001
5950 5165 7886
5951 5695 7813
5952 5769 7939
5953 1893 7828
5954 2985 7154
5955 5860 842 
5956 7685 6341
5957 141  8248
5958 8872 822 
5959 1123 1953
5960 1396 8340
5961 4079 38  
5962 1330 5441
5963 4987 8406
5964 3288 767 
5965 2478 6972
5966 7115 42  
5967 8334 3237
5968 9367 5873
5969 6329 8929
5970 8037 640 
5971 9801 8018
5972 9411 6170
5973 6660 4957
5974 9082 4373
5975 9254 6153
5976 2402 124 
5977 2548 8387
5978 7631 9721
5979 9530 2844
5980 7872 4332
5981 2523 7396
5982 2831 5927
5983 4182 8131
5984 9674 3679
5985 3071 8550
5986 2177 1987
5987 7955 851 
5988 4491 2718
5989 2074 8832
5990 4807 440 
5991 1831 2244
5992 6625 230 
5993 9165 4605
5994 1593 3522
5995 5983 2334
5996 8480 6978
5997 6266 6604
5998 4243 7989
5999 7826 5920
6000 9196 3713
6001 3476 3285
6002 7190 9775
6003 5872 893 
6004 9912 1825
6005 9260 8137
6006 7865 796 
6007 9334 1278
6008 2007 9098
6009 2609 2023
6010 2019 5111
6011 6354 3685
6012 7957 6333
6013 7443 6715
6014 5800 6868
6015 5477 9422
6016 5100 2910
6017 4378 2609
6018 8925 2915
6019 3699 8756
6020 843  5843
6021 924  2821
6022 4292 4202
6023 4213 8820
6024 5528 3763
6025 2403 5048
6026 4716 2830
6027 3689 7233
6028 979  4646
6029 2117 6897
6030 1839 2997
6031 3517 1175
6032 5139 5068
6033 7213 5159
6034 5277 9432
6035 143  7016
6036 1092 3861
6037 5944 1942
6038 6772 8624
6039 9908 7469
6040 3394 2746
6041 5756 2751
6042 1175 4414
6043 1858 7932
6044 3881 2228
6045 9121 9719
6046 6750 5716
6047 4049 8314
6048 3137 7969
6049 7485 9617
6050 9514 3332
6051 5637 7056
6052 6617 4678
6053 9109 6685
6054 6398 6276
6055 4132 5587
6056 2747 4591
6057 9116 278 
6058 8833 2628
6059 216  4160
6060 5076 2385
6061 9453 1600
6062 8772 1063
6063 5615 6093
6064 340  633 
6065 8309 1986
6066 2187 918 
6067 5086 7094
6068 5093 3438
6069 9695 5368
6070 1507 3416
6071 5929 1613
6072 6858 2792
6073 3028 6840
6074 7656 3777
6075 197  1286
6076 9114 5299
6077 6808 4959
6078 6763 8525
6079 9423 8844
6080 3481 4850
6081 5168 9910
6082 4789 3813
6083 5049 9687
6084 9427 2694
6085 8216 8763
6086 8001 1902
6087 132  9243
6088 6635 8122
6089 1877 4287
6090 7180 3697
6091 2793 2373
6092 9944 3467
6093 2559 6261
6094 1680 2925
6095 3632 4583
6096 8273 7539
6097 1397 4890
6098 8120 1447
6099 2537 3695
6100 201  633 
6101 2535 5897
6102 5971 6236
6103 8979 3283
6104 1721 9842
6105 6368 9582
6106 5356 6547
6107 7074 6433
6108 4698 5577
6109 787  9836
6110 9552 2650
6111 8810 7777
6112 6386 949 
6113 4472 6302
6114 9804 5268
6115 4772 9938
6116 5934 6962
6117 4923 781 
6118 1097 9194
6119 2646 6542
6120 1791 6997
6121 1224 952 
6122 8049 9289
6123 2103 721 
6124 6707 5403
6125 435  2203
6126 5751 8366
6127 7579 9924
6128 7082 2529
6129 3065 2659
6130 8160 1730
6131 5765 2883
6132 4468 4931
6133 5041 6849
6134 4756 5565
6135 8763 3390
6136 1615 4019
6137 1844 7023
6138 1092 5024
6139 6533 6217
6140 3126 3860
6141 8924 5355
6142 668  8055
6143 338  8558
6144 7588 4100
6145 2433 5585
6146 2972 8022
6147 8871 7481
6148 4852 9149
6149 5158 5118
6150 1671 3222
6151 6407 4573
6152 393  3483
6153 5344 6026
6154 6798 372 
6155 577  3616
6156 2029 6015
6157 1322 9974
6158 2088 5540
6159 5485 9003
6160 2046 8801
6161 1143 4266
6162 5795 1965
6163 9227 4264
6164 9032 289 
6165 7137 5604
6166 7073 1316
6167 2586 1794
6168 3042 2368
6169 9467 8548
6170 3701 9605
6171 3446 4669
6172 9691 1827
6173 1454 6585
6174 9465 8115
6175 1803 1975
6176 9478 482 
6177 5995 6779
6178 3113 3789
6179 4136 5154
6180 3616 6452
6181 7748 2440
6182 1659 3474
6183 952  3973
6184 7453 3180
6185 4114 2237
6186 8307 5315
6187 7383 2340
6188 1829 8452
6189 1466 9908
6190 5945 1605
6191 5482 4334
6192 4052 4873
6193 1594 817 
6194 7066 3594
6195 4834 9477
6196 7764 5252
6197 7078 2025
6198 2739 9097
6199 4810 203 
6200 844  7175
6201 1746 7291
6202 1695 5402
6203 9924 3053
6204 1878 3972
6205 8324 9955
6206 5573 1855
6207 4699 846 
6208 9727 3473
6209 3612 8450
6210 2960 1478
6211 6309 5604
6212 8994 2012
6213 170  3719
6214 5074 5073
6215 3415 7584
6216 2603 9710
6217 7821 3603
6218 6810 3815
6219 7672 4192
6220 8108 9160
6221 9377 7637
6222 9167 2529
6223 9914 4223
6224 4278 7044
6225 4251 1488
6226 7649 869 
6227 1832 1799
6228 8457 1124
6229 9733 3798
6230 9566 2361
6231 5053 1295
6232 3264 1309
6233 419  6862
6234 5341 8637
6235 3244 4411
6236 9031 4410
6237 5433 8260
6238 7633 6590
6239 805  9397
6240 2036 6726
6241 1518 4040
6242 5102 2795
6243 3902 9370
6244 5929 3170
6245 2244 6212
6246 1596 769 
6247 4478 3600
6248 3647 9890
6249 3030 3942
6250 5056 7294
6251 9377 8066
6252 5076 4204
6253 4426 8203
6254 3319 8872
6255 9175 7650
6256 2221 7475
6257 5267 4650
6258 956  2694
6259 3968 2850
6260 6466 4105
6261 4822 5206
6262 9595 6009
6263 5820 4393
6264 4642 1376
6265 8966 3929
6266 153  2624
6267 1228 5342
6268 6544 719 
6269 838  5654
6270 8929 2282
6271 9767 6204
6272 6715 6943
6273 6503 5003
6274 6785 2567
6275 5608 9316
6276 5624 8082
6277 744  6007
6278 2867 5734
6279 6417 5109
6280 5480 8648
6281 423  3914
6282 9213 6147
6283 3907 2769
6284 3868 3160
6285 1588 7543
6286 609  7993
6287 444  3371
6288 2510 2596
6289 2254 82  
6290 255  8052
6291 691  2807
6292 5995 472 
6293 4282 2139
6294 377  9489
6295 2504 3756
6296 6561 7440
6297 1196 9752
6298 6573 7329
6299 7042 3696
6300 1349 6015
6301 7240 4706
6302 1675 2655
6303 5915 2285
6304 9058 4727
6305 3888 182 
6306 7142 889 
6307 5462 4415
6308 5146 8780
6309 3344 5707
6310 2892 8513
6311 2397 7538
6312 271  9058
6313 2811 2296
6314 8081 7498
6315 7771 8938
6316 2159 7684
6317 5949 3172
6318 2889 4870
6319 3177 3975
6320 1576 7086
6321 8135 2101
6322 2859 5259
6323 1204 3682
6324 4686 2852
6325 374  4389
6326 5295 4134
6327 3220 8435
6328 7669 5612
6329 6059 3065
6330 3372 9532
6331 9676 648 
6332 4891 7293
6333 6314 4287
6334 1778 4470
6335 1039 6200
6336 9745 425 
6337 4985 4479
6338 9629 7891
6339 6421 2882
6340 181  7133
6341 4060 4547
6342 9832 7413
6343 9394 5284
6344 3919 5675
6345 7828 7081
6346 9715 2883
6347 9557 8241
6348 6862 7618
6349 5792 8801
6350 9351 922 
6351 1945 4691
6352 56   3493
6353 6636 1548
6354 3562 4206
6355 34   6168
6356 3321 1672
6357 8130 9902
6358 59   1507
6359 5546 7657
6360 7060 6764
6361 9227 4574
6362 7838 4308
6363 9149 4281
6364 8378 3020
6365 3652 785 
6366 3604 1244
6367 6717 9348
6368 3135 2590
6369 9050 185 
6370 1134 2315
6371 8111 4411
6372 3933 3793
6373 5420 4526
6374 4225 4729
6375 1916 9904
6376 1150 8706
6377 4779 3523
6378 124  9064
6379 6462 331 
6380 3171 1682
6381 9348 8396
6382 1414 1496
6383 3153 7351
6384 3723 420 
6385 6051 7670
6386 3771 5583
6387 5130 8166
6388 1028 2553
6389 3915 4853
6390 9481 12  
6391 5021 4221
6392 8123 5109
6393 6917 5139
6394 7795 3788
6395 2459 5634
6396 379  930 
6397 2837 3969
6398 6506 4294
6399 8695 738 
6400 6882 3082
6401 283  2320
6402 4613 3128
6403 6291 1462
6404 9194 4759
6405 8249 2568
6406 1211 2205
6407 2726 8420
6408 1000 5293
6409 9325 9296
6410 2976 5349
6411 5009 4313
6412 6869 4690
6413 2328 4904
6414 4811 2821
6415 4501 577 
6416 2465 5936
6417 9330 6788
6418 4821 1160
6419 9229 2384
6420 3369 4874
6421 15   2057
6422 6748 6439
6423 3815 7298
6424 292  3370
6425 4683 3965
6426 5896 4489
6427 8375 9070
6428 228  9186
6429 1781 9965
6430 358  942 
6431 831  3549
6432 8594 1475
6433 189  2280
6434 688  8962
6435 1089 4143
6436 8095 3931
6437 1154 8333
6438 7961 7163
6439 5721 1518
6440 4200 486 
6441 3198 8402
6442 5735 3829
6443 250  9300
6444 7055 6647
6445 8038 4454
6446 9047 8157
6447 1654 5712
6448 7844 6591
6449 2752 354 
6450 2739 1352
6451 8085 6048
6452 2137 3250
6453 4546 5963
6454 6466 9258
6455 151  2531
6456 5338 2283
6457 3422 6783
6458 7738 8184
6459 9396 5452
6460 3884 2202
6461 2045 8105
6462 2830 3515
6463 2205 9710
6464 7922 2984
6465 8200 9553
6466 8108 8072
6467 8652 5442
6468 8362 3268
6469 8550 6982
6470 8171 4223
6471 77   6950
6472 7611 4625
6473 7350 8011
6474 292  212 
6475 9357 6453
6476 8955 7523
6477 6582 1444
6478 6924 5092
6479 5270 39  
6480 8216 1432
6481 2080 9348
6482 1199 5299
6483 712  7310
6484 5535 2429
6485 1287 1359
6486 6602 177 
6487 9038 7091
6488 4702 1460
6489 4280 3365
6490 796  2614
6491 8619 3830
6492 408  3662
6493 8015 1222
6494 863  8813
6495 4907 7604
6496 8270 8206
6497 2906 7280
6498 2647 1916
6499 6601 7401
6500 4801 2895
6501 9382 9364
6502 9696 6214
6503 6843 2440
6504 8339 8810
6505 961  8885
6506 1456 5541
6507 8137 1154
6508 398  1991
6509 8267 3331
6510 7382 6899
6511 9803 1812
6512 2206 3812
6513 1728 477 
6514 6811 7959
6515 9767 1498
6516 4874 5226
6517 4557 8357
6518 2853 6648
6519 4566 3310
6520 6456 2521
6521 6563 2463
6522 5591 9038
6523 5395 6925
6524 9315 7288
6525 1659 577 
6526 1298 7222
6527 8991 6884
6528 9171 7943
6529 4289 5136
6530 7594 2683
6531 2403 3261
6532 2641 4177
6533 654  4060
6534 8240 2053
6535 4398 9854
6536 6764 9306
6537 5098 8678
6538 7248 8957
6539 913  6619
6540 9054 9080
6541 5168 3562
6542 285  3165
6543 150  6829
6544 7217 2378
6545 2694 1411
6546 4680 9203
6547 7869 5731
6548 5874 7615
6549 7241 761 
6550 9350 132 
6551 3917 5665
6552 9567 5011
6553 3873 4112
6554 9295 7420
6555 4161 1926
6556 5484 5417
6557 2110 6983
6558 4899 5349
6559 5560 4777
6560 8630 9368
6561 5233 3975
6562 6131 9255
6563 1107 5774
6564 2624 6667
6565 2799 989 
6566 8017 7651
6567 9011 2   
6568 6833 7693
6569 8763 3421
6570 3019 2090
6571 3639 7664
6572 6061 3704
6573 2330 4193
6574 5087 9860
6575 4982 8524
6576 1681 3936
6577 859  7545
6578 1989 8500
6579 471  152 
6580 5726 731 
6581 9594 2735
6582 1158 4267
6583 2751 8165
6584 9972 9985
6585 9039 5695
6586 2851 3038
6587 7619 5941
6588 3840 3654
6589 3410 5811
6590 133  640 
6591 7822 6670
6592 6604 1085
6593 7439 347 
6594 1690 6516
6595 2578 68  
6596 6427 721 
6597 88   8044
6598 6600 315 
6599 7821 6655
6600 8073 5531
6601 2859 9609
6602 9924 6679
6603 2864 6907
6604 6901 2832
6605 1578 1047
6606 2588 1767
6607 1569 2432
6608 5466 8825
6609 8590 6611
6610 7894 4272
6611 6979 4755
6612 2528 5027
6613 987  9865
6614 9710 1687
6615 3130 1069
6616 4064 3319
6617 189  3622
6618 6447 8859
6619 4300 4449
6620 115  2690
6621 8550 5914
6622 838  2064
6623 9908 7152
6624 3540 8186
6625 654  1919
6626 2998 7451
6627 1135 1575
6628 7837 4152
6629 1722 2378
6630 4583 4881
6631 5309 4814
6632 2054 8785
6633 4805 6395
6634 7931 6236
6635 5986 250 
6636 6654 763 
6637 7550 361 
6638 7783 4013
6639 18   731 
6640 9539 1781
6641 777  1194
6642 4418 9613
6643 7047 9904
6644 7836 4327
6645 4982 7872
6646 1353 7547
6647 9108 6133
6648 5214 5334
6649 928  5969
6650 1366 4563
6651 7335 933 
6652 9878 4445
6653 2080 6687
6654 6677 4664
6655 4921 4061
6656 4878 5745
6657 6141 5193
6658 1493 7548
6659 994  1653
6660 9157 5964
6661 3264 2599
6662 6908 9327
6663 4922 3749
6664 1283 6631
6665 2427 6978
6666 6069 4206
6667 7126 7128
6668 666  5530
6669 9004 3879
6670 7111 440 
6671 7633 1428
6672 6438 674 
6673 2192 3449
6674 8942 1155
6675 3494 2668
6676 9190 5306
6677 9041 2350
6678 9260 1096
6679 6774 13  
6680 2213 9489
6681 3101 7775
6682 197  749 
6683 7056 188 
6684 553  3697
6685 5463 5766
6686 7421 9210
6687 1998 246 
6688 4072 2082
6689 598  9189
6690 5536 6188
6691 57   9595
6692 7235 6599
6693 8342 8053
6694 9175 8851
6695 7051 8676
6696 6538 8036
6697 3839 3822
6698 1939 9925
6699 5642 47  
6700 2832 2805
6701 7108 6393
6702 3556 7224
6703 8796 6572
6704 7810 2236
6705 3634 2265
6706 5796 8942
6707 1527 110 
6708 3024 3904
6709 8542 1439
6710 5077 5264
6711 6948 5016
6712 5686 5350
6713 4096 4956
6714 3968 9679
6715 5362 450 
6716 5893 7921
6717 3085 7301
6718 6271 5868
6719 8200 4030
6720 22   2153
6721 1228 6468
6722 2504 4711
6723 6821 3323
6724 6604 6794
6725 1649 6861
6726 2963 2177
6727 8611 6116
6728 6366 8903
6729 2165 4621
6730 9349 8485
6731 5494 7894
6732 8886 3973
6733 304  9212
6734 8014 4780
6735 4957 9505
6736 9877 9829
6737 8799 1972
6738 137  6470
6739 9981 8389
6740 5893 6436
6741 6017 3311
6742 1825 2946
6743 8238 1854
6744 4867 8256
6745 3721 3637
6746 154  2557
6747 3255 2237
6748 8075 2114
6749 9587 7195
6750 902  4224
6751 1280 7025
6752 8195 9   
6753 5912 1485
6754 4609 252 
6755 581  9526
6756 715  5433
6757 7770 3609
6758 796  4351
6759 2620 4791
6760 3666 1998
6761 7708 7862
6762 2290 7997
6763 4683 4481
6764 9245 4035
6765 8933 2747
6766 6387 1534
6767 7956 6292
6768 6912 8632
6769 4337 7393
6770 7326 6877
6771 2186 9202
6772 4336 1627
6773 1150 2309
6774 8865 7924
6775 4015 4920
6776 7663 6718
6777 5521 6539
6778 7118 6118
6779 6264 7417
6780 9435 7687
6781 6164 604 
6782 7388 4571
6783 4965 7138
6784 1967 6371
6785 8420 2734
6786 8787 5998
6787 1226 9487
6788 7707 2370
6789 1198 9385
6790 4754 7979
6791 1623 5662
6792 4181 1717
6793 5248 1946
6794 2822 3004
6795 724  6399
6796 274  3854
6797 9448 8192
6798 2637 5818
6799 2710 8840
6800 3150 9813
6801 1112 2859
6802 9416 7333
6803 3713 9983
6804 6187 6704
6805 6563 389 
6806 2818 3654
6807 8038 5917
6808 514  5431
6809 762  939 
6810 3868 8332
6811 7058 5995
6812 6179 9947
6813 9884 8467
6814 1293 5611
6815 8608 8925
6816 3822 3228
6817 6380 9204
6818 8984 9874
6819 9009 9735
6820 1932 6413
6821 8577 7952
6822 9727 8869
6823 4176 1160
6824 1743 7181
6825 8198 3431
6826 2447 5173
6827 8080 1346
6828 6005 3423
6829 7830 8221
6830 9689 7176
6831 6676 8868
6832 3474 6366
6833 8493 7029
6834 1054 6572
6835 4917 4224
6836 3930 470 
6837 93   2219
6838 5131 5917
6839 6737 664 
6840 6712 6870
6841 6048 4150
6842 7369 2580
6843 7134 3656
6844 6505 8860
6845 6266 7135
6846 7285 1264
6847 4667 1855
6848 4782 5300
6849 1486 6557
6850 3286 1827
6851 1201 9852
6852 2082 9608
6853 2335 8400
6854 3590 479 
6855 7514 1385
6856 4613 5242
6857 3156 1971
6858 8935 5233
6859 1378 1529
6860 7487 9217
6861 7814 7369
6862 6279 9376
6863 5671 8315
6864 5351 6971
6865 1977 7571
6866 5718 4634
6867 9967 9569
6868 7964 8117
6869 3034 4102
6870 6650 1638
6871 3874 3652
6872 2745 786 
6873 5486 6020
6874 3817 8885
6875 6147 5630
6876 9481 3420
6877 2498 6295
6878 829  8673
6879 3323 2065
6880 7121 1612
6881 9743 6153
6882 7794 3561
6883 3547 1157
6884 5673 6790
6885 8517 8168
6886 1638 8462
6887 147  959 
6888 6555 3471
6889 1273 5658
6890 6711 0   
6891 1791 6455
6892 3605 9360
6893 7624 4091
6894 3420 647 
6895 8986 6387
6896 2744 1248
6897 3877 2635
6898 6568 1289
6899 910  250 
6900 3886 8832
6901 4281 4360
6902 1009 5394
6903 1143 5267
6904 62   9914
6905 6898 6902
6906 821  598 
6907 8304 9186
6908 845  3952
6909 492  2264
6910 6511 7196
6911 8789 324 
6912 874  532 
6913 5099 7214
6914 5539 4445
6915 1597 1742
6916 1672 8496
6917 9035 972 
6918 815  7084
6919 9442 4329
6920 6789 1574
6921 9829 915 
6922 1375 8844
6923 7886 27  
6924 5599 6765
6925 9664 1247
6926 5501 3043
6927 9929 8498
6928 5155 5914
6929 7513 585 
6930 5594 846 
6931 9819 1646
6932 6845 7027
6933 6644 2495
6934 7515 5036
6935 2567 5586
6936 7788 3480
6937 5979 1125
6938 590  5800
6939 1225 1018
6940 3051 9936
6941 6001 6950
6942 2074 6548
6943 1407 1842
6944 374  6371
6945 9170 640 
6946 3983 1558
6947 1582 5712
6948 2322 2617
6949 2331 5333
6950 3977 1973
6951 6468 7954
6952 6984 1033
6953 2053 2063
6954 7988 18  
6955 9305 4060
6956 386  5393
6957 6035 8402
6958 4567 8284
6959 473  4965
6960 2535 8493
6961 7944 4767
6962 3279 1035
6963 4831 5142
6964 4451 8521
6965 4526 4032
6966 3410 5586
6967 7025 1741
6968 4792 7413
6969 6551 3559
6970 1400 7967
6971 7402 3625
6972 9122 1840
6973 1147 9263
6974 2430 5271
6975 7498 6587
6976 7821 3336
6977 4395 9359
6978 6954 7682
6979 1863 8532
6980 1208 3773
6981 3422 15  
6982 5086 2670
6983 4527 8833
6984 5819 624 
6985 4642 3658
6986 3279 4071
6987 4961 572 
6988 6731 4846
6989 8580 4353
6990 8058 6560
6991 1984 1019
6992 7164 7138
6993 9726 9265
6994 2487 7438
6995 4658 8732
6996 7647 9086
6997 7691 7302
6998 8812 2467
6999 7057 4165
7000 599  3941
7001 1618 1059
7002 5595 5717
7003 1089 2895
7004 5758 4811
7005 9851 6087
7006 9828 2230
7007 7415 3180
7008 2051 7472
7009 1339 1283
7010 7779 3557
7011 8433 2067
7012 4676 3196
7013 9063 1583
7014 7010 3262
7015 8643 817 
7016 4352 3613
7017 3649 1217
7018 2724 2560
7019 2274 9392
7020 2292 1114
7021 6129 8457
7022 4315 242 
7023 3314 8548
7024 8179 7246
7025 8158 625 
7026 1346 3478
7027 9718 2375
7028 1989 2208
7029 2787 2589
7030 9219 9647
7031 8658 3629
7032 7400 2275
7033 8271 3607
7034 1150 5332
7035 388  657 
7036 1195 4096
7037 1758 3882
7038 9120 3461
7039 8249 7873
7040 4532 3400
7041 3692 1962
7042 346  9072
7043 1619 9175
7044 1993 7642
7045 5588 8757
7046 6347 9981
7047 7211 567 
7048 9481 9680
7049 2806 5511
7050 1064 1616
7051 7495 8488
7052 9741 8919
7053 4952 5756
7054 2760 9878
7055 5571 6332
7056 9534 3557
7057 4549 9949
7058 6236 7622
7059 9312 1921
7060 5862 2084
7061 3108 4391
7062 7516 9323
7063 6435 6804
7064 7144 3871
7065 2922 7193
7066 4607 2669
7067 4540 8475
7068 6769 3226
7069 957  7227
7070 5839 6198
7071 437  1206
7072 8581 5127
7073 5944 9968
7074 5571 5995
7075 156  8163
7076 8994 5600
7077 217  2516
7078 75   4782
7079 942  1269
7080 8457 5798
7081 8260 7041
7082 1587 8360
7083 1037 9249
7084 8387 5849
7085 8923 2584
7086 2447 6986
7087 4176 4250
7088 7429 9504
7089 6779 2248
7090 3561 4729
7091 5875 5576
7092 1435 2426
7093 3046 5406
7094 1471 2829
7095 879  797 
7096 5959 176 
7097 4487 9637
7098 3245 6483
7099 6457 7176
7100 4849 7854
7101 9400 2410
7102 6914 6193
7103 7775 5756
7104 137  1370
7105 2223 4729
7106 4330 8729
7107 7098 546 
7108 3081 2192
7109 9544 3581
7110 2372 2360
7111 177  7822
7112 9216 7772
7113 3289 1213
7114 4264 737 
7115 5071 8355
7116 6021 3064
7117 8116 2214
7118 874  8791
7119 6742 2539
7120 1806 5858
7121 7571 5552
7122 8548 1381
7123 2929 4032
7124 3083 5193
7125 6620 9979
7126 4224 2241
7127 8627 659 
7128 1249 8889
7129 2630 6588
7130 8690 8686
7131 3574 3215
7132 1721 9433
7133 2275 7656
7134 5263 4572
7135 1741 8636
7136 2714 6590
7137 566  2323
7138 1541 1205
7139 5826 2841
7140 9834 8988
7141 7925 5678
7142 7579 9716
7143 2416 8553
7144 5075 8679
7145 7036 924 
7146 9580 6693
7147 761  8717
7148 4601 6702
7149 4899 6055
7150 6198 4380
7151 1521 5128
7152 349  1063
7153 8724 3276
7154 924  779 
7155 9287 699 
7156 486  8639
7157 767  7249
7158 6017 1839
7159 2716 9154
7160 6379 2261
7161 4746 4602
7162 7896 2314
7163 8741 1224
7164 2041 6807
7165 7607 6948
7166 6910 58  
7167 3090 1529
7168 6922 2054
7169 7376 4257
7170 6536 7165
7171 6401 289 
7172 4942 3964
7173 4012 623 
7174 8227 9753
7175 9877 9525
7176 7239 666 
7177 8843 4357
7178 6313 5813
7179 1658 3491
7180 5779 2395
7181 4692 4875
7182 1200 7158
7183 203  9241
7184 9655 6919
7185 9123 6542
7186 5140 6233
7187 7645 5629
7188 3805 5598
7189 7604 7499
7190 3582 5366
7191 3668 4487
7192 5339 3242
7193 8220 8666
7194 885  7116
7195 7521 7712
7196 8494 2888
7197 3738 2393
7198 5512 6116
7199 5798 274 
7200 5610 2955
7201 7378 9228
7202 6192 4351
7203 7346 6914
7204 3381 2095
7205 4461 1337
7206 2224 6888
7207 4743 2061
7208 2786 5675
7209 9607 5971
7210 4123 1508
7211 2726 8152
7212 7933 7651
7213 8675 9105
7214 929  3871
7215 8512 2454
7216 2352 4720
7217 1598 271 
7218 1012 8767
7219 9821 960 
7220 1169 9144
7221 1854 7472
7222 8464 8180
7223 5920 6462
7224 2697 504 
7225 3508 9777
7226 9815 6803
7227 1407 2630
7228 6783 6045
7229 1269 4949
7230 5233 1976
7231 9669 8384
7232 7139 2257
7233 4635 9897
7234 8241 4879
7235 6137 4874
7236 2229 4244
7237 6954 2278
7238 463  2335
7239 1309 4288
7240 1259 5524
7241 3568 6745
7242 6903 1350
7243 5086 1426
7244 3291 6972
7245 9798 7024
7246 5464 5674
7247 6934 5502
7248 2496 4859
7249 5434 1562
7250 2962 5445
7251 4432 4611
7252 6308 7025
7253 3960 8814
7254 3773 3756
7255 1326 3220
7256 3918 3038
7257 8452 7546
7258 59   4382
7259 7759 1712
7260 9597 6791
7261 4581 6250
7262 4704 9497
7263 5341 1048
7264 9282 9753
7265 510  4164
7266 4189 3717
7267 519  9199
7268 9966 8062
7269 5183 6825
7270 3391 4302
7271 9398 1713
7272 6162 4186
7273 4982 425 
7274 969  8272
7275 2933 5549
7276 6041 7721
7277 8118 9913
7278 4758 2626
7279 8363 4913
7280 1008 68  
7281 9937 6826
7282 1303 9206
7283 1013 9858
7284 9538 7338
7285 5648 2305
7286 4628 9703
7287 7337 6852
7288 1244 1179
7289 4097 3146
7290 7864 9633
7291 3386 5389
7292 992  3356
7293 6920 1784
7294 5595 3725
7295 7490 6614
7296 9063 1546
7297 7676 44  
7298 3130 5113
7299 7335 899 
7300 7750 8449
7301 4880 7368
7302 4285 8779
7303 6161 6146
7304 8088 9358
7305 7091 3319
7306 9122 3662
7307 9368 5386
7308 7550 1115
7309 5521 7045
7310 6357 7054
7311 3529 4302
7312 75   1220
7313 9129 8463
7314 2560 6937
7315 3874 5153
7316 5244 2325
7317 2811 7047
7318 1218 1873
7319 2940 9860
7320 609  7350
7321 599  3562
7322 324  488 
7323 956  5469
7324 2171 5420
7325 8131 5739
7326 3941 3252
7327 4953 6702
7328 7909 5051
7329 9203 4864
7330 3468 5980
7331 3216 2957
7332 5395 2539
7333 3215 4901
7334 5406 50  
7335 2905 7307
7336 7986 3172
7337 4785 1941
7338 4547 1638
7339 7242 3607
7340 4828 4632
7341 9106 7370
7342 4120 6376
7343 7911 411 
7344 812  5381
7345 8497 437 
7346 9178 8197
7347 6876 6644
7348 2221 5852
7349 1441 5226
7350 8254 8312
7351 6596 5242
7352 1932 5118
7353 9550 66  
7354 9082 5779
7355 7475 4245
7356 7571 3026
7357 2672 1808
7358 2294 9448
7359 4123 6748
7360 6127 5615
7361 2738 2934
7362 5255 6337
7363 5178 1338
7364 9707 8828
7365 8837 32  
7366 8596 8517
7367 8726 2593
7368 2996 1585
7369 9526 9721
7370 6595 7609
7371 8530 5858
7372 1127 9031
7373 7300 5883
7374 4466 518 
7375 3468 5598
7376 9815 2459
7377 152  3958
7378 4387 5521
7379 2491 3836
7380 4363 9139
7381 2904 831 
7382 5744 9821
7383 8978 3923
7384 1772 7454
7385 9821 9976
7386 6592 2175
7387 9061 4573
7388 7500 245 
7389 2101 2683
7390 9939 7153
7391 7463 7480
7392 4270 8410
7393 3176 9448
7394 7006 9904
7395 1760 9950
7396 6327 7995
7397 5592 5110
7398 5042 4587
7399 2626 9478
7400 8159 8487
7401 7487 5842
7402 1005 5454
7403 1381 9356
7404 4990 9026
7405 8823 573 
7406 7237 3124
7407 1669 8527
7408 4730 1226
7409 2299 480 
7410 6788 6025
7411 2671 9271
7412 5677 3544
7413 976  8925
7414 5323 8963
7415 9082 6748
7416 3499 4989
7417 6432 2380
7418 5895 94  
7419 5613 7655
7420 3889 5590
7421 3923 1398
7422 1257 3576
7423 9909 8724
7424 7889 3896
7425 7006 8351
7426 666  1284
7427 9926 7931
7428 618  8256
7429 9443 7812
7430 3193 8055
7431 7756 680 
7432 8523 3665
7433 8649 750 
7434 2664 8514
7435 8278 5846
7436 2980 5192
7437 6293 2760
7438 7167 5228
7439 4614 4310
7440 8766 638 
7441 6888 3641
7442 8660 1113
7443 6055 3692
7444 4110 9337
7445 1922 4341
7446 5625 5036
7447 4488 4852
7448 5950 118 
7449 2436 4279
7450 7089 2659
7451 7811 1564
7452 8347 7965
7453 8824 553 
7454 4102 4388
7455 9880 5257
7456 6193 3155
7457 4365 7895
7458 7372 4577
7459 6663 2337
7460 2517 2940
7461 6648 6468
7462 3114 6638
7463 5673 5425
7464 2710 9151
7465 8593 2579
7466 4461 8162
7467 2682 9684
7468 8839 9557
7469 7443 6651
7470 9620 7901
7471 8033 9106
7472 8329 4829
7473 1227 6935
7474 9093 1851
7475 6781 4750
7476 2007 8635
7477 7234 1892
7478 2562 3674
7479 8099 312 
7480 7522 4263
7481 9723 5358
7482 5053 6440
7483 2111 83  
7484 535  2365
7485 5979 5043
7486 3364 603 
7487 1412 5197
7488 4868 3415
7489 7075 8752
7490 1605 3644
7491 7014 3570
7492 7984 1506
7493 2128 4060
7494 5619 7736
7495 59   7275
7496 5533 8324
7497 938  9867
7498 9131 836 
7499 4771 4951
7500 9991 7399
7501 4056 1700
7502 3160 1433
7503 9554 592 
7504 4259 5682
7505 7075 3228
7506 982  4679
7507 4053 4369
7508 980  708 
7509 1534 103 
7510 5035 9747
7511 5339 7900
7512 955  5078
7513 9833 9869
7514 2090 9579
7515 4763 2032
7516 3951 4939
7517 7186 957 
7518 771  8104
7519 7163 7716
7520 7300 4021
7521 5509 259 
7522 9501 6278
7523 5307 5044
7524 6188 2881
7525 7720 7468
7526 385  590 
7527 993  1297
7528 4648 8052
7529 179  2434
7530 2584 9517
7531 626  6633
7532 2475 3411
7533 3235 1925
7534 1338 278 
7535 3637 1826
7536 9143 8599
7537 8408 7620
7538 30   8281
7539 2121 8819
7540 8387 1870
7541 4661 3833
7542 445  8168
7543 4756 2763
7544 8988 3560
7545 7550 7135
7546 5455 6323
7547 2079 0   
7548 2535 706 
7549 3002 2969
7550 6785 7906
7551 2967 7065
7552 5088 5274
7553 1684 4547
7554 4217 8703
7555 8731 2491
7556 9181 2666
7557 8804 7578
7558 1963 6657
7559 3226 132 
7560 2697 3206
7561 7347 4276
7562 3343 6424
7563 7017 8885
7564 5505 3867
7565 6667 7811
7566 4242 6458
7567 9782 8935
7568 6268 5883
7569 8617 3462
7570 5687 664 
7571 9418 4837
7572 260  742 
7573 9665 5713
7574 7127 1731
7575 779  5850
7576 7151 8210
7577 4976 627 
7578 1511 9661
7579 9943 5267
7580 9256 2261
7581 1591 3253
7582 1903 5767
7583 7742 9573
7584 8198 1338
7585 541  8005
7586 7231 1616
7587 1213 4000
7588 8050 3591
7589 2515 5654
7590 1021 67  
7591 4195 592 
7592 6869 8848
7593 7625 1177
7594 6277 1930
7595 7814 5384
7596 7787 1061
7597 7566 3006
7598 9992 6678
7599 8880 2979
7600 2285 260 
7601 5348 3375
7602 2831 5866
7603 8171 5558
7604 7120 7003
7605 7448 1837
7606 5145 847 
7607 4132 8693
7608 9915 1814
7609 3090 4714
7610 8752 4364
7611 9594 3087
7612 6696 8930
7613 7857 1372
7614 1663 6608
7615 4103 656 
7616 7128 9037
7617 3382 6566
7618 8051 4331
7619 412  8562
7620 2946 8486
7621 3166 4928
7622 1619 9565
7623 9927 3041
7624 3547 6290
7625 7247 8341
7626 5026 8363
7627 3528 8522
7628 8456 1203
7629 2049 6794
7630 7524 2792
7631 642  8008
7632 1712 5301
7633 3171 9604
7634 2495 8370
7635 7800 6929
7636 2247 8653
7637 7939 6827
7638 2115 4040
7639 5293 5585
7640 2491 388 
7641 4639 4544
7642 3400 5391
7643 9456 1062
7644 5506 885 
7645 9804 1651
7646 5293 539 
7647 3241 4029
7648 7258 9419
7649 1108 2067
7650 1999 2864
7651 8091 854 
7652 5769 954 
7653 755  4210
7654 3653 2349
7655 5269 579 
7656 4707 5823
7657 3911 6174
7658 1565 5388
7659 1012 7462
7660 4187 1963
7661 255  5591
7662 2618 6534
7663 9030 7342
7664 4329 186 
7665 5161 8576
7666 3846 2023
7667 595  7315
7668 204  6350
7669 9557 7488
7670 7635 1328
7671 1891 5014
7672 2742 2095
7673 5461 8168
7674 4154 7211
7675 9748 9416
7676 7755 8595
7677 297  885 
7678 7360 6631
7679 9422 5741
7680 8242 5982
7681 7848 4549
7682 2854 3918
7683 2012 6032
7684 5210 1405
7685 7120 7080
7686 154  8009
7687 8357 5721
7688 657  7771
7689 1161 947 
7690 7871 353 
7691 5561 170 
7692 9033 3392
7693 792  7133
7694 9466 5110
7695 4437 7398
7696 3682 1304
7697 7427 8783
7698 5197 7929
7699 2563 971 
7700 7112 6260
7701 1287 2750
7702 1682 5053
7703 8384 9431
7704 9328 8364
7705 351  9168
7706 9293 2150
7707 3046 6964
7708 8940 4438
7709 7026 1652
7710 1371 443 
7711 3944 1143
7712 7965 9675
7713 1100 3966
7714 6125 5480
7715 6841 2134
7716 4106 8540
7717 4720 2481
7718 2904 1139
7719 2634 7685
7720 8655 8962
7721 2961 2676
7722 8931 2152
7723 1979 6762
7724 2138 7979
7725 9452 6539
7726 5361 1772
7727 3126 861 
7728 9099 2768
7729 6794 2335
7730 7099 4087
7731 7694 4490
7732 598  5986
7733 7381 6369
7734 6363 9999
7735 9626 6454
7736 9072 6273
7737 8374 3583
7738 5539 7013
7739 8651 8007
7740 9905 8925
7741 3076 4548
7742 7745 9839
7743 6286 6028
7744 1040 9312
7745 8570 6349
7746 3292 4329
7747 6354 8026
7748 6660 9783
7749 2859 2298
7750 8775 5407
7751 8396 6155
7752 4616 6798
7753 3914 1259
7754 1040 7519
7755 5892 9381
7756 4427 8195
7757 5127 3833
7758 3200 5420
7759 2410 5461
7760 9952 5456
7761 7061 2309
7762 7014 7384
7763 8194 2360
7764 7503 7461
7765 9220 9116
7766 960  4800
7767 9553 1724
7768 193  4634
7769 5638 8639
7770 9085 887 
7771 5581 4691
7772 3093 4524
7773 5046 5642
7774 5791 4832
7775 9171 786 
7776 713  661 
7777 6043 4595
7778 1725 6848
7779 8424 7433
7780 3115 626 
7781 3398 4623
7782 4592 1965
7783 7470 8830
7784 8550 2923
7785 4249 2949
7786 6563 5109
7787 1836 421 
7788 9077 3390
7789 3790 5985
7790 48   4123
7791 3856 5774
7792 4405 1778
7793 3243 3251
7794 7695 8432
7795 8557 4522
7796 1502 1344
7797 9602 6281
7798 9281 3258
7799 4766 2441
7800 6111 4728
7801 6058 3444
7802 7587 3707
7803 1091 6885
7804 4605 5524
7805 6645 7671
7806 1685 8130
7807 365  623 
7808 5110 3763
7809 2310 7319
7810 5723 1445
7811 3891 6922
7812 7699 7883
7813 4163 8462
7814 3915 9837
7815 922  9656
7816 6710 4084
7817 4450 1333
7818 12   1593
7819 3141 9331
7820 2358 6227
7821 9553 8322
7822 2777 9832
7823 8961 2668
7824 2048 2616
7825 1135 3263
7826 7556 885 
7827 9596 7340
7828 1442 9220
7829 2426 9458
7830 6668 9748
7831 4280 3058
7832 5119 556 
7833 377  9069
7834 9046 3655
7835 7484 4558
7836 6837 4019
7837 9490 5495
7838 9318 1043
7839 7148 5263
7840 1992 8227
7841 7775 4358
7842 8961 6316
7843 3791 2878
7844 305  6238
7845 1181 2474
7846 690  7696
7847 5793 5704
7848 1901 2463
7849 1095 2536
7850 3916 3337
7851 2996 7660
7852 3787 2020
7853 7382 7032
7854 2633 8386
7855 745  2409
7856 8998 7203
7857 191  5499
7858 2785 7464
7859 3453 1037
7860 827  2463
7861 7843 8891
7862 584  452 
7863 4463 524 
7864 5413 2698
7865 7130 9972
7866 3545 8504
7867 2561 6267
7868 4728 4123
7869 2640 9846
7870 4608 5514
7871 5021 9336
7872 5868 7408
7873 9787 5000
7874 4655 1395
7875 9586 5451
7876 1635 3663
7877 6794 3249
7878 4504 1095
7879 3170 1951
7880 2417 1323
7881 5953 5582
7882 2552 5153
7883 6259 3361
7884 7612 2776
7885 6308 9181
7886 136  7011
7887 233  3074
7888 9275 2607
7889 1065 1571
7890 2496 3276
7891 704  1605
7892 8245 3568
7893 5072 8941
7894 8694 5241
7895 7415 4926
7896 2588 1151
7897 1108 8355
7898 3466 3441
7899 155  5256
7900 5625 5461
7901 2254 2210
7902 6547 8862
7903 975  4855
7904 8318 7331
7905 2527 595 
7906 9429 1789
7907 8539 5799
7908 1203 9135
7909 6978 844 
7910 9330 82  
7911 8844 3421
7912 2567 8918
7913 7076 3521
7914 6614 1583
7915 5605 7346
7916 6783 880 
7917 9093 3827
7918 29   4374
7919 5195 954 
7920 5164 8036
7921 2885 7866
7922 2954 6740
7923 6957 9864
7924 5731 8585
7925 7844 9278
7926 5434 4377
7927 1877 2574
7928 7    5443
7929 5496 7987
7930 8600 2451
7931 822  5176
7932 2191 8714
7933 9287 5630
7934 4768 8746
7935 9412 1269
7936 6827 7247
7937 7999 7029
7938 2792 2583
7939 6227 7248
7940 3797 5436
7941 1388 6668
7942 5286 6307
7943 3904 4038
7944 739  4937
7945 618  3899
7946 6339 1255
7947 4655 1235
7948 288  3963
7949 431  1059
7950 8013 2438
7951 6784 7774
7952 490  9053
7953 4427 1657
7954 8453 4194
7955 6540 8821
7956 454  4134
7957 2244 3515
7958 8958 6891
7959 8417 2835
7960 7922 2259
7961 3656 6043
7962 3759 2096
7963 7074 8211
7964 4205 5293
7965 5010 6863
7966 6606 5124
7967 6822 7135
7968 414  3319
7969 4500 3104
7970 6368 2385
7971 4873 9437
7972 8076 2629
7973 4737 4755
7974 1687 9923
7975 3606 4637
7976 5559 4090
7977 7399 5962
7978 4541 2852
7979 1392 1220
7980 3252 3540
7981 4773 8787
7982 6367 859 
7983 7516 6464
7984 5827 2151
7985 4689 6843
7986 8762 9817
7987 6868 5804
7988 3988 1027
7989 321  4559
7990 2631 8700
7991 1730 4677
7992 1518 9442
7993 9365 1703
7994 1736 4634
7995 3895 4825
7996 9929 5659
7997 2771 316 
7998 4779 4235
7999 6250 2513
8000 4146 236 
8001 4552 9110
8002 9539 5301
8003 5187 9362
8004 3370 8052
8005 3172 4628
8006 6230 6457
8007 3207 7116
8008 7544 7418
8009 8180 2059
8010 3228 4296
8011 132  6381
8012 1929 7211
8013 3960 162 
8014 6533 6646
8015 4381 1798
8016 1853 3804
8017 9154 1683
8018 7869 4274
8019 7492 8211
8020 5905 9780
8021 8944 4795
8022 6098 316 
8023 5557 8404
8024 8447 2429
8025 2905 6782
8026 8458 9319
8027 6545 5471
8028 403  2264
8029 2795 4727
8030 4190 7952
8031 9981 1069
8032 1971 407 
8033 8728 7817
8034 3485 9362
8035 3284 3444
8036 371  3286
8037 7146 9623
8038 9811 3179
8039 1920 7874
8040 3946 9894
8041 5634 4845
8042 1133 8872
8043 89   2018
8044 2665 2579
8045 9215 576 
8046 4561 9231
8047 7053 5571
8048 9669 171 
8049 2360 9606
8050 4462 2520
8051 3224 4600
8052 495  1607
8053 4561 4826
8054 7715 9264
8055 4764 9670
8056 4939 3536
8057 7350 6978
8058 3071 7688
8059 7638 7714
8060 379  4622
8061 8012 2395
8062 6224 8317
8063 6062 775 
8064 3951 6250
8065 7499 7549
8066 6035 8101
8067 5054 298 
8068 8534 7784
8069 9710 5315
8070 8988 6938
8071 5739 4370
8072 4048 7000
8073 7350 344 
8074 1159 9946
8075 5069 6723
8076 4090 9789
8077 4701 8299
8078 5112 4601
8079 5829 9755
8080 562  3199
8081 3489 2368
8082 2868 5796
8083 8387 8027
8084 7211 6692
8085 5878 5509
8086 9185 3951
8087 7249 885 
8088 3305 5457
8089 926  3538
8090 5618 3070
8091 7508 2766
8092 3267 6244
8093 9288 4900
8094 4564 5198
8095 7975 3194
8096 1372 2941
8097 4221 6826
8098 2325 9413
8099 938  1431
8100 2482 9310
8101 3551 2869
8102 2419 8168
8103 9160 7629
8104 1653 5121
8105 5740 5671
8106 7952 6888
8107 5998 2631
8108 886  7155
8109 5485 8049
8110 4472 7619
8111 2048 8619
8112 9862 9218
8113 3379 3053
8114 5892 9044
8115 3517 5978
8116 2210 1360
8117 3204 572 
8118 1332 921 
8119 3248 7876
8120 795  4725
8121 4750 8742
8122 4129 271 
8123 243  1944
8124 9669 1722
8125 4258 7052
8126 376  8940
8127 5109 1094
8128 8775 299 
8129 8549 7785
8130 2508 2164
8131 7574 1176
8132 7810 9899
8133 8132 2382
8134 321  5391
8135 7963 2160
8136 1197 7   
8137 1160 6011
8138 5171 9694
8139 9617 2149
8140 9036 1487
8141 6819 8281
8142 8313 7583
8143 5273 7192
8144 6913 6862
8145 4411 1456
8146 5507 6183
8147 9561 6632
8148 5124 628 
8149 1194 6292
8150 9864 9906
8151 6743 1409
8152 270  9717
8153 5700 4542
8154 7805 6246
8155 9957 3460
8156 3033 9067
8157 8637 711 
8158 540  9730
8159 8952 1454
8160 1665 8519
8161 5053 2393
8162 4826 7661
8163 6374 9647
8164 5062 4837
8165 2567 756 
8166 481  2531
8167 7282 3075
8168 6782 3811
8169 7553 4718
8170 3639 4553
8171 5130 5973
8172 5224 4924
8173 133  8220
8174 7671 8921
8175 3261 9190
8176 5613 8011
8177 7395 5954
8178 4738 3302
8179 2619 6446
8180 937  9492
8181 1398 1584
8182 9122 3137
8183 5745 4984
8184 7317 7903
8185 6966 7655
8186 3758 7956
8187 1168 5747
8188 5887 4902
8189 6882 9619
8190 6788 6758
8191 2965 1600
8192 6207 105 
8193 6728 6764
8194 1768 1451
8195 5539 2122
8196 2491 9612
8197 1282 8654
8198 8398 4226
8199 539  3648
8200 7901 6278
8201 8017 2441
8202 1897 6383
8203 843  5346
8204 9178 546 
8205 2770 6970
8206 914  9309
8207 1185 5894
8208 9658 5700
8209 9218 4825
8210 842  2011
8211 4825 7945
8212 1866 3714
8213 1027 120 
8214 9958 8142
8215 9157 1476
8216 7436 5684
8217 1746 1196
8218 9716 8566
8219 2494 9454
8220 5304 998 
8221 9785 8569
8222 4409 3994
8223 4451 7007
8224 9448 4862
8225 2249 3530
8226 4854 7132
8227 4033 4628
8228 3286 1819
8229 937  8707
8230 1861 5248
8231 387  5968
8232 6031 1978
8233 9382 5924
8234 2666 8734
8235 6901 9686
8236 5015 875 
8237 125  8949
8238 8763 173 
8239 9863 1124
8240 4592 7233
8241 7221 6026
8242 3192 4375
8243 1067 4920
8244 7650 5147
8245 1394 490 
8246 4057 1802
8247 3063 5145
8248 834  5990
8249 3569 6855
8250 3967 7792
8251 2248 3658
8252 5515 8314
8253 9580 6839
8254 3980 4483
8255 9414 9587
8256 3074 5535
8257 5781 407 
8258 4505 6414
8259 3181 6109
8260 7057 1165
8261 3539 234 
8262 7536 2040
8263 1365 2130
8264 1931 2994
8265 2321 6480
8266 3114 9035
8267 7599 6005
8268 8254 5064
8269 4577 4904
8270 3726 5408
8271 4562 6219
8272 7125 4539
8273 246  9777
8274 3392 9287
8275 2569 669 
8276 3779 7218
8277 3253 2527
8278 2863 3111
8279 8886 1310
8280 3781 8714
8281 3650 8137
8282 2801 7484
8283 509  1875
8284 9476 5115
8285 6998 392 
8286 565  6534
8287 6144 2761
8288 4410 7501
8289 8885 4562
8290 4628 1271
8291 251  3105
8292 6963 6332
8293 3347 3568
8294 9904 413 
8295 7410 8548
8296 3808 9516
8297 4409 2048
8298 8754 3026
8299 8827 5084
8300 2914 2042
8301 5691 445 
8302 8593 5001
8303 5734 8198
8304 6991 9972
8305 2755 7607
8306 1448 1931
8307 4021 5826
8308 5865 5322
8309 1476 5850
8310 2719 3404
8311 5692 961 
8312 8218 8913
8313 2103 4570
8314 6759 2812
8315 2157 8800
8316 8426 7621
8317 1901 7652
8318 375  6518
8319 3696 6429
8320 9281 7986
8321 879  359 
8322 5076 9830
8323 965  4929
8324 5370 4262
8325 7896 1854
8326 4618 100 
8327 2368 3886
8328 1933 9402
8329 9025 8932
8330 8600 7235
8331 2346 5525
8332 103  682 
8333 6050 8152
8334 7302 3569
8335 4665 1884
8336 5149 5905
8337 8443 2721
8338 41   7086
8339 7642 2868
8340 2816 3865
8341 4904 3424
8342 5186 1982
8343 9999 7624
8344 8319 6051
8345 1393 1742
8346 4449 8162
8347 7925 820 
8348 3060 2713
8349 4003 1037
8350 9508 5960
8351 9084 2077
8352 6847 1390
8353 7456 2931
8354 9956 5681
8355 7764 5693
8356 2248 7325
8357 7969 8660
8358 4981 9503
8359 5245 7597
8360 197  5538
8361 6587 6710
8362 9773 3531
8363 295  9332
8364 3476 524 
8365 6591 19  
8366 6594 4652
8367 5600 1535
8368 7519 4500
8369 5699 2225
8370 4501 8152
8371 6012 6296
8372 9446 3347
8373 4668 7295
8374 8560 2565
8375 6968 2781
8376 6294 1229
8377 5524 3015
8378 4316 7297
8379 2862 9230
8380 8758 2976
8381 9049 220 
8382 4646 4297
8383 2169 3659
8384 8241 5395
8385 6042 7776
8386 7500 2778
8387 9491 5297
8388 9949 9781
8389 1123 5525
8390 1839 1799
8391 7196 8243
8392 427  1226
8393 2924 3220
8394 906  3985
8395 5019 655 
8396 9611 2562
8397 7822 4658
8398 2158 4728
8399 4928 4075
8400 6437 7343
8401 6706 585 
8402 7260 1440
8403 5257 6235
8404 193  954 
8405 1211 428 
8406 8293 5870
8407 5475 4415
8408 6654 8287
8409 5892 9411
8410 6367 7170
8411 6459 8287
8412 3441 3825
8413 5947 6102
8414 7002 7410
8415 5612 6042
8416 1522 4293
8417 6116 2939
8418 798  5983
8419 1433 8513
8420 1986 8697
8421 6239 7381
8422 9139 3989
8423 3380 5626
8424 7756 9346
8425 4178 8537
8426 7757 6052
8427 3841 1232
8428 1655 5685
8429 828  5728
8430 7906 9816
8431 9631 5184
8432 9441 4899
8433 3831 4016
8434 2661 4426
8435 70   1419
8436 9836 8703
8437 3296 7088
8438 8674 9807
8439 6960 366 
8440 3415 2674
8441 9781 2702
8442 4678 8233
8443 9878 4697
8444 4005 6865
8445 3212 4780
8446 1638 2102
8447 5032 6694
8448 2713 4643
8449 7740 5561
8450 7413 7719
8451 5719 9177
8452 5439 732 
8453 9403 9280
8454 2760 6039
8455 2749 2857
8456 4533 1501
8457 3168 8364
8458 3345 3319
8459 662  9148
8460 4797 7716
8461 3919 1873
8462 9774 5514
8463 3559 2662
8464 874  5453
8465 3579 3884
8466 9927 2456
8467 6504 2346
8468 5952 6700
8469 5904 7363
8470 9932 7891
8471 7023 7078
8472 1258 6188
8473 2967 6817
8474 8395 1753
8475 4653 7562
8476 1293 5248
8477 8993 7839
8478 7467 1866
8479 2431 4477
8480 9434 6971
8481 9011 2483
8482 7610 1506
8483 7483 7721
8484 5870 6935
8485 9817 4380
8486 7921 8367
8487 3093 3896
8488 8342 2050
8489 276  9621
8490 8493 1690
8491 5613 4411
8492 2612 5533
8493 2727 115 
8494 8666 7422
8495 5350 6679
8496 3659 2580
8497 1234 713 
8498 568  6828
8499 2386 991 
8500 9538 7793
8501 601  8887
8502 3001 3658
8503 1604 4298
8504 2730 7120
8505 2699 3263
8506 5347 2640
8507 156  5594
8508 6882 5038
8509 6692 3307
8510 8779 1352
8511 5609 6882
8512 6531 5675
8513 5378 611 
8514 5096 5362
8515 7935 2327
8516 4525 1462
8517 8233 673 
8518 5565 660 
8519 5607 997 
8520 5241 4308
8521 8199 7484
8522 6493 399 
8523 151  8109
8524 5555 4267
8525 9964 6710
8526 3648 5274
8527 2677 4643
8528 1629 2146
8529 4881 4601
8530 6763 3847
8531 4135 8207
8532 765  6548
8533 6033 1921
8534 3279 5350
8535 8760 2274
8536 3404 4061
8537 2559 9379
8538 356  2303
8539 6330 3750
8540 140  1980
8541 6061 2783
8542 8079 6874
8543 4487 1730
8544 9427 658 
8545 2478 990 
8546 9486 1049
8547 6986 5388
8548 1698 3466
8549 5613 829 
8550 2840 3159
8551 1747 4951
8552 9440 3166
8553 9012 8496
8554 9810 448 
8555 5526 5464
8556 7588 9350
8557 9771 5410
8558 534  4517
8559 7677 2795
8560 5574 7779
8561 1099 8152
8562 8501 5300
8563 7685 7167
8564 370  7942
8565 7581 162 
8566 2937 4417
8567 62   5901
8568 6438 7652
8569 2207 713 
8570 5932 2855
8571 5271 4727
8572 7548 6902
8573 237  8709
8574 4367 5697
8575 2162 9863
8576 7257 2292
8577 8562 2807
8578 527  4311
8579 757  7549
8580 5584 3511
8581 9439 8086
8582 1676 2047
8583 7613 2168
8584 4135 2536
8585 317  1424
8586 8922 3122
8587 5189 9348
8588 4594 9155
8589 4458 4081
8590 3774 9846
8591 3561 972 
8592 1223 6409
8593 5167 2715
8594 152  7859
8595 5060 7497
8596 2795 3112
8597 9415 3067
8598 6274 7001
8599 7784 3098
8600 5776 6641
8601 1242 4760
8602 62   6714
8603 2725 7114
8604 6810 7924
8605 5530 6049
8606 944  2046
8607 7365 8370
8608 3579 9919
8609 8999 6211
8610 8743 9466
8611 6003 1818
8612 8382 439 
8613 1111 1908
8614 2584 1923
8615 4632 2861
8616 6682 3684
8617 6881 3964
8618 5133 7603
8619 648  2556
8620 8640 6210
8621 5371 3741
8622 9565 2823
8623 2333 9927
8624 488  9420
8625 8058 3101
8626 1638 4761
8627 8286 5809
8628 2314 5914
8629 4822 1322
8630 7549 7706
8631 8269 3541
8632 5556 272 
8633 8972 1262
8634 1572 2607
8635 4904 5139
8636 2106 4676
8637 2670 1556
8638 9241 5352
8639 9693 8816
8640 9051 480 
8641 6067 8680
8642 2032 5547
8643 8942 6623
8644 460  1102
8645 3194 2362
8646 1317 5233
8647 6417 4450
8648 6340 7607
8649 1406 6407
8650 1170 2508
8651 4204 2861
8652 1661 1280
8653 6405 1550
8654 4836 9305
8655 3705 6280
8656 5303 2278
8657 3967 3296
8658 9882 5817
8659 9591 9074
8660 8562 1312
8661 4271 6198
8662 3188 917 
8663 1380 6326
8664 4314 1639
8665 5792 8675
8666 9766 4026
8667 3040 7996
8668 5721 6410
8669 9618 4854
8670 5580 8986
8671 6017 8755
8672 4078 20  
8673 9401 3164
8674 977  5551
8675 1810 2368
8676 5797 1515
8677 7972 7464
8678 4221 7851
8679 8173 3686
8680 3188 1353
8681 5774 6857
8682 1197 2187
8683 4805 4479
8684 8413 7176
8685 2335 5134
8686 3519 1648
8687 8286 3446
8688 1757 8107
8689 8495 1166
8690 1813 7694
8691 659  3654
8692 4811 3427
8693 7267 3410
8694 1900 7920
8695 622  1003
8696 657  1317
8697 5561 3088
8698 2544 976 
8699 5754 4660
8700 6480 7524
8701 507  5784
8702 7455 5235
8703 9487 6430
8704 6406 2911
8705 5267 8078
8706 965  3507
8707 3368 8756
8708 9709 3643
8709 6715 1993
8710 1853 2417
8711 3944 9944
8712 2654 623 
8713 5140 5443
8714 6826 4593
8715 1270 753 
8716 4003 788 
8717 411  1648
8718 5226 9441
8719 8642 9634
8720 3130 9166
8721 3552 9976
8722 3473 2815
8723 59   9130
8724 6562 7621
8725 6608 376 
8726 1576 3440
8727 7791 7692
8728 4685 5804
8729 7286 1848
8730 3001 5170
8731 4829 8756
8732 5319 8223
8733 2877 9965
8734 2903 5295
8735 1807 7315
8736 7546 7149
8737 1825 657 
8738 7107 4021
8739 1342 4860
8740 6921 496 
8741 8556 2070
8742 4586 9449
8743 1736 6594
8744 2821 6795
8745 2836 1973
8746 3602 9339
8747 664  9573
8748 9885 704 
8749 777  9226
8750 8704 5926
8751 146  3389
8752 6700 1323
8753 6292 6021
8754 7584 8739
8755 6003 5761
8756 4898 390 
8757 6402 201 
8758 4714 5482
8759 8441 9247
8760 8938 2604
8761 9288 3935
8762 10   4847
8763 9289 5610
8764 8574 2896
8765 8036 6850
8766 3171 3857
8767 5917 730 
8768 3983 2808
8769 4183 2698
8770 3231 915 
8771 7485 148 
8772 6430 3298
8773 3125 8306
8774 9389 5270
8775 8841 7040
8776 5917 508 
8777 8514 3773
8778 7677 8360
8779 6160 6692
8780 3515 8185
8781 5914 5891
8782 5156 3918
8783 2921 1660
8784 8582 7427
8785 5349 9884
8786 6808 4395
8787 5437 264 
8788 3333 3270
8789 2438 6122
8790 2117 7028
8791 6258 6822
8792 7560 1085
8793 7854 7138
8794 9761 4318
8795 7991 8985
8796 2688 5077
8797 4631 9846
8798 7290 2367
8799 8297 9162
8800 140  1791
8801 4560 9487
8802 4950 8358
8803 4930 5415
8804 6759 1589
8805 6307 3552
8806 2008 2129
8807 6349 6980
8808 9862 2306
8809 3572 9353
8810 6959 9609
8811 3896 842 
8812 329  2540
8813 9483 1427
8814 7179 209 
8815 3592 695 
8816 3699 3559
8817 942  4978
8818 3083 8643
8819 2990 1306
8820 6898 7580
8821 3179 7768
8822 4535 8571
8823 2370 3419
8824 3258 5714
8825 4782 3717
8826 1805 7075
8827 2259 6554
8828 3236 6276
8829 1064 9577
8830 9009 4726
8831 6497 7593
8832 4874 4790
8833 7813 3697
8834 7400 1844
8835 5812 7443
8836 859  7624
8837 4353 4925
8838 8142 8681
8839 8512 6824
8840 4942 2588
8841 9484 7266
8842 4855 2501
8843 729  8753
8844 3252 5656
8845 9523 4679
8846 1351 6043
8847 9891 9333
8848 8093 8364
8849 8766 7082
8850 2801 2678
8851 1223 8938
8852 5053 1550
8853 2278 4346
8854 9969 4452
8855 4088 6900
8856 9061 6473
8857 4360 3245
8858 8069 4907
8859 8032 5838
8860 4694 6319
8861 7500 3588
8862 3181 8573
8863 3952 8367
8864 8611 5028
8865 6279 791 
8866 641  8021
8867 8599 5054
8868 8633 2992
8869 1375 1192
8870 1493 6464
8871 6605 6532
8872 9754 2825
8873 2117 2542
8874 1208 9102
8875 5940 871 
8876 9549 8167
8877 1957 4374
8878 6649 2485
8879 3411 1408
8880 7945 1651
8881 6872 4352
8882 8695 2087
8883 6115 475 
8884 9896 366 
8885 9279 9604
8886 5570 5684
8887 8227 3058
8888 2366 4517
8889 5595 6088
8890 8883 5866
8891 5041 1563
8892 223  3712
8893 8724 4761
8894 2372 9833
8895 3672 4797
8896 3535 2329
8897 3791 6111
8898 5953 5298
8899 8400 2721
8900 8100 2594
8901 9781 5708
8902 9170 6600
8903 4479 3840
8904 479  5472
8905 1849 181 
8906 8590 406 
8907 3818 706 
8908 172  6145
8909 2615 1788
8910 9331 3303
8911 3737 8595
8912 8128 5106
8913 9951 9755
8914 4431 6   
8915 7649 3465
8916 9300 3846
8917 9560 6284
8918 7143 4502
8919 2281 902 
8920 6411 670 
8921 8406 4561
8922 2220 9734
8923 8292 8315
8924 119  1443
8925 1755 2321
8926 7700 1833
8927 2175 1271
8928 2985 657 
8929 3701 2117
8930 5534 8638
8931 2575 3079
8932 2528 936 
8933 7206 4553
8934 9478 5801
8935 4972 5659
8936 1973 2427
8937 6272 5550
8938 3269 3346
8939 9104 7287
8940 4617 882 
8941 820  1252
8942 3738 2195
8943 1778 6516
8944 5020 7449
8945 8712 163 
8946 5117 103 
8947 6602 8907
8948 545  8570
8949 1754 7040
8950 5895 1446
8951 1590 1115
8952 6456 5829
8953 3575 6359
8954 5211 1703
8955 994  9187
8956 9525 6891
8957 52   4709
8958 175  6084
8959 6730 4931
8960 5702 9264
8961 2743 8594
8962 8626 768 
8963 2870 4109
8964 792  7034
8965 7101 384 
8966 154  2824
8967 5825 2440
8968 6389 9599
8969 4354 8896
8970 3502 8916
8971 6904 6954
8972 262  8613
8973 8496 9676
8974 5382 9779
8975 7127 7537
8976 1875 154 
8977 7605 2397
8978 6738 8317
8979 8476 8897
8980 8321 9472
8981 2056 1712
8982 6922 6979
8983 972  854 
8984 4060 3705
8985 323  5625
8986 1193 9091
8987 523  3836
8988 2320 1757
8989 5613 2992
8990 5980 8962
8991 5269 9439
8992 29   7351
8993 2416 4442
8994 7915 3660
8995 7017 8141
8996 8855 3326
8997 5832 3083
8998 3580 6236
8999 4877 6236
9000 955  3307
9001 1509 2688
9002 4620 4310
9003 3766 4276
9004 7370 7045
9005 6158 2925
9006 8719 2145
9007 5752 2509
9008 5967 4489
9009 4613 2139
9010 1208 7552
9011 1036 6465
9012 9735 1978
9013 4322 277 
9014 7267 2561
9015 5024 1357
9016 7864 4366
9017 7809 2300
9018 2312 4347
9019 5436 3334
9020 5505 9336
9021 7151 503 
9022 9919 3378
9023 4261 1291
9024 4256 5101
9025 5484 8025
9026 3891 940 
9027 8758 4166
9028 5392 4690
9029 5612 1505
9030 9333 3383
9031 1691 4614
9032 8753 2787
9033 6199 5973
9034 3621 5429
9035 710  6317
9036 4293 2716
9037 3075 8036
9038 2459 867 
9039 4327 6017
9040 1195 7400
9041 7757 14  
9042 8737 4539
9043 595  3044
9044 9674 5304
9045 4918 68  
9046 8169 8299
9047 5699 8508
9048 6539 7157
9049 937  7013
9050 8338 7605
9051 1516 6140
9052 4233 9043
9053 1572 5054
9054 9782 6014
9055 9435 4541
9056 9806 4188
9057 1336 4017
9058 544  3661
9059 4204 7933
9060 3226 3664
9061 1892 6849
9062 4059 4924
9063 3295 2561
9064 8703 423 
9065 8611 4894
9066 4410 1576
9067 1690 8453
9068 1297 2467
9069 4988 8730
9070 5969 1899
9071 4082 7118
9072 6983 7327
9073 679  125 
9074 7827 4469
9075 8693 6419
9076 4548 7719
9077 3882 8849
9078 4894 9206
9079 7646 8977
9080 635  8485
9081 3755 8344
9082 7696 2611
9083 5748 9036
9084 9740 5370
9085 9988 3249
9086 5950 1687
9087 7162 7496
9088 1448 7368
9089 9152 2629
9090 1414 4013
9091 8135 4209
9092 2429 5134
9093 8268 7797
9094 8495 9366
9095 7336 5567
9096 3660 6309
9097 6741 1029
9098 849  2711
9099 611  8465
9100 4044 7081
9101 2151 547 
9102 965  2121
9103 5550 2218
9104 8760 2408
9105 6577 7293
9106 978  4248
9107 3519 8261
9108 2895 1632
9109 3018 6854
9110 9459 2062
9111 2241 1615
9112 9369 9305
9113 280  9134
9114 6371 4936
9115 8643 8816
9116 3869 900 
9117 2089 8083
9118 6014 8391
9119 4125 9317
9120 4564 5284
9121 7997 7140
9122 5138 663 
9123 9483 1479
9124 445  7485
9125 9369 1792
9126 7590 8322
9127 7285 3327
9128 4773 1237
9129 5983 6883
9130 8023 2393
9131 6420 6467
9132 8938 6381
9133 1322 5394
9134 5828 1804
9135 3578 3302
9136 5206 4416
9137 7913 6637
9138 8991 491 
9139 5471 4900
9140 4739 4215
9141 7928 3323
9142 1211 6770
9143 2722 5694
9144 1971 8229
9145 9343 9974
9146 6311 1669
9147 4006 1943
9148 6031 6631
9149 3886 1141
9150 5407 6745
9151 1129 4370
9152 9008 3257
9153 7199 5694
9154 4667 6877
9155 9281 2200
9156 2637 3063
9157 9202 5942
9158 4194 4797
9159 3262 2   
9160 8910 6183
9161 3587 2709
9162 8994 7383
9163 7801 1185
9164 7788 317 
9165 9287 5923
9166 5412 3079
9167 4053 2618
9168 9327 4578
9169 3205 5478
9170 436  8617
9171 6161 3616
9172 356  9047
9173 412  20  
9174 5758 1322
9175 3259 2859
9176 4650 2388
9177 4176 431 
9178 4117 6769
9179 3239 4157
9180 545  7297
9181 8451 1496
9182 5306 6350
9183 7580 990 
9184 2247 1388
9185 8830 6178
9186 6754 3499
9187 755  8366
9188 5238 7470
9189 1310 1419
9190 6112 8780
9191 5462 3666
9192 933  5792
9193 9412 6979
9194 9385 2756
9195 6684 4026
9196 8567 3053
9197 8417 3604
9198 9709 7286
9199 2521 5003
9200 3218 1430
9201 6588 8777
9202 5139 5051
9203 2705 4213
9204 1220 2935
9205 8981 554 
9206 6002 649 
9207 6935 1880
9208 9094 3122
9209 7612 6211
9210 7122 3664
9211 9168 4057
9212 8372 6578
9213 8452 2978
9214 6579 1419
9215 2281 7257
9216 6938 1458
9217 7047 9897
9218 8228 7049
9219 984  381 
9220 822  621 
9221 7946 178 
9222 8234 1810
9223 8839 883 
9224 1346 7958
9225 2003 4963
9226 7565 840 
9227 6526 2674
9228 4779 2308
9229 1828 742 
9230 2829 7789
9231 215  7881
9232 7754 6674
9233 9674 5045
9234 4225 8875
9235 6557 7355
9236 2272 8891
9237 2080 5152
9238 609  419 
9239 6527 9874
9240 9078 6703
9241 4084 3584
9242 5804 5848
9243 5701 8878
9244 6017 6376
9245 7680 2475
9246 4015 1234
9247 8150 7563
9248 5392 2131
9249 5160 7034
9250 4148 7278
9251 8024 9673
9252 9347 2840
9253 304  8561
9254 7537 7429
9255 4937 5659
9256 336  3999
9257 1886 6165
9258 3265 9274
9259 5400 5158
9260 825  1464
9261 9061 6631
9262 8848 2369
9263 1697 6501
9264 9843 3458
9265 25   6113
9266 5900 9579
9267 5854 1145
9268 1294 5922
9269 1407 4351
9270 7095 9683
9271 8834 5491
9272 694  9430
9273 9342 2734
9274 4466 1848
9275 3565 5915
9276 1367 7925
9277 5662 8766
9278 8903 1335
9279 1720 4521
9280 7781 3081
9281 4816 4710
9282 9146 8853
9283 2052 5316
9284 2651 1433
9285 1045 6367
9286 9600 8165
9287 9859 4540
9288 6226 5151
9289 4819 767 
9290 9176 1246
9291 4149 3983
9292 3919 7811
9293 8240 7486
9294 6110 1399
9295 3047 408 
9296 870  8800
9297 9532 5442
9298 1069 4780
9299 8951 5855
9300 4971 3010
9301 4166 7543
9302 7237 8512
9303 2162 6386
9304 4592 9038
9305 9746 9357
9306 5917 7047
9307 235  9890
9308 4085 9634
9309 9463 2057
9310 3626 4261
9311 9366 962 
9312 1235 3635
9313 444  8873
9314 6516 3262
9315 4289 5774
9316 4934 4926
9317 3160 7438
9318 9559 4367
9319 3184 6009
9320 6713 98  
9321 4289 778 
9322 9965 9718
9323 7253 2996
9324 5246 6223
9325 1541 362 
9326 9907 4348
9327 3402 2507
9328 7131 3628
9329 1852 5449
9330 3442 1991
9331 6403 8434
9332 7840 1520
9333 4932 7766
9334 7637 1606
9335 2367 3326
9336 2641 9777
9337 8514 8575
9338 6008 2641
9339 4883 3514
9340 3519 9809
9341 8997 2553
9342 5174 2674
9343 4600 2306
9344 7006 7621
9345 9024 8004
9346 1907 2317
9347 7791 9230
9348 3211 7494
9349 6133 4467
9350 5541 8939
9351 9092 7729
9352 1908 6729
9353 4503 9696
9354 3875 3260
9355 8433 6075
9356 9443 5764
9357 3093 1255
9358 5974 995 
9359 8756 5782
9360 8703 9586
9361 1829 4491
9362 1811 5008
9363 8384 4954
9364 188  1207
9365 3741 5727
9366 2451 2426
9367 8148 6655
9368 5616 1379
9369 7407 4353
9370 4959 731 
9371 4844 4529
9372 9891 3965
9373 963  5735
9374 7742 2950
9375 8420 8231
9376 7521 7459
9377 2773 4949
9378 1527 4444
9379 8551 7960
9380 8595 4078
9381 5142 1043
9382 4281 1838
9383 8089 5710
9384 3655 6096
9385 6419 4180
9386 5056 5216
9387 4071 6200
9388 983  9410
9389 9698 1079
9390 7284 2141
9391 8223 4343
9392 3757 2409
9393 453  4257
9394 9574 7761
9395 9118 2380
9396 4042 3493
9397 2945 6680
9398 7851 1233
9399 9787 4827
9400 2447 2399
9401 9136 8610
9402 4837 4328
9403 9565 1063
9404 2294 4375
9405 7833 152 
9406 6357 3139
9407 5694 5374
9408 7941 9271
9409 6496 9999
9410 6719 210 
9411 2983 472 
9412 1236 2208
9413 3995 6448
9414 5241 2319
9415 9595 7039
9416 1169 77  
9417 835  3153
9418 8196 5963
9419 2862 1310
9420 9454 5907
9421 5321 6120
9422 5807 9056
9423 1440 4240
9424 183  26  
9425 8769 2780
9426 8401 6103
9427 4930 1049
9428 3389 3792
9429 837  1829
9430 5504 435 
9431 8949 247 
9432 7473 7009
9433 37   7482
9434 3652 1753
9435 2968 7543
9436 4055 1676
9437 7420 6349
9438 8939 5197
9439 9742 7312
9440 8239 8375
9441 9655 5140
9442 1643 9818
9443 9814 9810
9444 7423 3928
9445 7339 5203
9446 7866 8153
9447 4434 4559
9448 712  4722
9449 2866 9618
9450 8961 3370
9451 8764 2125
9452 2500 8254
9453 6119 8628
9454 9623 1477
9455 2889 5166
9456 8497 7142
9457 9568 6703
9458 9343 8019
9459 7038 3604
9460 8310 7695
9461 3664 2971
9462 7267 9550
9463 1607 5057
9464 8929 8270
9465 2854 2841
9466 1868 7267
9467 8517 5790
9468 4854 5940
9469 4641 6124
9470 2473 4591
9471 8077 782 
9472 2474 4144
9473 634  3171
9474 8095 6001
9475 4042 2741
9476 3292 8589
9477 2209 2013
9478 3596 9833
9479 749  6359
9480 3922 7203
9481 7998 9134
9482 5752 901 
9483 3718 9024
9484 6829 848 
9485 4887 84  
9486 6831 9533
9487 4335 5479
9488 9661 536 
9489 1534 6896
9490 9574 1243
9491 7201 7933
9492 3232 3902
9493 7149 2783
9494 294  6416
9495 3355 5440
9496 5081 4656
9497 4517 9386
9498 750  9023
9499 1626 4865
9500 1139 8061
9501 7223 305 
9502 10   5840
9503 7728 9628
9504 1209 3227
9505 8838 7607
9506 3659 4827
9507 2650 3082
9508 2418 8597
9509 6303 8448
9510 7870 8440
9511 7890 1997
9512 9961 4897
9513 5587 9882
9514 8697 2003
9515 2121 6825
9516 5604 7675
9517 2425 2727
9518 9346 7818
9519 5016 267 
9520 4279 3047
9521 2191 2010
9522 5683 6293
9523 6686 6235
9524 137  6029
9525 4305 1640
9526 5519 6767
9527 8967 1359
9528 2410 2032
9529 4986 4544
9530 2401 6415
9531 4981 606 
9532 7544 4259
9533 8100 6742
9534 9244 1895
9535 9441 6111
9536 2395 3069
9537 714  9640
9538 3202 3997
9539 5803 4554
9540 1181 777 
9541 710  4444
9542 8301 3044
9543 810  6425
9544 7510 2606
9545 9467 6800
9546 4368 4340
9547 1003 2896
9548 2660 5545
9549 1165 5701
9550 5535 9519
9551 296  4010
9552 4265 914 
9553 8485 9981
9554 5800 3598
9555 3171 4975
9556 4919 6611
9557 898  5842
9558 3540 9824
9559 1041 6617
9560 4183 8218
9561 5488 1241
9562 6678 7612
9563 5532 4973
9564 4319 3925
9565 9029 264 
9566 9225 4316
9567 3443 7501
9568 740  2741
9569 7174 1040
9570 2069 4819
9571 3763 71  
9572 9020 8950
9573 2155 9719
9574 8471 8910
9575 7742 4650
9576 8021 9407
9577 3183 9703
9578 3064 5068
9579 6845 2755
9580 4883 4458
9581 1103 8624
9582 7256 5098
9583 6563 578 
9584 968  3618
9585 9627 6491
9586 9807 2809
9587 3445 7070
9588 8695 7572
9589 419  9215
9590 2211 2800
9591 4267 2671
9592 1151 5276
9593 5651 255 
9594 4384 9690
9595 7333 4465
9596 6893 4410
9597 13   123 
9598 7131 9412
9599 9028 4195
9600 5985 458 
9601 4508 858 
9602 2824 2864
9603 306  2666
9604 3866 312 
9605 6312 2851
9606 5459 991 
9607 9620 7862
9608 5416 3458
9609 8373 9088
9610 7060 734 
9611 4398 4972
9612 8446 6474
9613 6649 6299
9614 5825 5598
9615 2972 8627
9616 8854 3413
9617 6107 4097
9618 7619 3894
9619 7050 1639
9620 1556 2466
9621 4622 8792
9622 350  8918
9623 213  4254
9624 9527 667 
9625 1803 6476
9626 2732 8200
9627 5282 6024
9628 7364 5965
9629 2802 8189
9630 3718 5529
9631 8204 7620
9632 860  4908
9633 4871 1634
9634 5670 7822
9635 8553 8378
9636 837  9022
9637 7214 4639
9638 7242 6980
9639 8913 9034
9640 7606 3633
9641 595  958 
9642 5896 1102
9643 2425 7005
9644 8293 9247
9645 74   6699
9646 9580 436 
9647 4067 6528
9648 4463 4511
9649 2258 740 
9650 7777 3215
9651 6855 4830
9652 6226 1589
9653 5490 3499
9654 133  8772
9655 5563 1781
9656 8420 7734
9657 6791 9916
9658 1352 2148
9659 9573 2436
9660 8120 6973
9661 9230 8164
9662 7505 6708
9663 6154 8850
9664 315  3851
9665 3576 2593
9666 7405 5726
9667 2909 4622
9668 9370 2278
9669 2509 2644
9670 1208 1682
9671 2405 3600
9672 8671 3634
9673 3044 9253
9674 3718 6229
9675 3842 8458
9676 6410 3919
9677 8269 8039
9678 6074 4523
9679 7205 8353
9680 8813 7349
9681 3946 2761
9682 9798 9541
9683 8270 3399
9684 6807 6324
9685 5911 9646
9686 8786 5045
9687 7961 7976
9688 4927 9365
9689 3242 9206
9690 8891 9856
9691 6898 2336
9692 8075 5543
9693 5450 5938
9694 1713 9432
9695 9181 1644
9696 7950 7124
9697 4620 3511
9698 63   3846
9699 3021 162 
9700 3510 4631
9701 1791 5426
9702 7819 2632
9703 7471 7008
9704 8402 548 
9705 5378 7905
9706 1379 5589
9707 2181 7892
9708 3955 8607
9709 6239 75  
9710 6681 6398
9711 9218 9554
9712 7112 9526
9713 8849 3673
9714 5499 2462
9715 8385 2368
9716 6668 1212
9717 678  7418
9718 7627 2385
9719 1889 5241
9720 8767 6000
9721 3084 9957
9722 5756 4686
9723 4353 1213
9724 5117 6617
9725 8057 2462
9726 3277 4557
9727 3417 18  
9728 2681 3570
9729 2295 630 
9730 4688 2747
9731 3375 9704
9732 5828 5345
9733 4792 7348
9734 3748 4188
9735 6729 130 
9736 2506 6374
9737 3541 1982
9738 3458 8355
9739 4943 999 
9740 6679 5345
9741 9725 7259
9742 717  2465
9743 8107 6225
9744 6165 9472
9745 2431 8334
9746 7262 7650
9747 4383 2321
9748 1027 6824
9749 5322 8408
9750 1037 1319
9751 5491 2804
9752 7691 3975
9753 5646 813 
9754 6465 9252
9755 4074 6159
9756 1183 4310
9757 2794 3733
9758 3371 7194
9759 2116 5238
9760 957  25  
9761 1298 2315
9762 1704 1306
9763 5198 2588
9764 4964 1130
9765 5572 1029
9766 8649 8885
9767 5867 7071
9768 7365 986 
9769 5702 8280
9770 9255 191 
9771 2464 5129
9772 2036 7314
9773 1028 6815
9774 4907 4358
9775 2374 3271
9776 6430 5120
9777 831  4371
9778 2968 80  
9779 3625 3222
9780 3515 5521
9781 7944 6429
9782 3903 579 
9783 4144 6552
9784 5201 5807
9785 6857 813 
9786 1316 5513
9787 8799 5170
9788 6456 7857
9789 3128 5712
9790 1374 1634
9791 51   7970
9792 1657 9339
9793 5319 528 
9794 8893 7194
9795 6237 6885
9796 7030 8672
9797 8017 7439
9798 9903 6235
9799 5283 9836
9800 4721 8897
9801 5187 2539
9802 6991 1244
9803 4337 2819
9804 5835 1179
9805 6592 7812
9806 5262 1795
9807 7992 4875
9808 749  4086
9809 3292 9298
9810 7906 9471
9811 3720 8170
9812 7279 2282
9813 5115 5770
9814 5305 5762
9815 3574 8447
9816 7666 576 
9817 4166 1380
9818 7333 3871
9819 7530 2507
9820 686  2308
9821 5175 3049
9822 8436 1735
9823 2271 5237
9824 7791 9584
9825 9171 2228
9826 9660 6872
9827 1583 1164
9828 3881 5979
9829 3965 3741
9830 9767 3897
9831 829  4246
9832 8352 1419
9833 7643 1150
9834 296  1936
9835 6138 2323
9836 9154 8401
9837 4167 9545
9838 5494 5071
9839 8539 3916
9840 4415 2906
9841 3456 8556
9842 4067 2687
9843 1594 229 
9844 6874 7019
9845 4887 8399
9846 7535 6514
9847 7268 1867
9848 2765 4705
9849 1837 7588
9850 6574 9325
9851 3132 7055
9852 50   5405
9853 7253 8869
9854 1506 359 
9855 1151 7090
9856 990  6051
9857 6284 5932
9858 8827 2668
9859 8566 3824
9860 9430 5584
9861 5708 6885
9862 3118 428 
9863 3601 6658
9864 6444 6175
9865 8625 7638
9866 8162 3833
9867 9499 6825
9868 3689 3033
9869 9573 5284
9870 8744 1527
9871 7357 8617
9872 9477 2449
9873 5755 9318
9874 5709 6962
9875 4021 583 
9876 8652 483 
9877 2205 91  
9878 8635 8032
9879 6310 1682
9880 9854 4073
9881 9098 4141
9882 2675 6353
9883 2330 3388
9884 2549 8419
9885 5164 8005
9886 1089 5478
9887 4046 85  
9888 7119 3145
9889 5617 4880
9890 7328 7990
9891 7089 4934
9892 2076 7358
9893 979  902 
9894 332  6496
9895 9823 7483
9896 5380 6412
9897 3072 5346
9898 6648 7496
9899 8051 1692
9900 8834 1628
9901 2765 4366
9902 943  9162
9903 4868 3290
9904 1272 1869
9905 379  7272
9906 7815 950 
9907 35   3141
9908 6359 4228
9909 1027 2767
9910 3356 7985
9911 9582 1808
9912 6411 9663
9913 662  3674
9914 8570 4163
9915 937  3273
9916 9880 1249
9917 8232 3727
9918 9236 4525
9919 2488 4115
9920 8784 4191
9921 5089 8781
9922 1688 5293
9923 9020 9998
9924 1690 3082
9925 6092 7933
9926 3725 3171
9927 7731 2331
9928 3746 8033
9929 353  4178
9930 7683 6812
9931 7896 949 
9932 3440 2502
9933 6751 3463
9934 4451 2090
9935 859  5004
9936 8418 8001
9937 4613 1976
9938 4189 6030
9939 2858 2780
9940 9505 821 
9941 490  2106
9942 1394 9141
9943 6179 7162
9944 7268 4276
9945 2413 7477
9946 1268 9744
9947 6890 6239
9948 2422 1401
9949 4258 9350
9950 7916 1248
9951 6570 141 
9952 462  3128
9953 9757 6389
9954 2695 9401
9955 5550 5952
9956 751  2674
9957 144  5455
9958 3258 70  
9959 1299 3380
9960 568  2858
9961 5605 3885
9962 6399 8122
9963 3125 6787
9964 7212 5029
9965 3984 1327
9966 5568 7838
9967 333  9652
9968 80   1299
9969 6400 738 
9970 7101 6661
9971 1316 2272
9972 82   193 
9973 9334 5525
9974 2963 252 
9975 750  5784
9976 7865 2382
9977 3993 6120
9978 3122 1182
9979 766  6866
9980 3100 1286
9981 7969 6947
9982 6801 3475
9983 835  3543
9984 2120 3894
9985 8393 8745
9986 3449 8556
9987 7650 7362
9988 1314 8312
9989 9786 9197
9990 9712 9132
9991 9970 6391
9992 174  4106
9993 8943 3417
9994 6335 4297
9995 5493 6843
9996 8189 1151
9997 2063 8255
9998 504  8602
9999 2966 6533
10000 8997 7534
10001 3970 8046
DEMAND_SECTION
1    0   
2    63  
3    56  
4    76  
5    67  
6    89  
7    90  
8    91  
9    86  
10   73  
11   61  
12   83  
13   74  
14   84  
15   91  
16   99  
17   89  
18   57  
19   54  
20   68  
21   51  
22   83  
23   73  
24   61  
25   100 
26   85  
27   63  
28   97  
29   60  
30   75  
31   64  
32   99  
33   69  
34   71  
35   57  
36   76  
37   74  
38   67  
39   75  
40   92  
41   74  
42   54  
43   64  
44   69  
45   84  
46   78  
47   99  
48   59  
49   84  
50   68  
51   69  
52   60  
53   70  
54   68  
55   86  
56   58  
57   52  
58   71  
59   91  
60   100 
61   89  
62   78  
63   73  
64   69  
65   86  
66   77  
67   50  
68   81  
69   64  
70   90  
71   82  
72   98  
73   96  
74   86  
75   66  
76   99  
77   57  
78   73  
79   50  
80   79  
81   63  
82   82  
83   64  
84   58  
85   99  
86   77  
87   91  
88   51  
89   53  
90   54  
91   85  
92   76  
93   63  
94   89  
95   65  
96   97  
97   60  
98   72  
99   64  
100  100 
101  83  
102  84  
103  77  
104  80  
105  86  
106  86  
107  81  
108  58  
109  60  
110  98  
111  80  
112  97  
113  51  
114  63  
115  77  
116  82  
117  82  
118  81  
119  61  
120  89  
121  73  
122  67  
123  90  
124  94  
125  83  
126  54  
127  97  
128  100 
129  50  
130  100 
131  83  
132  94  
133  75  
134  95  
135  75  
136  63  
137  86  
138  58  
139  87  
140  73  
141  80  
142  86  
143  61  
144  63  
145  96  
146  57  
147  83  
148  54  
149  54  
150  99  
151  61  
152  93  
153  57  
154  59  
155  83  
156  74  
157  78  
158  50  
159  78  
160  95  
161  72  
162  82  
163  64  
164  76  
165  63  
166  96  
167  64  
168  54  
169  79  
170  88  
171  50  
172  56  
173  54  
174  58  
175  52  
176  67  
177  83  
178  76  
179  68  
180  63  
181  60  
182  62  
183  82  
184  66  
185  96  
186  88  
187  72  
188  74  
189  79  
190  57  
191  53  
192  96  
193  99  
194  62  
195  91  
196  59  
197  82  
198  70  
199  59  
200  59  
201  92  
202  60  
203  63  
204  87  
205  98  
206  53  
207  60  
208  64  
209  58  
210  62  
211  77  
212  73  
213  69  
214  81  
215  94  
216  92  
217  79  
218  53  
219  89  
220  63  
221  73  
222  93  
223  96  
224  50  
225  89  
226  78  
227  67  
228  79  
229  54  
230  50  
231  69  
232  93  
233  55  
234  78  
235  69  
236  64  
237  82  
238  76  
239  85  
240  84  
241  89  
242  57  
243  59  
244  56  
245  58  
246  89  
247  96  
248  88  
249  94  
250  79  
251  85  
252  71  
253  70  
254  55  
255  94  
256  73  
257  61  
258  79  
259  84  
260  93  
261  52  
262  86  
263  65  
264  65  
265  57  
266  92  
267  55  
268  100 
269  90  
270  67  
271  85  
272  91  
273  61  
274  72  
275  76  
276  70  
277  68  
278  80  
279  55  
280  82  
281  98  
282  64  
283  51  
284  73  
285  75  
286  80  
287  67  
288  84  
289  99  
290  99  
291  61  
292  75  
293  82  
294  66  
295  93  
296  71  
297  55  
298  62  
299  91  
300  73  
301  63  
302  96  
303  54  
304  71  
305  78  
306  85  
307  73  
308  60  
309  91  
310  100 
311  76  
312  75  
313  65  
314  97  
315  72  
316  94  
317  94  
318  54  
319  100 
320  59  
321  89  
322  83  
323  92  
324  75  
325  87  
326  59  
327  90  
328  63  
329  100 
330  97  
331  81  
332  53  
333  52  
334  85  
335  69  
336  62  
337  69  
338  59  
339  73  
340  93  
341  88  
342  82  
343  95  
344  100 
345  55  
346  96  
347  82  
348  99  
349  98  
350  75  
351  61  
352  80  
353  67  
354  62  
355  91  
356  98  
357  52  
358  65  
359  82  
360  73  
361  78  
362  77  
363  83  
364  97  
365  95  
366  71  
367  79  
368  88  
369  58  
370  56  
371  88  
372  54  
373  79  
374  83  
375  73  
376  62  
377  82  
378  82  
379  61  
380  80  
381  85  
382  68  
383  67  
384  85  
385  52  
386  83  
387  80  
388  83  
389  98  
390  52  
391  57  
392  86  
393  50  
394  63  
395  79  
396  84  
397  64  
398  90  
399  66  
400  100 
401  71  
402  50  
403  68  
404  54  
405  70  
406  57  
407  51  
408  59  
409  94  
410  59  
411  52  
412  85  
413  58  
414  88  
415  93  
416  98  
417  77  
418  92  
419  72  
420  93  
421  64  
422  87  
423  62  
424  85  
425  71  
426  75  
427  93  
428  60  
429  51  
430  91  
431  53  
432  74  
433  77  
434  51  
435  100 
436  80  
437  67  
438  62  
439  91  
440  56  
441  84  
442  66  
443  80  
444  65  
445  56  
446  66  
447  50  
448  75  
449  94  
450  95  
451  60  
452  94  
453  89  
454  57  
455  73  
456  63  
457  50  
458  66  
459  58  
460  68  
461  70  
462  72  
463  75  
464  79  
465  87  
466  79  
467  66  
468  78  
469  61  
470  57  
471  91  
472  98  
473  69  
474  80  
475  69  
476  51  
477  57  
478  55  
479  97  
480  66  
481  83  
482  82  
483  84  
484  99  
485  68  
486  58  
487  75  
488  61  
489  99  
490  75  
491  58  
492  71  
493  78  
494  51  
495  68  
496  87  
497  91  
498  87  
499  57  
500  87  
501  97  
502  71  
503  55  
504  73  
505  73  
506  62  
507  90  
508  54  
509  52  
510  80  
511  60  
512  67  
513  56  
514  77  
515  50  
516  70  
517  77  
518  79  
519  53  
520  85  
521  78  
522  66  
523  80  
524  89  
525  79  
526  74  
527  99  
528  99  
529  67  
530  71  
531  69  
532  90  
533  72  
534  62  
535  59  
536  64  
537  97  
538  54  
539  98  
540  86  
541  90  
542  97  
543  63  
544  67  
545  67  
546  68  
547  80  
548  76  
549  81  
550  69  
551  54  
552  53  
553  80  
554  52  
555  90  
556  100 
557  58  
558  50  
559  74  
560  62  
561  94  
562  96  
563  63  
564  95  
565  86  
566  89  
567  51  
568  65  
569  93  
570  89  
571  70  
572  53  
573  74  
574  86  
575  81  
576  85  
577  71  
578  81  
579  65  
580  70  
581  85  
582  97  
583  65  
584  61  
585  92  
586  79  
587  78  
588  51  
589  56  
590  99  
591  72  
592  71  
593  60  
594  72  
595  59  
596  71  
597  97  
598  90  
599  57  
600  93  
601  82  
602  95  
603  89  
604  53  
605  83  
606  56  
607  89  
608  73  
609  99  
610  84  
611  66  
612  79  
613  93  
614  73  
615  62  
616  77  
617  55  
618  96  
619  61  
620  65  
621  55  
622  54  
623  94  
624  66  
625  82  
626  64  
627  53  
628  94  
629  97  
630  91  
631  79  
632  83  
633  79  
634  54  
635  60  
636  99  
637  59  
638  97  
639  77  
640  84  
641  100 
642  59  
643  71  
644  91  
645  85  
646  92  
647  87  
648  55  
649  84  
650  91  
651  97  
652  100 
653  79  
654  64  
655  59  
656  80  
657  65  
658  92  
659  71  
660  94  
661  51  
662  87  
663  67  
664  58  
665  67  
666  50  
667  56  
668  82  
669  96  
670  81  
671  94  
672  89  
673  95  
674  57  
675  63  
676  81  
677  55  
678  54  
679  51  
680  96  
681  99  
682  66  
683  76  
684  62  
685  88  
686  95  
687  70  
688  62  
689  84  
690  85  
691  65  
692  100 
693  73  
694  71  
695  84  
696  81  
697  92  
698  54  
699  81  
700  67  
701  52  
702  77  
703  76  
704  97  
705  80  
706  97  
707  100 
708  80  
709  61  
710  73  
711  92  
712  89  
713  84  
714  53  
715  77  
716  69  
717  69  
718  98  
719  79  
720  56  
721  96  
722  54  
723  98  
724  90  
725  95  
726  88  
727  95  
728  73  
729  94  
730  65  
731  90  
732  93  
733  74  
734  93  
735  57  
736  68  
737  82  
738  85  
739  80  
740  64  
741  79  
742  85  
743  82  
744  59  
745  67  
746  51  
747  60  
748  62  
749  71  
750  51  
751  71  
752  75  
753  88  
754  64  
755  59  
756  71  
757  73  
758  51  
759  86  
760  80  
761  82  
762  69  
763  63  
764  79  
765  58  
766  50  
767  50  
768  81  
769  74  
770  59  
771  66  
772  83  
773  54  
774  74  
775  78  
776  59  
777  76  
778  59  
779  82  
780  56  
781  72  
782  94  
783  75  
784  80  
785  84  
786  54  
787  63  
788  80  
789  64  
790  83  
791  57  
792  81  
793  61  
794  87  
795  93  
796  91  
797  70  
798  82  
799  72  
800  80  
801  52  
802  98  
803  52  
804  70  
805  77  
806  75  
807  60  
808  76  
809  62  
810  77  
811  57  
812  74  
813  71  
814  63  
815  96  
816  79  
817  66  
818  96  
819  56  
820  61  
821  68  
822  51  
823  99  
824  73  
825  50  
826  64  
827  79  
828  65  
829  50  
830  80  
831  96  
832  62  
833  56  
834  100 
835  93  
836  84  
837  74  
838  55  
839  53  
840  100 
841  51  
842  70  
843  96  
844  93  
845  96  
846  89  
847  64  
848  51  
849  82  
850  61  
851  68  
852  61  
853  84  
854  56  
855  68  
856  57  
857  93  
858  62  
859  67  
860  74  
861  58  
862  91  
863  73  
864  72  
865  88  
866  81  
867  100 
868  98  
869  88  
870  96  
871  66  
872  55  
873  96  
874  84  
875  98  
876  78  
877  75  
878  63  
879  57  
880  82  
881  89  
882  80  
883  64  
884  61  
885  76  
886  95  
887  85  
888  60  
889  75  
890  89  
891  69  
892  82  
893  56  
894  93  
895  94  
896  60  
897  52  
898  81  
899  81  
900  79  
901  66  
902  94  
903  69  
904  50  
905  56  
906  84  
907  90  
908  88  
909  62  
910  64  
911  81  
912  100 
913  82  
914  51  
915  50  
916  51  
917  86  
918  65  
919  66  
920  94  
921  72  
922  72  
923  93  
924  52  
925  51  
926  62  
927  83  
928  53  
929  82  
930  65  
931  97  
932  65  
933  58  
934  54  
935  88  
936  82  
937  94  
938  93  
939  79  
940  85  
941  79  
942  95  
943  94  
944  100 
945  90  
946  92  
947  53  
948  82  
949  55  
950  64  
951  84  
952  68  
953  63  
954  73  
955  51  
956  51  
957  50  
958  69  
959  65  
960  92  
961  86  
962  66  
963  57  
964  98  
965  78  
966  60  
967  88  
968  52  
969  51  
970  75  
971  96  
972  59  
973  89  
974  63  
975  88  
976  62  
977  72  
978  83  
979  80  
980  58  
981  94  
982  72  
983  81  
984  86  
985  69  
986  68  
987  81  
988  92  
989  84  
990  71  
991  72  
992  93  
993  66  
994  82  
995  69  
996  77  
997  75  
998  68  
999  91  
1000 50  
1001 74  
1002 59  
1003 51  
1004 92  
1005 85  
1006 89  
1007 65  
1008 88  
1009 89  
1010 50  
1011 58  
1012 61  
1013 97  
1014 84  
1015 56  
1016 67  
1017 60  
1018 75  
1019 55  
1020 98  
1021 98  
1022 73  
1023 76  
1024 85  
1025 73  
1026 61  
1027 89  
1028 71  
1029 51  
1030 62  
1031 55  
1032 78  
1033 64  
1034 95  
1035 75  
1036 54  
1037 96  
1038 84  
1039 100 
1040 93  
1041 98  
1042 58  
1043 50  
1044 77  
1045 52  
1046 80  
1047 52  
1048 69  
1049 72  
1050 61  
1051 57  
1052 95  
1053 66  
1054 53  
1055 86  
1056 55  
1057 74  
1058 99  
1059 100 
1060 68  
1061 84  
1062 51  
1063 74  
1064 93  
1065 76  
1066 51  
1067 67  
1068 73  
1069 87  
1070 99  
1071 56  
1072 58  
1073 94  
1074 99  
1075 71  
1076 51  
1077 62  
1078 59  
1079 60  
1080 82  
1081 67  
1082 69  
1083 86  
1084 85  
1085 54  
1086 98  
1087 81  
1088 88  
1089 67  
1090 96  
1091 58  
1092 96  
1093 70  
1094 66  
1095 62  
1096 87  
1097 61  
1098 92  
1099 62  
1100 51  
1101 75  
1102 57  
1103 59  
1104 79  
1105 70  
1106 94  
1107 92  
1108 86  
1109 50  
1110 91  
1111 78  
1112 51  
1113 53  
1114 71  
1115 69  
1116 97  
1117 90  
1118 80  
1119 60  
1120 63  
1121 70  
1122 74  
1123 70  
1124 54  
1125 92  
1126 96  
1127 73  
1128 89  
1129 89  
1130 66  
1131 56  
1132 56  
1133 90  
1134 57  
1135 57  
1136 52  
1137 83  
1138 71  
1139 51  
1140 93  
1141 51  
1142 83  
1143 65  
1144 88  
1145 94  
1146 80  
1147 59  
1148 63  
1149 64  
1150 70  
1151 59  
1152 59  
1153 61  
1154 61  
1155 86  
1156 93  
1157 98  
1158 76  
1159 61  
1160 99  
1161 68  
1162 75  
1163 51  
1164 50  
1165 74  
1166 53  
1167 93  
1168 60  
1169 60  
1170 85  
1171 62  
1172 67  
1173 91  
1174 82  
1175 92  
1176 63  
1177 97  
1178 81  
1179 53  
1180 95  
1181 72  
1182 88  
1183 87  
1184 59  
1185 71  
1186 86  
1187 78  
1188 52  
1189 65  
1190 92  
1191 96  
1192 83  
1193 96  
1194 98  
1195 90  
1196 93  
1197 71  
1198 85  
1199 54  
1200 74  
1201 98  
1202 94  
1203 72  
1204 98  
1205 68  
1206 99  
1207 97  
1208 78  
1209 58  
1210 80  
1211 64  
1212 52  
1213 61  
1214 72  
1215 66  
1216 63  
1217 58  
1218 90  
1219 98  
1220 87  
1221 60  
1222 54  
1223 88  
1224 57  
1225 89  
1226 63  
1227 70  
1228 97  
1229 66  
1230 76  
1231 74  
1232 87  
1233 93  
1234 78  
1235 72  
1236 63  
1237 71  
1238 94  
1239 59  
1240 81  
1241 87  
1242 64  
1243 94  
1244 68  
1245 85  
1246 51  
1247 78  
1248 95  
1249 90  
1250 55  
1251 59  
1252 71  
1253 55  
1254 88  
1255 63  
1256 51  
1257 96  
1258 91  
1259 62  
1260 93  
1261 62  
1262 81  
1263 95  
1264 54  
1265 70  
1266 91  
1267 75  
1268 74  
1269 75  
1270 80  
1271 62  
1272 100 
1273 93  
1274 54  
1275 73  
1276 61  
1277 78  
1278 52  
1279 77  
1280 76  
1281 66  
1282 89  
1283 89  
1284 72  
1285 100 
1286 52  
1287 89  
1288 100 
1289 64  
1290 57  
1291 82  
1292 89  
1293 51  
1294 57  
1295 62  
1296 100 
1297 58  
1298 67  
1299 85  
1300 61  
1301 93  
1302 73  
1303 92  
1304 92  
1305 58  
1306 70  
1307 52  
1308 100 
1309 61  
1310 61  
1311 67  
1312 65  
1313 73  
1314 53  
1315 100 
1316 92  
1317 74  
1318 83  
1319 94  
1320 99  
1321 97  
1322 69  
1323 76  
1324 90  
1325 72  
1326 75  
1327 81  
1328 74  
1329 58  
1330 78  
1331 93  
1332 87  
1333 55  
1334 78  
1335 98  
1336 66  
1337 85  
1338 70  
1339 69  
1340 80  
1341 73  
1342 87  
1343 51  
1344 59  
1345 68  
1346 98  
1347 74  
1348 85  
1349 92  
1350 51  
1351 59  
1352 75  
1353 57  
1354 98  
1355 55  
1356 79  
1357 70  
1358 81  
1359 70  
1360 50  
1361 64  
1362 97  
1363 52  
1364 61  
1365 98  
1366 100 
1367 72  
1368 62  
1369 89  
1370 100 
1371 51  
1372 87  
1373 92  
1374 87  
1375 58  
1376 53  
1377 63  
1378 61  
1379 69  
1380 61  
1381 61  
1382 66  
1383 89  
1384 88  
1385 58  
1386 90  
1387 53  
1388 51  
1389 85  
1390 82  
1391 70  
1392 56  
1393 84  
1394 66  
1395 76  
1396 78  
1397 89  
1398 74  
1399 51  
1400 50  
1401 73  
1402 52  
1403 73  
1404 96  
1405 73  
1406 97  
1407 51  
1408 63  
1409 66  
1410 77  
1411 100 
1412 77  
1413 60  
1414 54  
1415 61  
1416 76  
1417 75  
1418 95  
1419 62  
1420 56  
1421 88  
1422 87  
1423 57  
1424 59  
1425 74  
1426 53  
1427 76  
1428 78  
1429 100 
1430 54  
1431 50  
1432 56  
1433 63  
1434 75  
1435 95  
1436 94  
1437 98  
1438 60  
1439 59  
1440 64  
1441 100 
1442 54  
1443 80  
1444 96  
1445 68  
1446 100 
1447 65  
1448 97  
1449 51  
1450 77  
1451 87  
1452 97  
1453 69  
1454 69  
1455 94  
1456 55  
1457 97  
1458 83  
1459 99  
1460 97  
1461 99  
1462 99  
1463 55  
1464 74  
1465 98  
1466 53  
1467 79  
1468 53  
1469 53  
1470 93  
1471 62  
1472 57  
1473 65  
1474 73  
1475 53  
1476 76  
1477 91  
1478 56  
1479 77  
1480 75  
1481 81  
1482 66  
1483 81  
1484 92  
1485 71  
1486 58  
1487 97  
1488 74  
1489 77  
1490 84  
1491 72  
1492 52  
1493 65  
1494 71  
1495 55  
1496 65  
1497 93  
1498 69  
1499 79  
1500 62  
1501 50  
1502 73  
1503 72  
1504 73  
1505 89  
1506 88  
1507 91  
1508 66  
1509 82  
1510 72  
1511 85  
1512 84  
1513 70  
1514 71  
1515 57  
1516 89  
1517 62  
1518 67  
1519 68  
1520 91  
1521 100 
1522 66  
1523 99  
1524 55  
1525 83  
1526 65  
1527 50  
1528 87  
1529 54  
1530 92  
1531 61  
1532 73  
1533 73  
1534 71  
1535 91  
1536 59  
1537 66  
1538 78  
1539 86  
1540 54  
1541 66  
1542 55  
1543 83  
1544 97  
1545 64  
1546 96  
1547 75  
1548 51  
1549 94  
1550 90  
1551 55  
1552 54  
1553 86  
1554 98  
1555 63  
1556 64  
1557 63  
1558 73  
1559 96  
1560 79  
1561 77  
1562 95  
1563 93  
1564 92  
1565 98  
1566 94  
1567 94  
1568 58  
1569 84  
1570 60  
1571 58  
1572 66  
1573 57  
1574 84  
1575 56  
1576 84  
1577 76  
1578 69  
1579 73  
1580 56  
1581 71  
1582 90  
1583 65  
1584 92  
1585 70  
1586 71  
1587 50  
1588 96  
1589 79  
1590 74  
1591 73  
1592 51  
1593 98  
1594 98  
1595 100 
1596 92  
1597 90  
1598 66  
1599 59  
1600 81  
1601 100 
1602 69  
1603 98  
1604 87  
1605 86  
1606 87  
1607 68  
1608 63  
1609 83  
1610 82  
1611 82  
1612 97  
1613 89  
1614 74  
1615 52  
1616 57  
1617 69  
1618 57  
1619 90  
1620 55  
1621 83  
1622 61  
1623 64  
1624 96  
1625 97  
1626 75  
1627 68  
1628 93  
1629 99  
1630 60  
1631 56  
1632 52  
1633 84  
1634 72  
1635 69  
1636 77  
1637 84  
1638 56  
1639 86  
1640 98  
1641 78  
1642 96  
1643 71  
1644 62  
1645 76  
1646 84  
1647 68  
1648 65  
1649 72  
1650 74  
1651 71  
1652 50  
1653 82  
1654 84  
1655 69  
1656 89  
1657 94  
1658 94  
1659 50  
1660 100 
1661 64  
1662 58  
1663 72  
1664 62  
1665 55  
1666 64  
1667 73  
1668 89  
1669 70  
1670 67  
1671 69  
1672 99  
1673 88  
1674 80  
1675 52  
1676 71  
1677 88  
1678 56  
1679 67  
1680 64  
1681 93  
1682 78  
1683 92  
1684 52  
1685 59  
1686 83  
1687 58  
1688 72  
1689 55  
1690 93  
1691 92  
1692 51  
1693 67  
1694 68  
1695 58  
1696 58  
1697 74  
1698 51  
1699 53  
1700 70  
1701 61  
1702 54  
1703 76  
1704 69  
1705 55  
1706 88  
1707 66  
1708 57  
1709 72  
1710 98  
1711 72  
1712 76  
1713 54  
1714 74  
1715 82  
1716 64  
1717 61  
1718 72  
1719 72  
1720 63  
1721 53  
1722 85  
1723 94  
1724 55  
1725 96  
1726 62  
1727 94  
1728 81  
1729 61  
1730 67  
1731 70  
1732 72  
1733 99  
1734 91  
1735 95  
1736 62  
1737 75  
1738 69  
1739 85  
1740 94  
1741 61  
1742 55  
1743 52  
1744 57  
1745 81  
1746 92  
1747 65  
1748 66  
1749 72  
1750 55  
1751 64  
1752 85  
1753 59  
1754 50  
1755 60  
1756 74  
1757 91  
1758 72  
1759 56  
1760 66  
1761 91  
1762 71  
1763 65  
1764 73  
1765 70  
1766 54  
1767 85  
1768 52  
1769 94  
1770 94  
1771 72  
1772 86  
1773 51  
1774 87  
1775 78  
1776 98  
1777 57  
1778 91  
1779 86  
1780 71  
1781 79  
1782 58  
1783 62  
1784 63  
1785 50  
1786 60  
1787 67  
1788 84  
1789 77  
1790 52  
1791 92  
1792 73  
1793 91  
1794 77  
1795 74  
1796 55  
1797 100 
1798 97  
1799 97  
1800 61  
1801 75  
1802 86  
1803 62  
1804 100 
1805 62  
1806 56  
1807 56  
1808 93  
1809 69  
1810 100 
1811 68  
1812 86  
1813 88  
1814 95  
1815 78  
1816 54  
1817 53  
1818 55  
1819 94  
1820 71  
1821 58  
1822 56  
1823 51  
1824 54  
1825 100 
1826 51  
1827 50  
1828 54  
1829 60  
1830 86  
1831 57  
1832 68  
1833 85  
1834 90  
1835 86  
1836 60  
1837 85  
1838 100 
1839 65  
1840 55  
1841 75  
1842 87  
1843 70  
1844 67  
1845 79  
1846 86  
1847 79  
1848 74  
1849 70  
1850 81  
1851 73  
1852 53  
1853 79  
1854 64  
1855 65  
1856 64  
1857 61  
1858 56  
1859 77  
1860 68  
1861 83  
1862 62  
1863 100 
1864 71  
1865 74  
1866 84  
1867 60  
1868 88  
1869 81  
1870 97  
1871 59  
1872 83  
1873 62  
1874 72  
1875 99  
1876 100 
1877 78  
1878 74  
1879 65  
1880 64  
1881 96  
1882 50  
1883 94  
1884 77  
1885 54  
1886 77  
1887 65  
1888 98  
1889 95  
1890 82  
1891 92  
1892 58  
1893 52  
1894 62  
1895 67  
1896 81  
1897 67  
1898 89  
1899 64  
1900 89  
1901 91  
1902 52  
1903 85  
1904 76  
1905 71  
1906 62  
1907 68  
1908 50  
1909 66  
1910 90  
1911 77  
1912 70  
1913 100 
1914 77  
1915 70  
1916 89  
1917 72  
1918 68  
1919 71  
1920 86  
1921 85  
1922 62  
1923 95  
1924 68  
1925 99  
1926 58  
1927 71  
1928 87  
1929 93  
1930 55  
1931 90  
1932 79  
1933 94  
1934 53  
1935 61  
1936 98  
1937 57  
1938 92  
1939 62  
1940 56  
1941 61  
1942 72  
1943 54  
1944 60  
1945 69  
1946 52  
1947 52  
1948 59  
1949 88  
1950 90  
1951 81  
1952 62  
1953 58  
1954 86  
1955 82  
1956 67  
1957 53  
1958 54  
1959 92  
1960 74  
1961 100 
1962 74  
1963 69  
1964 58  
1965 70  
1966 53  
1967 60  
1968 66  
1969 92  
1970 85  
1971 58  
1972 52  
1973 50  
1974 58  
1975 52  
1976 91  
1977 63  
1978 66  
1979 57  
1980 61  
1981 52  
1982 100 
1983 65  
1984 93  
1985 90  
1986 57  
1987 72  
1988 84  
1989 82  
1990 70  
1991 76  
1992 55  
1993 54  
1994 74  
1995 56  
1996 54  
1997 63  
1998 99  
1999 94  
2000 92  
2001 94  
2002 59  
2003 97  
2004 89  
2005 63  
2006 69  
2007 60  
2008 61  
2009 88  
2010 71  
2011 68  
2012 66  
2013 61  
2014 56  
2015 74  
2016 54  
2017 72  
2018 98  
2019 83  
2020 71  
2021 100 
2022 96  
2023 53  
2024 96  
2025 92  
2026 95  
2027 58  
2028 70  
2029 58  
2030 72  
2031 56  
2032 70  
2033 75  
2034 73  
2035 68  
2036 50  
2037 96  
2038 73  
2039 51  
2040 74  
2041 98  
2042 96  
2043 90  
2044 99  
2045 62  
2046 64  
2047 78  
2048 75  
2049 95  
2050 50  
2051 68  
2052 63  
2053 74  
2054 64  
2055 98  
2056 57  
2057 51  
2058 92  
2059 87  
2060 50  
2061 72  
2062 67  
2063 68  
2064 66  
2065 85  
2066 67  
2067 69  
2068 61  
2069 58  
2070 87  
2071 100 
2072 75  
2073 99  
2074 73  
2075 74  
2076 90  
2077 73  
2078 82  
2079 71  
2080 54  
2081 94  
2082 96  
2083 91  
2084 100 
2085 87  
2086 71  
2087 89  
2088 90  
2089 61  
2090 81  
2091 54  
2092 66  
2093 75  
2094 96  
2095 86  
2096 64  
2097 75  
2098 88  
2099 93  
2100 58  
2101 99  
2102 90  
2103 70  
2104 73  
2105 55  
2106 70  
2107 65  
2108 50  
2109 81  
2110 78  
2111 71  
2112 97  
2113 59  
2114 96  
2115 66  
2116 91  
2117 93  
2118 55  
2119 68  
2120 85  
2121 81  
2122 98  
2123 54  
2124 92  
2125 76  
2126 99  
2127 51  
2128 68  
2129 74  
2130 89  
2131 70  
2132 50  
2133 54  
2134 73  
2135 66  
2136 68  
2137 65  
2138 51  
2139 79  
2140 89  
2141 57  
2142 98  
2143 96  
2144 79  
2145 64  
2146 99  
2147 76  
2148 85  
2149 85  
2150 53  
2151 95  
2152 81  
2153 84  
2154 56  
2155 52  
2156 63  
2157 78  
2158 94  
2159 75  
2160 53  
2161 75  
2162 97  
2163 73  
2164 62  
2165 64  
2166 50  
2167 95  
2168 87  
2169 99  
2170 98  
2171 87  
2172 54  
2173 100 
2174 79  
2175 57  
2176 76  
2177 70  
2178 71  
2179 53  
2180 53  
2181 70  
2182 66  
2183 94  
2184 62  
2185 77  
2186 93  
2187 68  
2188 60  
2189 72  
2190 76  
2191 99  
2192 74  
2193 62  
2194 84  
2195 54  
2196 95  
2197 89  
2198 79  
2199 76  
2200 53  
2201 71  
2202 50  
2203 85  
2204 97  
2205 62  
2206 87  
2207 91  
2208 60  
2209 73  
2210 53  
2211 88  
2212 96  
2213 54  
2214 87  
2215 70  
2216 50  
2217 95  
2218 78  
2219 84  
2220 53  
2221 56  
2222 99  
2223 70  
2224 97  
2225 96  
2226 100 
2227 78  
2228 91  
2229 65  
2230 88  
2231 73  
2232 84  
2233 73  
2234 86  
2235 86  
2236 52  
2237 77  
2238 57  
2239 83  
2240 67  
2241 53  
2242 74  
2243 61  
2244 72  
2245 76  
2246 74  
2247 52  
2248 77  
2249 71  
2250 54  
2251 51  
2252 86  
2253 52  
2254 93  
2255 85  
2256 69  
2257 83  
2258 89  
2259 68  
2260 72  
2261 99  
2262 70  
2263 66  
2264 74  
2265 53  
2266 50  
2267 86  
2268 78  
2269 51  
2270 77  
2271 67  
2272 65  
2273 98  
2274 72  
2275 62  
2276 68  
2277 70  
2278 57  
2279 52  
2280 95  
2281 72  
2282 57  
2283 83  
2284 58  
2285 75  
2286 64  
2287 88  
2288 85  
2289 89  
2290 65  
2291 65  
2292 66  
2293 53  
2294 78  
2295 57  
2296 91  
2297 85  
2298 70  
2299 79  
2300 83  
2301 57  
2302 71  
2303 96  
2304 54  
2305 88  
2306 71  
2307 75  
2308 80  
2309 55  
2310 80  
2311 86  
2312 54  
2313 64  
2314 68  
2315 69  
2316 99  
2317 59  
2318 85  
2319 60  
2320 83  
2321 76  
2322 99  
2323 89  
2324 59  
2325 69  
2326 93  
2327 56  
2328 69  
2329 54  
2330 77  
2331 100 
2332 98  
2333 83  
2334 51  
2335 99  
2336 99  
2337 85  
2338 93  
2339 56  
2340 63  
2341 95  
2342 57  
2343 59  
2344 80  
2345 73  
2346 73  
2347 64  
2348 90  
2349 58  
2350 73  
2351 94  
2352 97  
2353 70  
2354 77  
2355 70  
2356 98  
2357 81  
2358 94  
2359 77  
2360 70  
2361 79  
2362 61  
2363 80  
2364 52  
2365 92  
2366 89  
2367 70  
2368 79  
2369 67  
2370 84  
2371 90  
2372 65  
2373 59  
2374 87  
2375 86  
2376 76  
2377 99  
2378 93  
2379 98  
2380 95  
2381 58  
2382 60  
2383 97  
2384 95  
2385 59  
2386 52  
2387 90  
2388 92  
2389 95  
2390 88  
2391 52  
2392 81  
2393 67  
2394 60  
2395 90  
2396 85  
2397 75  
2398 96  
2399 64  
2400 63  
2401 80  
2402 52  
2403 55  
2404 98  
2405 89  
2406 87  
2407 95  
2408 90  
2409 89  
2410 75  
2411 94  
2412 89  
2413 86  
2414 88  
2415 91  
2416 50  
2417 63  
2418 53  
2419 71  
2420 93  
2421 56  
2422 89  
2423 84  
2424 72  
2425 82  
2426 51  
2427 59  
2428 93  
2429 86  
2430 61  
2431 74  
2432 59  
2433 86  
2434 59  
2435 84  
2436 96  
2437 65  
2438 74  
2439 68  
2440 69  
2441 93  
2442 80  
2443 58  
2444 61  
2445 91  
2446 70  
2447 54  
2448 68  
2449 68  
2450 82  
2451 98  
2452 62  
2453 89  
2454 74  
2455 63  
2456 73  
2457 68  
2458 97  
2459 63  
2460 90  
2461 52  
2462 60  
2463 66  
2464 52  
2465 73  
2466 94  
2467 71  
2468 69  
2469 69  
2470 86  
2471 68  
2472 82  
2473 85  
2474 59  
2475 77  
2476 83  
2477 65  
2478 75  
2479 52  
2480 92  
2481 76  
2482 75  
2483 69  
2484 90  
2485 64  
2486 83  
2487 51  
2488 83  
2489 72  
2490 100 
2491 71  
2492 59  
2493 90  
2494 61  
2495 88  
2496 97  
2497 74  
2498 90  
2499 54  
2500 97  
2501 99  
2502 59  
2503 95  
2504 94  
2505 67  
2506 65  
2507 91  
2508 68  
2509 63  
2510 83  
2511 85  
2512 98  
2513 53  
2514 63  
2515 89  
2516 51  
2517 51  
2518 76  
2519 57  
2520 93  
2521 74  
2522 58  
2523 50  
2524 55  
2525 67  
2526 77  
2527 82  
2528 72  
2529 90  
2530 94  
2531 62  
2532 63  
2533 85  
2534 85  
2535 63  
2536 64  
2537 50  
2538 54  
2539 100 
2540 74  
2541 87  
2542 65  
2543 71  
2544 58  
2545 71  
2546 89  
2547 63  
2548 59  
2549 50  
2550 67  
2551 63  
2552 74  
2553 65  
2554 82  
2555 64  
2556 95  
2557 97  
2558 55  
2559 91  
2560 57  
2561 59  
2562 73  
2563 73  
2564 90  
2565 72  
2566 61  
2567 73  
2568 79  
2569 81  
2570 94  
2571 56  
2572 97  
2573 89  
2574 88  
2575 58  
2576 68  
2577 82  
2578 67  
2579 83  
2580 58  
2581 100 
2582 59  
2583 98  
2584 71  
2585 82  
2586 98  
2587 50  
2588 60  
2589 62  
2590 81  
2591 76  
2592 86  
2593 82  
2594 71  
2595 67  
2596 62  
2597 96  
2598 80  
2599 100 
2600 75  
2601 75  
2602 50  
2603 61  
2604 73  
2605 86  
2606 92  
2607 81  
2608 65  
2609 71  
2610 67  
2611 51  
2612 53  
2613 94  
2614 82  
2615 78  
2616 72  
2617 63  
2618 76  
2619 94  
2620 54  
2621 94  
2622 70  
2623 70  
2624 54  
2625 100 
2626 81  
2627 85  
2628 65  
2629 90  
2630 64  
2631 73  
2632 82  
2633 61  
2634 70  
2635 77  
2636 98  
2637 73  
2638 89  
2639 54  
2640 89  
2641 65  
2642 56  
2643 76  
2644 72  
2645 90  
2646 66  
2647 56  
2648 72  
2649 64  
2650 89  
2651 77  
2652 76  
2653 99  
2654 79  
2655 80  
2656 83  
2657 55  
2658 73  
2659 74  
2660 56  
2661 60  
2662 61  
2663 67  
2664 93  
2665 55  
2666 86  
2667 92  
2668 87  
2669 70  
2670 90  
2671 93  
2672 51  
2673 91  
2674 51  
2675 61  
2676 84  
2677 63  
2678 57  
2679 74  
2680 54  
2681 61  
2682 91  
2683 97  
2684 65  
2685 94  
2686 90  
2687 78  
2688 96  
2689 87  
2690 90  
2691 51  
2692 63  
2693 94  
2694 57  
2695 97  
2696 90  
2697 72  
2698 64  
2699 87  
2700 59  
2701 72  
2702 50  
2703 67  
2704 82  
2705 72  
2706 62  
2707 74  
2708 51  
2709 96  
2710 85  
2711 83  
2712 83  
2713 72  
2714 94  
2715 66  
2716 75  
2717 95  
2718 52  
2719 67  
2720 94  
2721 86  
2722 79  
2723 85  
2724 55  
2725 86  
2726 86  
2727 72  
2728 75  
2729 98  
2730 62  
2731 77  
2732 56  
2733 79  
2734 67  
2735 51  
2736 63  
2737 74  
2738 96  
2739 60  
2740 58  
2741 80  
2742 62  
2743 95  
2744 69  
2745 59  
2746 76  
2747 51  
2748 58  
2749 65  
2750 77  
2751 71  
2752 51  
2753 98  
2754 89  
2755 66  
2756 60  
2757 65  
2758 68  
2759 98  
2760 68  
2761 57  
2762 93  
2763 78  
2764 91  
2765 82  
2766 87  
2767 54  
2768 80  
2769 73  
2770 80  
2771 58  
2772 62  
2773 51  
2774 74  
2775 54  
2776 55  
2777 65  
2778 58  
2779 91  
2780 97  
2781 86  
2782 100 
2783 99  
2784 55  
2785 65  
2786 100 
2787 58  
2788 98  
2789 77  
2790 79  
2791 99  
2792 71  
2793 55  
2794 57  
2795 68  
2796 83  
2797 69  
2798 89  
2799 70  
2800 83  
2801 95  
2802 74  
2803 91  
2804 69  
2805 77  
2806 77  
2807 63  
2808 78  
2809 98  
2810 58  
2811 98  
2812 56  
2813 82  
2814 69  
2815 94  
2816 78  
2817 89  
2818 91  
2819 100 
2820 90  
2821 78  
2822 91  
2823 72  
2824 90  
2825 54  
2826 86  
2827 81  
2828 75  
2829 76  
2830 51  
2831 50  
2832 59  
2833 51  
2834 97  
2835 85  
2836 52  
2837 83  
2838 57  
2839 92  
2840 80  
2841 95  
2842 86  
2843 90  
2844 82  
2845 99  
2846 59  
2847 59  
2848 82  
2849 92  
2850 64  
2851 59  
2852 91  
2853 63  
2854 50  
2855 98  
2856 64  
2857 95  
2858 100 
2859 55  
2860 54  
2861 83  
2862 72  
2863 92  
2864 78  
2865 61  
2866 93  
2867 68  
2868 70  
2869 90  
2870 65  
2871 80  
2872 99  
2873 59  
2874 65  
2875 50  
2876 53  
2877 60  
2878 84  
2879 50  
2880 77  
2881 77  
2882 54  
2883 81  
2884 81  
2885 81  
2886 80  
2887 82  
2888 52  
2889 57  
2890 88  
2891 54  
2892 100 
2893 95  
2894 52  
2895 65  
2896 53  
2897 50  
2898 68  
2899 81  
2900 79  
2901 89  
2902 94  
2903 59  
2904 78  
2905 63  
2906 68  
2907 71  
2908 53  
2909 75  
2910 99  
2911 95  
2912 59  
2913 89  
2914 67  
2915 66  
2916 88  
2917 66  
2918 69  
2919 85  
2920 81  
2921 85  
2922 81  
2923 84  
2924 94  
2925 83  
2926 97  
2927 57  
2928 71  
2929 84  
2930 86  
2931 83  
2932 85  
2933 98  
2934 59  
2935 52  
2936 98  
2937 77  
2938 82  
2939 60  
2940 64  
2941 57  
2942 71  
2943 80  
2944 73  
2945 50  
2946 96  
2947 100 
2948 87  
2949 64  
2950 61  
2951 85  
2952 67  
2953 72  
2954 66  
2955 91  
2956 78  
2957 53  
2958 52  
2959 98  
2960 91  
2961 61  
2962 63  
2963 100 
2964 100 
2965 80  
2966 96  
2967 52  
2968 74  
2969 54  
2970 72  
2971 65  
2972 100 
2973 93  
2974 62  
2975 90  
2976 75  
2977 56  
2978 60  
2979 92  
2980 80  
2981 64  
2982 98  
2983 58  
2984 63  
2985 91  
2986 88  
2987 100 
2988 90  
2989 72  
2990 83  
2991 85  
2992 78  
2993 73  
2994 97  
2995 70  
2996 78  
2997 78  
2998 86  
2999 95  
3000 70  
3001 71  
3002 92  
3003 94  
3004 78  
3005 71  
3006 60  
3007 93  
3008 64  
3009 65  
3010 63  
3011 63  
3012 53  
3013 85  
3014 86  
3015 51  
3016 62  
3017 97  
3018 62  
3019 72  
3020 72  
3021 99  
3022 97  
3023 86  
3024 55  
3025 52  
3026 87  
3027 55  
3028 76  
3029 91  
3030 51  
3031 97  
3032 65  
3033 76  
3034 95  
3035 70  
3036 100 
3037 70  
3038 100 
3039 75  
3040 67  
3041 67  
3042 62  
3043 53  
3044 99  
3045 51  
3046 61  
3047 64  
3048 74  
3049 68  
3050 74  
3051 96  
3052 62  
3053 70  
3054 81  
3055 62  
3056 97  
3057 64  
3058 91  
3059 74  
3060 75  
3061 91  
3062 93  
3063 87  
3064 91  
3065 59  
3066 85  
3067 94  
3068 51  
3069 55  
3070 83  
3071 91  
3072 81  
3073 56  
3074 95  
3075 93  
3076 95  
3077 98  
3078 89  
3079 74  
3080 91  
3081 63  
3082 53  
3083 97  
3084 50  
3085 87  
3086 85  
3087 53  
3088 58  
3089 90  
3090 96  
3091 52  
3092 100 
3093 99  
3094 53  
3095 79  
3096 51  
3097 99  
3098 68  
3099 95  
3100 58  
3101 89  
3102 91  
3103 100 
3104 71  
3105 97  
3106 90  
3107 85  
3108 94  
3109 66  
3110 97  
3111 61  
3112 58  
3113 59  
3114 56  
3115 95  
3116 55  
3117 77  
3118 82  
3119 99  
3120 100 
3121 52  
3122 69  
3123 68  
3124 57  
3125 87  
3126 88  
3127 74  
3128 78  
3129 69  
3130 71  
3131 77  
3132 86  
3133 91  
3134 54  
3135 72  
3136 89  
3137 61  
3138 63  
3139 65  
3140 68  
3141 66  
3142 92  
3143 71  
3144 86  
3145 58  
3146 99  
3147 78  
3148 60  
3149 88  
3150 87  
3151 68  
3152 99  
3153 90  
3154 72  
3155 78  
3156 67  
3157 86  
3158 90  
3159 90  
3160 89  
3161 61  
3162 80  
3163 75  
3164 85  
3165 65  
3166 50  
3167 96  
3168 63  
3169 82  
3170 65  
3171 72  
3172 56  
3173 87  
3174 85  
3175 83  
3176 82  
3177 72  
3178 51  
3179 88  
3180 63  
3181 94  
3182 77  
3183 73  
3184 96  
3185 96  
3186 80  
3187 80  
3188 73  
3189 73  
3190 67  
3191 84  
3192 98  
3193 80  
3194 76  
3195 69  
3196 74  
3197 91  
3198 66  
3199 86  
3200 60  
3201 54  
3202 78  
3203 54  
3204 82  
3205 92  
3206 76  
3207 98  
3208 74  
3209 81  
3210 79  
3211 81  
3212 59  
3213 84  
3214 92  
3215 50  
3216 68  
3217 65  
3218 69  
3219 71  
3220 59  
3221 61  
3222 93  
3223 95  
3224 97  
3225 61  
3226 65  
3227 74  
3228 91  
3229 68  
3230 77  
3231 78  
3232 91  
3233 75  
3234 88  
3235 67  
3236 69  
3237 84  
3238 50  
3239 54  
3240 64  
3241 59  
3242 82  
3243 56  
3244 100 
3245 51  
3246 69  
3247 60  
3248 80  
3249 55  
3250 68  
3251 77  
3252 63  
3253 66  
3254 69  
3255 70  
3256 97  
3257 50  
3258 73  
3259 94  
3260 53  
3261 79  
3262 90  
3263 75  
3264 70  
3265 54  
3266 71  
3267 59  
3268 92  
3269 69  
3270 85  
3271 74  
3272 84  
3273 68  
3274 64  
3275 88  
3276 59  
3277 64  
3278 65  
3279 84  
3280 85  
3281 95  
3282 75  
3283 90  
3284 61  
3285 52  
3286 95  
3287 79  
3288 77  
3289 71  
3290 50  
3291 84  
3292 58  
3293 55  
3294 96  
3295 76  
3296 98  
3297 98  
3298 91  
3299 91  
3300 72  
3301 62  
3302 50  
3303 67  
3304 57  
3305 75  
3306 82  
3307 99  
3308 64  
3309 80  
3310 94  
3311 77  
3312 85  
3313 100 
3314 84  
3315 94  
3316 77  
3317 64  
3318 52  
3319 60  
3320 86  
3321 61  
3322 55  
3323 80  
3324 96  
3325 51  
3326 85  
3327 54  
3328 58  
3329 91  
3330 89  
3331 52  
3332 100 
3333 92  
3334 65  
3335 53  
3336 62  
3337 81  
3338 61  
3339 67  
3340 70  
3341 71  
3342 75  
3343 61  
3344 76  
3345 72  
3346 99  
3347 71  
3348 91  
3349 89  
3350 54  
3351 96  
3352 69  
3353 54  
3354 62  
3355 57  
3356 76  
3357 72  
3358 85  
3359 57  
3360 73  
3361 91  
3362 58  
3363 68  
3364 83  
3365 52  
3366 92  
3367 56  
3368 92  
3369 66  
3370 73  
3371 88  
3372 100 
3373 88  
3374 66  
3375 77  
3376 88  
3377 86  
3378 50  
3379 73  
3380 98  
3381 97  
3382 90  
3383 94  
3384 92  
3385 50  
3386 78  
3387 92  
3388 65  
3389 75  
3390 82  
3391 88  
3392 81  
3393 94  
3394 74  
3395 95  
3396 90  
3397 70  
3398 88  
3399 75  
3400 53  
3401 76  
3402 80  
3403 83  
3404 54  
3405 91  
3406 70  
3407 75  
3408 88  
3409 58  
3410 97  
3411 99  
3412 89  
3413 58  
3414 62  
3415 91  
3416 86  
3417 70  
3418 82  
3419 63  
3420 98  
3421 66  
3422 95  
3423 84  
3424 65  
3425 65  
3426 57  
3427 97  
3428 76  
3429 63  
3430 71  
3431 74  
3432 83  
3433 64  
3434 64  
3435 65  
3436 56  
3437 86  
3438 86  
3439 93  
3440 64  
3441 66  
3442 77  
3443 83  
3444 87  
3445 70  
3446 88  
3447 62  
3448 91  
3449 78  
3450 61  
3451 91  
3452 51  
3453 80  
3454 99  
3455 87  
3456 85  
3457 53  
3458 69  
3459 100 
3460 86  
3461 66  
3462 68  
3463 55  
3464 53  
3465 73  
3466 71  
3467 94  
3468 89  
3469 70  
3470 72  
3471 70  
3472 73  
3473 50  
3474 64  
3475 74  
3476 82  
3477 64  
3478 100 
3479 83  
3480 76  
3481 84  
3482 77  
3483 93  
3484 65  
3485 50  
3486 97  
3487 82  
3488 72  
3489 66  
3490 61  
3491 80  
3492 86  
3493 86  
3494 64  
3495 83  
3496 83  
3497 55  
3498 99  
3499 55  
3500 100 
3501 63  
3502 86  
3503 76  
3504 72  
3505 82  
3506 54  
3507 98  
3508 72  
3509 69  
3510 82  
3511 60  
3512 96  
3513 100 
3514 75  
3515 93  
3516 99  
3517 64  
3518 94  
3519 65  
3520 82  
3521 57  
3522 94  
3523 65  
3524 87  
3525 100 
3526 88  
3527 83  
3528 59  
3529 71  
3530 73  
3531 68  
3532 93  
3533 57  
3534 100 
3535 79  
3536 90  
3537 88  
3538 62  
3539 63  
3540 68  
3541 53  
3542 76  
3543 55  
3544 53  
3545 71  
3546 75  
3547 55  
3548 83  
3549 80  
3550 74  
3551 91  
3552 67  
3553 95  
3554 84  
3555 70  
3556 62  
3557 84  
3558 100 
3559 77  
3560 84  
3561 62  
3562 75  
3563 92  
3564 94  
3565 98  
3566 53  
3567 86  
3568 74  
3569 54  
3570 64  
3571 62  
3572 65  
3573 89  
3574 56  
3575 65  
3576 72  
3577 50  
3578 64  
3579 99  
3580 53  
3581 68  
3582 74  
3583 85  
3584 52  
3585 99  
3586 52  
3587 53  
3588 86  
3589 65  
3590 69  
3591 90  
3592 89  
3593 98  
3594 81  
3595 71  
3596 67  
3597 70  
3598 58  
3599 74  
3600 52  
3601 68  
3602 93  
3603 60  
3604 62  
3605 66  
3606 62  
3607 56  
3608 79  
3609 93  
3610 66  
3611 63  
3612 76  
3613 75  
3614 77  
3615 51  
3616 82  
3617 68  
3618 82  
3619 62  
3620 69  
3621 55  
3622 88  
3623 88  
3624 52  
3625 69  
3626 94  
3627 68  
3628 98  
3629 64  
3630 80  
3631 76  
3632 91  
3633 67  
3634 52  
3635 70  
3636 88  
3637 61  
3638 53  
3639 96  
3640 51  
3641 94  
3642 87  
3643 65  
3644 65  
3645 99  
3646 51  
3647 61  
3648 88  
3649 96  
3650 58  
3651 97  
3652 82  
3653 79  
3654 83  
3655 69  
3656 70  
3657 91  
3658 85  
3659 85  
3660 74  
3661 64  
3662 51  
3663 54  
3664 70  
3665 76  
3666 61  
3667 74  
3668 79  
3669 74  
3670 93  
3671 83  
3672 94  
3673 85  
3674 98  
3675 66  
3676 62  
3677 56  
3678 73  
3679 90  
3680 100 
3681 100 
3682 76  
3683 88  
3684 53  
3685 96  
3686 71  
3687 80  
3688 51  
3689 93  
3690 95  
3691 86  
3692 92  
3693 72  
3694 86  
3695 79  
3696 65  
3697 85  
3698 53  
3699 64  
3700 59  
3701 90  
3702 64  
3703 78  
3704 73  
3705 83  
3706 65  
3707 51  
3708 90  
3709 59  
3710 77  
3711 80  
3712 82  
3713 60  
3714 67  
3715 94  
3716 77  
3717 68  
3718 77  
3719 66  
3720 88  
3721 85  
3722 89  
3723 74  
3724 94  
3725 56  
3726 61  
3727 57  
3728 60  
3729 96  
3730 51  
3731 69  
3732 73  
3733 81  
3734 81  
3735 55  
3736 55  
3737 96  
3738 75  
3739 52  
3740 64  
3741 52  
3742 80  
3743 53  
3744 79  
3745 86  
3746 60  
3747 63  
3748 55  
3749 85  
3750 65  
3751 86  
3752 71  
3753 76  
3754 83  
3755 95  
3756 55  
3757 80  
3758 82  
3759 77  
3760 91  
3761 71  
3762 92  
3763 84  
3764 93  
3765 100 
3766 52  
3767 76  
3768 52  
3769 55  
3770 86  
3771 69  
3772 55  
3773 92  
3774 79  
3775 99  
3776 56  
3777 63  
3778 91  
3779 56  
3780 68  
3781 95  
3782 70  
3783 62  
3784 53  
3785 63  
3786 65  
3787 83  
3788 55  
3789 74  
3790 58  
3791 88  
3792 90  
3793 98  
3794 83  
3795 58  
3796 87  
3797 72  
3798 93  
3799 50  
3800 69  
3801 55  
3802 54  
3803 67  
3804 71  
3805 51  
3806 94  
3807 71  
3808 84  
3809 53  
3810 61  
3811 93  
3812 86  
3813 60  
3814 72  
3815 51  
3816 94  
3817 79  
3818 58  
3819 69  
3820 87  
3821 78  
3822 92  
3823 65  
3824 65  
3825 78  
3826 62  
3827 93  
3828 64  
3829 66  
3830 71  
3831 74  
3832 91  
3833 67  
3834 99  
3835 59  
3836 80  
3837 83  
3838 100 
3839 55  
3840 72  
3841 59  
3842 60  
3843 77  
3844 50  
3845 50  
3846 97  
3847 97  
3848 83  
3849 85  
3850 98  
3851 93  
3852 88  
3853 89  
3854 68  
3855 62  
3856 82  
3857 61  
3858 90  
3859 68  
3860 62  
3861 82  
3862 69  
3863 52  
3864 90  
3865 93  
3866 69  
3867 80  
3868 53  
3869 61  
3870 96  
3871 97  
3872 70  
3873 77  
3874 61  
3875 76  
3876 76  
3877 75  
3878 53  
3879 74  
3880 72  
3881 55  
3882 81  
3883 64  
3884 86  
3885 96  
3886 87  
3887 91  
3888 81  
3889 84  
3890 78  
3891 74  
3892 78  
3893 51  
3894 84  
3895 61  
3896 58  
3897 78  
3898 63  
3899 53  
3900 82  
3901 68  
3902 66  
3903 72  
3904 65  
3905 70  
3906 52  
3907 66  
3908 83  
3909 61  
3910 69  
3911 64  
3912 71  
3913 67  
3914 53  
3915 96  
3916 55  
3917 60  
3918 95  
3919 86  
3920 86  
3921 57  
3922 70  
3923 59  
3924 100 
3925 55  
3926 62  
3927 86  
3928 61  
3929 83  
3930 98  
3931 78  
3932 89  
3933 50  
3934 58  
3935 100 
3936 92  
3937 73  
3938 74  
3939 59  
3940 97  
3941 96  
3942 93  
3943 76  
3944 91  
3945 73  
3946 86  
3947 91  
3948 80  
3949 65  
3950 89  
3951 79  
3952 53  
3953 64  
3954 85  
3955 62  
3956 86  
3957 61  
3958 80  
3959 52  
3960 71  
3961 54  
3962 80  
3963 100 
3964 96  
3965 71  
3966 60  
3967 66  
3968 76  
3969 71  
3970 70  
3971 52  
3972 64  
3973 64  
3974 69  
3975 70  
3976 87  
3977 60  
3978 97  
3979 98  
3980 69  
3981 66  
3982 88  
3983 66  
3984 94  
3985 86  
3986 90  
3987 70  
3988 81  
3989 59  
3990 55  
3991 81  
3992 84  
3993 69  
3994 74  
3995 77  
3996 63  
3997 60  
3998 81  
3999 73  
4000 71  
4001 88  
4002 75  
4003 98  
4004 91  
4005 57  
4006 86  
4007 54  
4008 75  
4009 63  
4010 52  
4011 72  
4012 79  
4013 75  
4014 92  
4015 53  
4016 50  
4017 67  
4018 84  
4019 70  
4020 89  
4021 93  
4022 94  
4023 77  
4024 66  
4025 92  
4026 60  
4027 96  
4028 58  
4029 97  
4030 62  
4031 78  
4032 54  
4033 51  
4034 59  
4035 67  
4036 98  
4037 100 
4038 55  
4039 79  
4040 54  
4041 65  
4042 55  
4043 84  
4044 68  
4045 76  
4046 87  
4047 98  
4048 82  
4049 90  
4050 66  
4051 85  
4052 62  
4053 96  
4054 52  
4055 70  
4056 64  
4057 69  
4058 58  
4059 57  
4060 59  
4061 81  
4062 85  
4063 93  
4064 94  
4065 69  
4066 75  
4067 57  
4068 88  
4069 93  
4070 51  
4071 88  
4072 62  
4073 81  
4074 70  
4075 91  
4076 58  
4077 88  
4078 88  
4079 62  
4080 92  
4081 52  
4082 95  
4083 94  
4084 93  
4085 65  
4086 58  
4087 75  
4088 75  
4089 58  
4090 83  
4091 55  
4092 85  
4093 57  
4094 67  
4095 94  
4096 73  
4097 85  
4098 54  
4099 59  
4100 92  
4101 59  
4102 77  
4103 67  
4104 80  
4105 68  
4106 59  
4107 80  
4108 90  
4109 92  
4110 73  
4111 60  
4112 80  
4113 74  
4114 65  
4115 90  
4116 65  
4117 81  
4118 95  
4119 71  
4120 73  
4121 72  
4122 95  
4123 62  
4124 51  
4125 82  
4126 89  
4127 74  
4128 60  
4129 80  
4130 94  
4131 60  
4132 51  
4133 59  
4134 55  
4135 75  
4136 55  
4137 94  
4138 64  
4139 62  
4140 88  
4141 63  
4142 77  
4143 98  
4144 59  
4145 71  
4146 60  
4147 62  
4148 54  
4149 68  
4150 51  
4151 89  
4152 67  
4153 55  
4154 83  
4155 67  
4156 97  
4157 91  
4158 67  
4159 52  
4160 87  
4161 79  
4162 68  
4163 56  
4164 82  
4165 80  
4166 88  
4167 51  
4168 81  
4169 76  
4170 64  
4171 80  
4172 52  
4173 61  
4174 55  
4175 93  
4176 87  
4177 98  
4178 67  
4179 85  
4180 96  
4181 68  
4182 70  
4183 68  
4184 87  
4185 93  
4186 89  
4187 80  
4188 67  
4189 89  
4190 71  
4191 72  
4192 90  
4193 72  
4194 69  
4195 65  
4196 94  
4197 58  
4198 72  
4199 56  
4200 62  
4201 77  
4202 64  
4203 51  
4204 92  
4205 90  
4206 70  
4207 59  
4208 61  
4209 83  
4210 76  
4211 59  
4212 90  
4213 78  
4214 65  
4215 79  
4216 76  
4217 91  
4218 98  
4219 91  
4220 79  
4221 67  
4222 62  
4223 82  
4224 69  
4225 98  
4226 82  
4227 81  
4228 100 
4229 67  
4230 99  
4231 62  
4232 65  
4233 85  
4234 98  
4235 88  
4236 73  
4237 56  
4238 65  
4239 87  
4240 83  
4241 61  
4242 91  
4243 55  
4244 77  
4245 59  
4246 99  
4247 56  
4248 51  
4249 71  
4250 97  
4251 72  
4252 91  
4253 92  
4254 74  
4255 97  
4256 51  
4257 85  
4258 98  
4259 95  
4260 99  
4261 84  
4262 62  
4263 80  
4264 57  
4265 96  
4266 56  
4267 53  
4268 99  
4269 50  
4270 83  
4271 79  
4272 94  
4273 76  
4274 97  
4275 52  
4276 66  
4277 73  
4278 75  
4279 61  
4280 51  
4281 60  
4282 81  
4283 66  
4284 74  
4285 67  
4286 87  
4287 55  
4288 69  
4289 78  
4290 96  
4291 86  
4292 59  
4293 76  
4294 58  
4295 65  
4296 94  
4297 62  
4298 63  
4299 95  
4300 65  
4301 53  
4302 78  
4303 58  
4304 100 
4305 72  
4306 70  
4307 87  
4308 58  
4309 60  
4310 92  
4311 54  
4312 59  
4313 71  
4314 95  
4315 84  
4316 71  
4317 81  
4318 62  
4319 52  
4320 65  
4321 60  
4322 62  
4323 94  
4324 69  
4325 70  
4326 50  
4327 100 
4328 72  
4329 77  
4330 64  
4331 51  
4332 57  
4333 83  
4334 87  
4335 64  
4336 51  
4337 83  
4338 65  
4339 62  
4340 75  
4341 61  
4342 65  
4343 91  
4344 56  
4345 61  
4346 51  
4347 87  
4348 98  
4349 80  
4350 90  
4351 91  
4352 71  
4353 85  
4354 94  
4355 90  
4356 70  
4357 82  
4358 65  
4359 68  
4360 54  
4361 59  
4362 91  
4363 63  
4364 73  
4365 79  
4366 92  
4367 70  
4368 56  
4369 63  
4370 98  
4371 72  
4372 86  
4373 56  
4374 57  
4375 87  
4376 59  
4377 58  
4378 52  
4379 92  
4380 96  
4381 84  
4382 82  
4383 87  
4384 53  
4385 68  
4386 97  
4387 53  
4388 61  
4389 96  
4390 85  
4391 98  
4392 73  
4393 53  
4394 73  
4395 96  
4396 100 
4397 90  
4398 97  
4399 57  
4400 68  
4401 71  
4402 67  
4403 58  
4404 80  
4405 87  
4406 95  
4407 88  
4408 73  
4409 60  
4410 61  
4411 50  
4412 96  
4413 80  
4414 82  
4415 92  
4416 62  
4417 71  
4418 53  
4419 98  
4420 53  
4421 66  
4422 98  
4423 92  
4424 77  
4425 88  
4426 59  
4427 80  
4428 88  
4429 64  
4430 57  
4431 67  
4432 90  
4433 76  
4434 74  
4435 74  
4436 52  
4437 87  
4438 78  
4439 90  
4440 99  
4441 55  
4442 75  
4443 94  
4444 82  
4445 97  
4446 66  
4447 65  
4448 80  
4449 62  
4450 82  
4451 71  
4452 98  
4453 76  
4454 81  
4455 53  
4456 97  
4457 64  
4458 75  
4459 60  
4460 85  
4461 67  
4462 69  
4463 99  
4464 83  
4465 63  
4466 71  
4467 63  
4468 57  
4469 91  
4470 50  
4471 84  
4472 100 
4473 77  
4474 93  
4475 59  
4476 58  
4477 71  
4478 98  
4479 87  
4480 74  
4481 68  
4482 96  
4483 94  
4484 55  
4485 97  
4486 90  
4487 100 
4488 100 
4489 83  
4490 79  
4491 97  
4492 53  
4493 92  
4494 67  
4495 56  
4496 58  
4497 67  
4498 60  
4499 70  
4500 83  
4501 90  
4502 82  
4503 75  
4504 63  
4505 92  
4506 54  
4507 51  
4508 98  
4509 66  
4510 82  
4511 96  
4512 84  
4513 74  
4514 88  
4515 54  
4516 79  
4517 93  
4518 75  
4519 69  
4520 96  
4521 100 
4522 96  
4523 82  
4524 56  
4525 68  
4526 69  
4527 64  
4528 68  
4529 72  
4530 59  
4531 58  
4532 79  
4533 78  
4534 66  
4535 93  
4536 100 
4537 62  
4538 88  
4539 99  
4540 88  
4541 70  
4542 96  
4543 90  
4544 65  
4545 64  
4546 53  
4547 51  
4548 52  
4549 89  
4550 96  
4551 55  
4552 65  
4553 97  
4554 50  
4555 80  
4556 99  
4557 71  
4558 78  
4559 66  
4560 95  
4561 91  
4562 98  
4563 91  
4564 81  
4565 79  
4566 69  
4567 100 
4568 100 
4569 96  
4570 67  
4571 87  
4572 100 
4573 56  
4574 83  
4575 76  
4576 52  
4577 77  
4578 96  
4579 50  
4580 86  
4581 97  
4582 59  
4583 63  
4584 77  
4585 79  
4586 60  
4587 68  
4588 71  
4589 93  
4590 67  
4591 77  
4592 82  
4593 76  
4594 52  
4595 100 
4596 79  
4597 69  
4598 52  
4599 54  
4600 86  
4601 80  
4602 75  
4603 98  
4604 70  
4605 63  
4606 72  
4607 64  
4608 75  
4609 76  
4610 51  
4611 96  
4612 68  
4613 54  
4614 88  
4615 66  
4616 76  
4617 69  
4618 75  
4619 74  
4620 73  
4621 86  
4622 92  
4623 89  
4624 84  
4625 72  
4626 61  
4627 68  
4628 64  
4629 66  
4630 66  
4631 66  
4632 57  
4633 90  
4634 100 
4635 68  
4636 51  
4637 87  
4638 81  
4639 92  
4640 84  
4641 96  
4642 67  
4643 77  
4644 96  
4645 88  
4646 76  
4647 61  
4648 92  
4649 73  
4650 71  
4651 70  
4652 65  
4653 56  
4654 65  
4655 90  
4656 61  
4657 91  
4658 79  
4659 91  
4660 70  
4661 79  
4662 93  
4663 89  
4664 71  
4665 85  
4666 74  
4667 91  
4668 54  
4669 61  
4670 86  
4671 91  
4672 98  
4673 72  
4674 75  
4675 100 
4676 87  
4677 77  
4678 96  
4679 71  
4680 60  
4681 54  
4682 64  
4683 54  
4684 69  
4685 65  
4686 83  
4687 86  
4688 73  
4689 82  
4690 80  
4691 97  
4692 52  
4693 92  
4694 71  
4695 67  
4696 95  
4697 56  
4698 77  
4699 84  
4700 89  
4701 56  
4702 67  
4703 66  
4704 54  
4705 97  
4706 58  
4707 78  
4708 89  
4709 78  
4710 94  
4711 93  
4712 83  
4713 93  
4714 76  
4715 60  
4716 60  
4717 89  
4718 73  
4719 55  
4720 77  
4721 95  
4722 82  
4723 71  
4724 84  
4725 55  
4726 86  
4727 96  
4728 74  
4729 86  
4730 55  
4731 90  
4732 82  
4733 59  
4734 94  
4735 51  
4736 99  
4737 91  
4738 96  
4739 55  
4740 57  
4741 59  
4742 51  
4743 72  
4744 96  
4745 52  
4746 84  
4747 81  
4748 53  
4749 59  
4750 62  
4751 82  
4752 82  
4753 57  
4754 78  
4755 64  
4756 52  
4757 62  
4758 81  
4759 56  
4760 54  
4761 56  
4762 72  
4763 89  
4764 86  
4765 67  
4766 90  
4767 74  
4768 79  
4769 57  
4770 70  
4771 85  
4772 76  
4773 79  
4774 100 
4775 50  
4776 76  
4777 69  
4778 54  
4779 54  
4780 66  
4781 97  
4782 50  
4783 56  
4784 95  
4785 57  
4786 80  
4787 77  
4788 76  
4789 65  
4790 54  
4791 68  
4792 55  
4793 62  
4794 50  
4795 65  
4796 79  
4797 60  
4798 68  
4799 84  
4800 72  
4801 75  
4802 87  
4803 72  
4804 100 
4805 66  
4806 69  
4807 70  
4808 86  
4809 73  
4810 88  
4811 90  
4812 63  
4813 80  
4814 68  
4815 91  
4816 56  
4817 76  
4818 90  
4819 71  
4820 89  
4821 87  
4822 91  
4823 64  
4824 63  
4825 86  
4826 62  
4827 84  
4828 52  
4829 61  
4830 80  
4831 81  
4832 73  
4833 69  
4834 90  
4835 82  
4836 51  
4837 95  
4838 75  
4839 75  
4840 81  
4841 98  
4842 57  
4843 93  
4844 83  
4845 84  
4846 84  
4847 77  
4848 81  
4849 98  
4850 66  
4851 84  
4852 86  
4853 59  
4854 71  
4855 64  
4856 68  
4857 72  
4858 63  
4859 70  
4860 91  
4861 77  
4862 92  
4863 64  
4864 58  
4865 98  
4866 55  
4867 64  
4868 59  
4869 54  
4870 94  
4871 69  
4872 74  
4873 59  
4874 87  
4875 93  
4876 99  
4877 60  
4878 60  
4879 54  
4880 92  
4881 52  
4882 85  
4883 78  
4884 98  
4885 64  
4886 56  
4887 50  
4888 60  
4889 99  
4890 67  
4891 81  
4892 63  
4893 73  
4894 86  
4895 72  
4896 68  
4897 99  
4898 100 
4899 70  
4900 67  
4901 83  
4902 76  
4903 72  
4904 50  
4905 55  
4906 96  
4907 72  
4908 55  
4909 83  
4910 91  
4911 57  
4912 61  
4913 99  
4914 63  
4915 89  
4916 93  
4917 83  
4918 54  
4919 64  
4920 80  
4921 66  
4922 95  
4923 78  
4924 99  
4925 67  
4926 70  
4927 80  
4928 81  
4929 94  
4930 50  
4931 72  
4932 62  
4933 90  
4934 76  
4935 66  
4936 83  
4937 63  
4938 86  
4939 69  
4940 91  
4941 67  
4942 60  
4943 71  
4944 88  
4945 95  
4946 95  
4947 73  
4948 80  
4949 74  
4950 69  
4951 86  
4952 96  
4953 71  
4954 78  
4955 97  
4956 96  
4957 58  
4958 80  
4959 58  
4960 77  
4961 77  
4962 50  
4963 86  
4964 53  
4965 95  
4966 70  
4967 76  
4968 51  
4969 56  
4970 74  
4971 83  
4972 60  
4973 56  
4974 58  
4975 63  
4976 96  
4977 68  
4978 64  
4979 96  
4980 77  
4981 54  
4982 99  
4983 52  
4984 67  
4985 82  
4986 56  
4987 68  
4988 53  
4989 73  
4990 78  
4991 84  
4992 95  
4993 78  
4994 61  
4995 98  
4996 95  
4997 92  
4998 60  
4999 95  
5000 95  
5001 57  
5002 94  
5003 82  
5004 77  
5005 89  
5006 74  
5007 51  
5008 68  
5009 62  
5010 91  
5011 51  
5012 91  
5013 68  
5014 50  
5015 64  
5016 65  
5017 59  
5018 76  
5019 54  
5020 83  
5021 58  
5022 97  
5023 56  
5024 97  
5025 85  
5026 72  
5027 61  
5028 55  
5029 52  
5030 94  
5031 89  
5032 79  
5033 67  
5034 63  
5035 99  
5036 52  
5037 82  
5038 82  
5039 90  
5040 89  
5041 82  
5042 97  
5043 65  
5044 100 
5045 89  
5046 100 
5047 53  
5048 99  
5049 58  
5050 53  
5051 99  
5052 52  
5053 55  
5054 53  
5055 79  
5056 61  
5057 67  
5058 77  
5059 91  
5060 77  
5061 93  
5062 68  
5063 75  
5064 90  
5065 93  
5066 91  
5067 94  
5068 50  
5069 57  
5070 81  
5071 99  
5072 83  
5073 53  
5074 70  
5075 89  
5076 69  
5077 94  
5078 59  
5079 64  
5080 76  
5081 54  
5082 75  
5083 93  
5084 79  
5085 68  
5086 63  
5087 86  
5088 87  
5089 85  
5090 100 
5091 57  
5092 59  
5093 74  
5094 89  
5095 78  
5096 55  
5097 55  
5098 56  
5099 66  
5100 91  
5101 90  
5102 73  
5103 59  
5104 91  
5105 80  
5106 67  
5107 64  
5108 59  
5109 54  
5110 92  
5111 57  
5112 98  
5113 77  
5114 91  
5115 90  
5116 61  
5117 51  
5118 57  
5119 92  
5120 58  
5121 57  
5122 55  
5123 91  
5124 50  
5125 62  
5126 51  
5127 78  
5128 99  
5129 64  
5130 92  
5131 60  
5132 97  
5133 52  
5134 93  
5135 58  
5136 87  
5137 82  
5138 78  
5139 69  
5140 72  
5141 67  
5142 73  
5143 55  
5144 75  
5145 98  
5146 75  
5147 51  
5148 69  
5149 66  
5150 75  
5151 98  
5152 58  
5153 78  
5154 76  
5155 83  
5156 70  
5157 62  
5158 54  
5159 73  
5160 59  
5161 50  
5162 70  
5163 100 
5164 82  
5165 89  
5166 50  
5167 90  
5168 97  
5169 54  
5170 99  
5171 54  
5172 62  
5173 74  
5174 67  
5175 95  
5176 59  
5177 92  
5178 96  
5179 77  
5180 57  
5181 50  
5182 62  
5183 72  
5184 75  
5185 81  
5186 57  
5187 88  
5188 71  
5189 60  
5190 86  
5191 71  
5192 89  
5193 97  
5194 83  
5195 57  
5196 97  
5197 72  
5198 83  
5199 64  
5200 100 
5201 50  
5202 100 
5203 73  
5204 53  
5205 88  
5206 68  
5207 86  
5208 96  
5209 52  
5210 57  
5211 88  
5212 60  
5213 75  
5214 78  
5215 83  
5216 55  
5217 90  
5218 98  
5219 60  
5220 68  
5221 83  
5222 56  
5223 69  
5224 78  
5225 72  
5226 66  
5227 54  
5228 79  
5229 81  
5230 50  
5231 93  
5232 76  
5233 64  
5234 69  
5235 51  
5236 73  
5237 73  
5238 61  
5239 97  
5240 99  
5241 57  
5242 77  
5243 72  
5244 57  
5245 89  
5246 83  
5247 85  
5248 51  
5249 79  
5250 53  
5251 98  
5252 50  
5253 59  
5254 80  
5255 55  
5256 95  
5257 94  
5258 78  
5259 62  
5260 55  
5261 81  
5262 50  
5263 80  
5264 88  
5265 81  
5266 63  
5267 66  
5268 80  
5269 68  
5270 95  
5271 66  
5272 92  
5273 100 
5274 57  
5275 73  
5276 61  
5277 50  
5278 99  
5279 97  
5280 62  
5281 61  
5282 83  
5283 75  
5284 86  
5285 92  
5286 56  
5287 91  
5288 58  
5289 57  
5290 86  
5291 85  
5292 91  
5293 94  
5294 90  
5295 73  
5296 86  
5297 72  
5298 57  
5299 55  
5300 86  
5301 99  
5302 75  
5303 63  
5304 60  
5305 87  
5306 85  
5307 83  
5308 98  
5309 96  
5310 54  
5311 75  
5312 81  
5313 77  
5314 53  
5315 89  
5316 90  
5317 71  
5318 69  
5319 74  
5320 50  
5321 80  
5322 94  
5323 74  
5324 73  
5325 85  
5326 74  
5327 65  
5328 80  
5329 81  
5330 66  
5331 76  
5332 78  
5333 83  
5334 61  
5335 51  
5336 98  
5337 82  
5338 65  
5339 64  
5340 74  
5341 57  
5342 81  
5343 59  
5344 86  
5345 90  
5346 88  
5347 72  
5348 60  
5349 97  
5350 59  
5351 81  
5352 89  
5353 56  
5354 58  
5355 66  
5356 90  
5357 67  
5358 51  
5359 50  
5360 89  
5361 74  
5362 75  
5363 51  
5364 99  
5365 96  
5366 57  
5367 79  
5368 60  
5369 71  
5370 50  
5371 98  
5372 67  
5373 54  
5374 51  
5375 89  
5376 58  
5377 52  
5378 58  
5379 74  
5380 80  
5381 78  
5382 56  
5383 65  
5384 72  
5385 55  
5386 89  
5387 89  
5388 88  
5389 82  
5390 95  
5391 96  
5392 73  
5393 86  
5394 71  
5395 74  
5396 56  
5397 63  
5398 98  
5399 52  
5400 77  
5401 80  
5402 84  
5403 91  
5404 65  
5405 51  
5406 75  
5407 77  
5408 76  
5409 88  
5410 51  
5411 87  
5412 91  
5413 80  
5414 85  
5415 93  
5416 98  
5417 100 
5418 81  
5419 66  
5420 93  
5421 82  
5422 77  
5423 67  
5424 86  
5425 57  
5426 52  
5427 86  
5428 94  
5429 94  
5430 91  
5431 65  
5432 94  
5433 87  
5434 69  
5435 90  
5436 68  
5437 99  
5438 96  
5439 85  
5440 95  
5441 55  
5442 63  
5443 88  
5444 87  
5445 55  
5446 88  
5447 90  
5448 57  
5449 59  
5450 62  
5451 89  
5452 72  
5453 92  
5454 75  
5455 81  
5456 80  
5457 57  
5458 68  
5459 81  
5460 73  
5461 97  
5462 66  
5463 50  
5464 92  
5465 82  
5466 68  
5467 88  
5468 50  
5469 53  
5470 62  
5471 65  
5472 94  
5473 59  
5474 67  
5475 99  
5476 60  
5477 62  
5478 95  
5479 74  
5480 57  
5481 82  
5482 76  
5483 91  
5484 99  
5485 99  
5486 93  
5487 100 
5488 88  
5489 60  
5490 57  
5491 58  
5492 84  
5493 94  
5494 55  
5495 90  
5496 59  
5497 58  
5498 88  
5499 96  
5500 90  
5501 58  
5502 76  
5503 50  
5504 54  
5505 91  
5506 66  
5507 88  
5508 61  
5509 84  
5510 66  
5511 59  
5512 70  
5513 87  
5514 100 
5515 74  
5516 79  
5517 94  
5518 65  
5519 91  
5520 62  
5521 88  
5522 78  
5523 57  
5524 100 
5525 93  
5526 75  
5527 88  
5528 88  
5529 93  
5530 100 
5531 94  
5532 64  
5533 91  
5534 69  
5535 76  
5536 93  
5537 79  
5538 68  
5539 75  
5540 91  
5541 95  
5542 55  
5543 72  
5544 80  
5545 73  
5546 72  
5547 60  
5548 71  
5549 89  
5550 66  
5551 69  
5552 92  
5553 60  
5554 68  
5555 56  
5556 53  
5557 97  
5558 92  
5559 82  
5560 60  
5561 51  
5562 60  
5563 68  
5564 51  
5565 89  
5566 66  
5567 82  
5568 52  
5569 92  
5570 51  
5571 50  
5572 93  
5573 59  
5574 82  
5575 97  
5576 88  
5577 67  
5578 71  
5579 63  
5580 51  
5581 85  
5582 66  
5583 86  
5584 89  
5585 89  
5586 76  
5587 95  
5588 82  
5589 60  
5590 58  
5591 73  
5592 78  
5593 70  
5594 86  
5595 60  
5596 70  
5597 92  
5598 63  
5599 80  
5600 62  
5601 50  
5602 93  
5603 64  
5604 91  
5605 93  
5606 79  
5607 63  
5608 89  
5609 100 
5610 69  
5611 96  
5612 77  
5613 93  
5614 58  
5615 54  
5616 91  
5617 55  
5618 58  
5619 82  
5620 66  
5621 72  
5622 55  
5623 86  
5624 97  
5625 82  
5626 73  
5627 82  
5628 54  
5629 91  
5630 74  
5631 85  
5632 96  
5633 62  
5634 50  
5635 64  
5636 80  
5637 80  
5638 88  
5639 62  
5640 75  
5641 70  
5642 96  
5643 82  
5644 52  
5645 83  
5646 89  
5647 95  
5648 85  
5649 57  
5650 56  
5651 67  
5652 74  
5653 76  
5654 96  
5655 80  
5656 74  
5657 76  
5658 100 
5659 69  
5660 81  
5661 90  
5662 50  
5663 76  
5664 82  
5665 70  
5666 88  
5667 64  
5668 96  
5669 57  
5670 78  
5671 72  
5672 78  
5673 61  
5674 53  
5675 82  
5676 93  
5677 79  
5678 88  
5679 75  
5680 88  
5681 62  
5682 80  
5683 92  
5684 97  
5685 66  
5686 55  
5687 68  
5688 65  
5689 88  
5690 100 
5691 86  
5692 72  
5693 75  
5694 51  
5695 84  
5696 50  
5697 77  
5698 93  
5699 54  
5700 71  
5701 55  
5702 92  
5703 63  
5704 74  
5705 75  
5706 81  
5707 56  
5708 92  
5709 97  
5710 57  
5711 96  
5712 69  
5713 52  
5714 50  
5715 52  
5716 90  
5717 54  
5718 100 
5719 97  
5720 70  
5721 79  
5722 64  
5723 64  
5724 84  
5725 56  
5726 50  
5727 71  
5728 62  
5729 53  
5730 67  
5731 52  
5732 64  
5733 60  
5734 68  
5735 60  
5736 88  
5737 73  
5738 68  
5739 88  
5740 74  
5741 63  
5742 86  
5743 78  
5744 70  
5745 72  
5746 68  
5747 61  
5748 61  
5749 66  
5750 99  
5751 72  
5752 70  
5753 87  
5754 77  
5755 75  
5756 70  
5757 75  
5758 53  
5759 69  
5760 54  
5761 74  
5762 54  
5763 51  
5764 86  
5765 84  
5766 60  
5767 98  
5768 98  
5769 77  
5770 67  
5771 57  
5772 82  
5773 72  
5774 86  
5775 54  
5776 69  
5777 82  
5778 62  
5779 53  
5780 79  
5781 73  
5782 93  
5783 95  
5784 71  
5785 81  
5786 88  
5787 93  
5788 73  
5789 78  
5790 53  
5791 84  
5792 57  
5793 80  
5794 94  
5795 54  
5796 66  
5797 54  
5798 57  
5799 76  
5800 76  
5801 79  
5802 97  
5803 72  
5804 62  
5805 52  
5806 65  
5807 70  
5808 50  
5809 80  
5810 56  
5811 63  
5812 55  
5813 96  
5814 82  
5815 54  
5816 84  
5817 84  
5818 66  
5819 67  
5820 50  
5821 63  
5822 89  
5823 87  
5824 78  
5825 70  
5826 64  
5827 59  
5828 74  
5829 51  
5830 53  
5831 64  
5832 93  
5833 51  
5834 86  
5835 94  
5836 83  
5837 85  
5838 91  
5839 79  
5840 59  
5841 87  
5842 64  
5843 82  
5844 91  
5845 79  
5846 67  
5847 91  
5848 93  
5849 99  
5850 77  
5851 68  
5852 87  
5853 98  
5854 84  
5855 82  
5856 85  
5857 59  
5858 85  
5859 83  
5860 77  
5861 61  
5862 68  
5863 76  
5864 59  
5865 67  
5866 82  
5867 95  
5868 59  
5869 76  
5870 99  
5871 73  
5872 63  
5873 99  
5874 51  
5875 87  
5876 53  
5877 68  
5878 82  
5879 52  
5880 67  
5881 66  
5882 94  
5883 66  
5884 73  
5885 57  
5886 73  
5887 54  
5888 66  
5889 56  
5890 92  
5891 71  
5892 90  
5893 67  
5894 82  
5895 95  
5896 61  
5897 58  
5898 67  
5899 94  
5900 64  
5901 50  
5902 64  
5903 90  
5904 87  
5905 79  
5906 51  
5907 60  
5908 72  
5909 96  
5910 88  
5911 93  
5912 98  
5913 63  
5914 82  
5915 92  
5916 91  
5917 70  
5918 100 
5919 97  
5920 98  
5921 84  
5922 54  
5923 93  
5924 96  
5925 72  
5926 53  
5927 65  
5928 89  
5929 50  
5930 62  
5931 62  
5932 77  
5933 51  
5934 90  
5935 74  
5936 75  
5937 53  
5938 68  
5939 99  
5940 94  
5941 100 
5942 58  
5943 56  
5944 73  
5945 50  
5946 51  
5947 83  
5948 75  
5949 78  
5950 62  
5951 58  
5952 61  
5953 66  
5954 89  
5955 75  
5956 67  
5957 50  
5958 93  
5959 75  
5960 55  
5961 97  
5962 82  
5963 92  
5964 80  
5965 84  
5966 97  
5967 64  
5968 75  
5969 58  
5970 71  
5971 63  
5972 99  
5973 91  
5974 58  
5975 69  
5976 83  
5977 54  
5978 74  
5979 78  
5980 68  
5981 78  
5982 95  
5983 52  
5984 85  
5985 66  
5986 61  
5987 86  
5988 78  
5989 58  
5990 70  
5991 91  
5992 76  
5993 79  
5994 66  
5995 99  
5996 80  
5997 62  
5998 97  
5999 62  
6000 81  
6001 84  
6002 87  
6003 88  
6004 73  
6005 51  
6006 64  
6007 90  
6008 79  
6009 83  
6010 57  
6011 85  
6012 60  
6013 90  
6014 56  
6015 73  
6016 95  
6017 59  
6018 97  
6019 51  
6020 96  
6021 92  
6022 93  
6023 80  
6024 81  
6025 77  
6026 71  
6027 97  
6028 62  
6029 73  
6030 100 
6031 94  
6032 76  
6033 66  
6034 90  
6035 61  
6036 81  
6037 76  
6038 56  
6039 57  
6040 95  
6041 58  
6042 87  
6043 59  
6044 60  
6045 87  
6046 88  
6047 68  
6048 78  
6049 69  
6050 98  
6051 77  
6052 61  
6053 99  
6054 90  
6055 76  
6056 51  
6057 53  
6058 69  
6059 58  
6060 78  
6061 60  
6062 76  
6063 50  
6064 92  
6065 59  
6066 73  
6067 59  
6068 78  
6069 100 
6070 74  
6071 67  
6072 59  
6073 54  
6074 79  
6075 58  
6076 56  
6077 74  
6078 76  
6079 69  
6080 91  
6081 85  
6082 83  
6083 85  
6084 81  
6085 95  
6086 55  
6087 76  
6088 53  
6089 83  
6090 83  
6091 99  
6092 65  
6093 60  
6094 74  
6095 75  
6096 51  
6097 84  
6098 65  
6099 70  
6100 98  
6101 66  
6102 55  
6103 61  
6104 87  
6105 62  
6106 92  
6107 89  
6108 85  
6109 85  
6110 83  
6111 88  
6112 98  
6113 92  
6114 50  
6115 83  
6116 87  
6117 63  
6118 58  
6119 76  
6120 78  
6121 54  
6122 77  
6123 83  
6124 62  
6125 96  
6126 61  
6127 66  
6128 80  
6129 76  
6130 61  
6131 95  
6132 88  
6133 69  
6134 80  
6135 58  
6136 80  
6137 74  
6138 90  
6139 57  
6140 67  
6141 84  
6142 79  
6143 64  
6144 52  
6145 87  
6146 76  
6147 58  
6148 64  
6149 72  
6150 77  
6151 96  
6152 63  
6153 99  
6154 60  
6155 79  
6156 68  
6157 51  
6158 70  
6159 61  
6160 60  
6161 82  
6162 85  
6163 71  
6164 84  
6165 60  
6166 61  
6167 70  
6168 54  
6169 55  
6170 65  
6171 58  
6172 71  
6173 60  
6174 82  
6175 88  
6176 50  
6177 99  
6178 68  
6179 77  
6180 72  
6181 82  
6182 54  
6183 59  
6184 54  
6185 70  
6186 53  
6187 57  
6188 70  
6189 91  
6190 80  
6191 77  
6192 81  
6193 69  
6194 72  
6195 75  
6196 54  
6197 100 
6198 66  
6199 53  
6200 53  
6201 68  
6202 80  
6203 57  
6204 86  
6205 50  
6206 66  
6207 83  
6208 76  
6209 77  
6210 84  
6211 90  
6212 50  
6213 81  
6214 54  
6215 52  
6216 57  
6217 95  
6218 59  
6219 60  
6220 90  
6221 75  
6222 93  
6223 78  
6224 83  
6225 50  
6226 77  
6227 80  
6228 85  
6229 50  
6230 99  
6231 97  
6232 70  
6233 75  
6234 66  
6235 100 
6236 92  
6237 94  
6238 79  
6239 84  
6240 66  
6241 74  
6242 77  
6243 50  
6244 50  
6245 94  
6246 76  
6247 55  
6248 100 
6249 96  
6250 99  
6251 54  
6252 70  
6253 50  
6254 77  
6255 70  
6256 51  
6257 89  
6258 61  
6259 98  
6260 100 
6261 73  
6262 76  
6263 59  
6264 59  
6265 64  
6266 60  
6267 88  
6268 81  
6269 61  
6270 51  
6271 50  
6272 65  
6273 71  
6274 55  
6275 81  
6276 88  
6277 89  
6278 66  
6279 84  
6280 92  
6281 79  
6282 57  
6283 53  
6284 67  
6285 93  
6286 60  
6287 77  
6288 58  
6289 92  
6290 75  
6291 60  
6292 62  
6293 90  
6294 94  
6295 64  
6296 94  
6297 88  
6298 75  
6299 66  
6300 75  
6301 80  
6302 63  
6303 86  
6304 97  
6305 80  
6306 56  
6307 74  
6308 68  
6309 82  
6310 73  
6311 59  
6312 100 
6313 92  
6314 88  
6315 65  
6316 71  
6317 94  
6318 79  
6319 84  
6320 68  
6321 78  
6322 92  
6323 73  
6324 70  
6325 88  
6326 91  
6327 87  
6328 80  
6329 85  
6330 62  
6331 59  
6332 93  
6333 82  
6334 83  
6335 54  
6336 74  
6337 59  
6338 83  
6339 56  
6340 90  
6341 61  
6342 70  
6343 62  
6344 67  
6345 98  
6346 76  
6347 50  
6348 80  
6349 56  
6350 94  
6351 58  
6352 86  
6353 56  
6354 92  
6355 62  
6356 100 
6357 61  
6358 53  
6359 97  
6360 71  
6361 54  
6362 90  
6363 56  
6364 79  
6365 85  
6366 95  
6367 89  
6368 72  
6369 85  
6370 72  
6371 71  
6372 61  
6373 56  
6374 75  
6375 75  
6376 51  
6377 70  
6378 91  
6379 87  
6380 94  
6381 85  
6382 78  
6383 88  
6384 91  
6385 99  
6386 100 
6387 100 
6388 56  
6389 85  
6390 56  
6391 74  
6392 69  
6393 79  
6394 92  
6395 74  
6396 62  
6397 88  
6398 63  
6399 70  
6400 53  
6401 60  
6402 55  
6403 87  
6404 85  
6405 92  
6406 76  
6407 64  
6408 88  
6409 68  
6410 64  
6411 61  
6412 63  
6413 66  
6414 61  
6415 59  
6416 91  
6417 57  
6418 71  
6419 71  
6420 82  
6421 97  
6422 84  
6423 93  
6424 89  
6425 78  
6426 82  
6427 56  
6428 66  
6429 61  
6430 80  
6431 72  
6432 96  
6433 83  
6434 64  
6435 83  
6436 83  
6437 86  
6438 99  
6439 58  
6440 69  
6441 84  
6442 60  
6443 88  
6444 70  
6445 54  
6446 81  
6447 62  
6448 91  
6449 96  
6450 89  
6451 87  
6452 73  
6453 66  
6454 51  
6455 73  
6456 53  
6457 99  
6458 90  
6459 71  
6460 59  
6461 62  
6462 53  
6463 58  
6464 58  
6465 90  
6466 65  
6467 99  
6468 95  
6469 78  
6470 71  
6471 55  
6472 79  
6473 94  
6474 61  
6475 52  
6476 84  
6477 58  
6478 98  
6479 89  
6480 83  
6481 94  
6482 53  
6483 54  
6484 91  
6485 60  
6486 78  
6487 94  
6488 60  
6489 97  
6490 52  
6491 73  
6492 61  
6493 59  
6494 91  
6495 90  
6496 95  
6497 98  
6498 87  
6499 79  
6500 85  
6501 70  
6502 58  
6503 75  
6504 72  
6505 61  
6506 98  
6507 50  
6508 67  
6509 95  
6510 78  
6511 60  
6512 94  
6513 77  
6514 88  
6515 57  
6516 63  
6517 54  
6518 100 
6519 95  
6520 66  
6521 67  
6522 96  
6523 78  
6524 57  
6525 97  
6526 61  
6527 54  
6528 88  
6529 93  
6530 57  
6531 65  
6532 61  
6533 53  
6534 97  
6535 72  
6536 99  
6537 83  
6538 89  
6539 57  
6540 67  
6541 100 
6542 82  
6543 56  
6544 99  
6545 73  
6546 63  
6547 51  
6548 98  
6549 100 
6550 78  
6551 66  
6552 84  
6553 53  
6554 70  
6555 86  
6556 81  
6557 78  
6558 66  
6559 71  
6560 80  
6561 76  
6562 57  
6563 62  
6564 98  
6565 69  
6566 85  
6567 52  
6568 56  
6569 79  
6570 54  
6571 75  
6572 87  
6573 77  
6574 86  
6575 53  
6576 89  
6577 60  
6578 71  
6579 99  
6580 77  
6581 86  
6582 56  
6583 61  
6584 53  
6585 58  
6586 88  
6587 87  
6588 70  
6589 78  
6590 97  
6591 61  
6592 65  
6593 57  
6594 55  
6595 66  
6596 53  
6597 82  
6598 99  
6599 56  
6600 55  
6601 52  
6602 74  
6603 98  
6604 69  
6605 80  
6606 94  
6607 61  
6608 79  
6609 81  
6610 88  
6611 100 
6612 81  
6613 54  
6614 71  
6615 54  
6616 54  
6617 95  
6618 57  
6619 99  
6620 64  
6621 88  
6622 58  
6623 80  
6624 97  
6625 98  
6626 57  
6627 54  
6628 99  
6629 75  
6630 89  
6631 54  
6632 87  
6633 85  
6634 92  
6635 77  
6636 90  
6637 53  
6638 94  
6639 73  
6640 59  
6641 97  
6642 73  
6643 67  
6644 51  
6645 86  
6646 91  
6647 67  
6648 58  
6649 100 
6650 96  
6651 80  
6652 69  
6653 91  
6654 61  
6655 77  
6656 59  
6657 97  
6658 83  
6659 59  
6660 66  
6661 51  
6662 50  
6663 96  
6664 72  
6665 65  
6666 50  
6667 52  
6668 52  
6669 84  
6670 90  
6671 56  
6672 50  
6673 94  
6674 54  
6675 90  
6676 67  
6677 59  
6678 71  
6679 50  
6680 92  
6681 76  
6682 58  
6683 56  
6684 67  
6685 95  
6686 63  
6687 96  
6688 70  
6689 93  
6690 94  
6691 86  
6692 83  
6693 75  
6694 95  
6695 65  
6696 98  
6697 52  
6698 71  
6699 72  
6700 92  
6701 68  
6702 58  
6703 69  
6704 53  
6705 87  
6706 52  
6707 89  
6708 65  
6709 52  
6710 58  
6711 51  
6712 55  
6713 91  
6714 87  
6715 76  
6716 95  
6717 81  
6718 61  
6719 80  
6720 88  
6721 71  
6722 62  
6723 86  
6724 92  
6725 73  
6726 69  
6727 51  
6728 51  
6729 77  
6730 98  
6731 82  
6732 98  
6733 58  
6734 99  
6735 74  
6736 59  
6737 67  
6738 67  
6739 78  
6740 83  
6741 79  
6742 77  
6743 50  
6744 63  
6745 87  
6746 80  
6747 61  
6748 63  
6749 64  
6750 50  
6751 79  
6752 61  
6753 57  
6754 88  
6755 52  
6756 91  
6757 77  
6758 60  
6759 51  
6760 96  
6761 60  
6762 73  
6763 65  
6764 62  
6765 93  
6766 89  
6767 65  
6768 63  
6769 60  
6770 63  
6771 94  
6772 94  
6773 71  
6774 50  
6775 74  
6776 78  
6777 63  
6778 51  
6779 68  
6780 57  
6781 67  
6782 69  
6783 61  
6784 63  
6785 54  
6786 63  
6787 68  
6788 61  
6789 85  
6790 58  
6791 66  
6792 95  
6793 51  
6794 81  
6795 74  
6796 83  
6797 79  
6798 55  
6799 63  
6800 75  
6801 63  
6802 69  
6803 83  
6804 54  
6805 83  
6806 71  
6807 92  
6808 90  
6809 75  
6810 62  
6811 70  
6812 62  
6813 100 
6814 66  
6815 95  
6816 98  
6817 100 
6818 63  
6819 94  
6820 81  
6821 84  
6822 96  
6823 78  
6824 92  
6825 77  
6826 100 
6827 98  
6828 52  
6829 72  
6830 81  
6831 50  
6832 78  
6833 87  
6834 84  
6835 70  
6836 100 
6837 60  
6838 67  
6839 72  
6840 58  
6841 63  
6842 80  
6843 54  
6844 50  
6845 94  
6846 57  
6847 50  
6848 93  
6849 66  
6850 72  
6851 60  
6852 90  
6853 59  
6854 60  
6855 55  
6856 67  
6857 79  
6858 96  
6859 77  
6860 74  
6861 61  
6862 97  
6863 56  
6864 97  
6865 71  
6866 60  
6867 79  
6868 82  
6869 91  
6870 58  
6871 50  
6872 74  
6873 88  
6874 70  
6875 99  
6876 61  
6877 56  
6878 96  
6879 79  
6880 66  
6881 97  
6882 89  
6883 78  
6884 79  
6885 95  
6886 57  
6887 71  
6888 93  
6889 93  
6890 68  
6891 92  
6892 79  
6893 100 
6894 76  
6895 79  
6896 93  
6897 65  
6898 71  
6899 51  
6900 99  
6901 82  
6902 79  
6903 95  
6904 54  
6905 78  
6906 69  
6907 99  
6908 61  
6909 83  
6910 96  
6911 56  
6912 72  
6913 92  
6914 72  
6915 92  
6916 87  
6917 88  
6918 74  
6919 69  
6920 77  
6921 95  
6922 54  
6923 59  
6924 70  
6925 66  
6926 85  
6927 97  
6928 71  
6929 82  
6930 86  
6931 67  
6932 50  
6933 58  
6934 84  
6935 55  
6936 67  
6937 88  
6938 96  
6939 100 
6940 79  
6941 93  
6942 70  
6943 61  
6944 98  
6945 89  
6946 54  
6947 86  
6948 62  
6949 100 
6950 57  
6951 72  
6952 60  
6953 76  
6954 55  
6955 93  
6956 82  
6957 60  
6958 66  
6959 64  
6960 89  
6961 73  
6962 72  
6963 78  
6964 83  
6965 70  
6966 67  
6967 88  
6968 64  
6969 85  
6970 51  
6971 97  
6972 86  
6973 90  
6974 62  
6975 62  
6976 50  
6977 80  
6978 96  
6979 57  
6980 76  
6981 52  
6982 55  
6983 61  
6984 76  
6985 98  
6986 65  
6987 53  
6988 57  
6989 87  
6990 55  
6991 87  
6992 61  
6993 64  
6994 85  
6995 81  
6996 61  
6997 71  
6998 77  
6999 97  
7000 54  
7001 92  
7002 95  
7003 70  
7004 81  
7005 87  
7006 75  
7007 83  
7008 69  
7009 87  
7010 63  
7011 96  
7012 85  
7013 63  
7014 62  
7015 73  
7016 75  
7017 99  
7018 100 
7019 87  
7020 84  
7021 93  
7022 94  
7023 72  
7024 59  
7025 91  
7026 63  
7027 92  
7028 83  
7029 62  
7030 79  
7031 57  
7032 100 
7033 61  
7034 81  
7035 84  
7036 68  
7037 95  
7038 92  
7039 99  
7040 85  
7041 72  
7042 71  
7043 96  
7044 60  
7045 61  
7046 92  
7047 69  
7048 62  
7049 51  
7050 51  
7051 57  
7052 71  
7053 80  
7054 77  
7055 74  
7056 78  
7057 78  
7058 95  
7059 62  
7060 97  
7061 97  
7062 74  
7063 87  
7064 87  
7065 64  
7066 67  
7067 61  
7068 63  
7069 77  
7070 96  
7071 55  
7072 62  
7073 60  
7074 70  
7075 61  
7076 51  
7077 100 
7078 81  
7079 78  
7080 65  
7081 76  
7082 71  
7083 86  
7084 57  
7085 99  
7086 87  
7087 86  
7088 93  
7089 76  
7090 92  
7091 98  
7092 77  
7093 97  
7094 52  
7095 100 
7096 76  
7097 93  
7098 63  
7099 81  
7100 66  
7101 59  
7102 57  
7103 86  
7104 83  
7105 52  
7106 98  
7107 65  
7108 55  
7109 91  
7110 75  
7111 66  
7112 97  
7113 62  
7114 65  
7115 55  
7116 99  
7117 63  
7118 52  
7119 84  
7120 100 
7121 78  
7122 52  
7123 68  
7124 66  
7125 98  
7126 89  
7127 70  
7128 51  
7129 80  
7130 98  
7131 89  
7132 64  
7133 82  
7134 87  
7135 99  
7136 96  
7137 86  
7138 98  
7139 55  
7140 51  
7141 52  
7142 68  
7143 92  
7144 87  
7145 99  
7146 93  
7147 86  
7148 71  
7149 98  
7150 60  
7151 52  
7152 85  
7153 97  
7154 57  
7155 55  
7156 99  
7157 55  
7158 100 
7159 67  
7160 79  
7161 52  
7162 68  
7163 77  
7164 100 
7165 63  
7166 91  
7167 77  
7168 77  
7169 74  
7170 72  
7171 71  
7172 84  
7173 59  
7174 72  
7175 92  
7176 73  
7177 65  
7178 89  
7179 60  
7180 70  
7181 93  
7182 72  
7183 99  
7184 73  
7185 63  
7186 83  
7187 70  
7188 60  
7189 95  
7190 90  
7191 58  
7192 82  
7193 57  
7194 61  
7195 88  
7196 88  
7197 94  
7198 93  
7199 74  
7200 60  
7201 58  
7202 66  
7203 78  
7204 65  
7205 53  
7206 82  
7207 80  
7208 71  
7209 90  
7210 51  
7211 91  
7212 75  
7213 76  
7214 71  
7215 82  
7216 63  
7217 84  
7218 64  
7219 86  
7220 64  
7221 72  
7222 55  
7223 88  
7224 89  
7225 98  
7226 59  
7227 58  
7228 87  
7229 82  
7230 52  
7231 90  
7232 93  
7233 58  
7234 56  
7235 89  
7236 79  
7237 73  
7238 76  
7239 64  
7240 63  
7241 70  
7242 90  
7243 50  
7244 79  
7245 57  
7246 80  
7247 74  
7248 61  
7249 69  
7250 98  
7251 99  
7252 84  
7253 83  
7254 74  
7255 64  
7256 60  
7257 75  
7258 81  
7259 83  
7260 59  
7261 52  
7262 82  
7263 82  
7264 57  
7265 80  
7266 51  
7267 60  
7268 80  
7269 55  
7270 73  
7271 100 
7272 82  
7273 74  
7274 50  
7275 92  
7276 81  
7277 92  
7278 86  
7279 85  
7280 77  
7281 85  
7282 97  
7283 75  
7284 93  
7285 87  
7286 73  
7287 73  
7288 85  
7289 90  
7290 90  
7291 68  
7292 68  
7293 94  
7294 85  
7295 86  
7296 67  
7297 98  
7298 64  
7299 57  
7300 92  
7301 76  
7302 100 
7303 95  
7304 81  
7305 83  
7306 60  
7307 55  
7308 92  
7309 59  
7310 79  
7311 66  
7312 87  
7313 81  
7314 83  
7315 70  
7316 87  
7317 59  
7318 85  
7319 54  
7320 82  
7321 88  
7322 52  
7323 76  
7324 98  
7325 69  
7326 74  
7327 91  
7328 61  
7329 51  
7330 72  
7331 98  
7332 81  
7333 67  
7334 85  
7335 96  
7336 99  
7337 57  
7338 99  
7339 90  
7340 52  
7341 65  
7342 61  
7343 80  
7344 65  
7345 61  
7346 97  
7347 73  
7348 86  
7349 93  
7350 63  
7351 91  
7352 95  
7353 66  
7354 81  
7355 68  
7356 88  
7357 91  
7358 70  
7359 55  
7360 87  
7361 97  
7362 85  
7363 50  
7364 73  
7365 51  
7366 56  
7367 63  
7368 75  
7369 53  
7370 50  
7371 99  
7372 76  
7373 66  
7374 52  
7375 97  
7376 92  
7377 84  
7378 83  
7379 74  
7380 74  
7381 98  
7382 81  
7383 63  
7384 75  
7385 91  
7386 66  
7387 87  
7388 59  
7389 100 
7390 52  
7391 62  
7392 80  
7393 59  
7394 82  
7395 53  
7396 94  
7397 64  
7398 60  
7399 93  
7400 56  
7401 89  
7402 76  
7403 97  
7404 74  
7405 88  
7406 91  
7407 83  
7408 80  
7409 89  
7410 55  
7411 65  
7412 60  
7413 56  
7414 93  
7415 96  
7416 76  
7417 62  
7418 66  
7419 64  
7420 87  
7421 79  
7422 75  
7423 64  
7424 84  
7425 61  
7426 57  
7427 60  
7428 51  
7429 57  
7430 57  
7431 73  
7432 50  
7433 95  
7434 70  
7435 94  
7436 58  
7437 85  
7438 92  
7439 71  
7440 55  
7441 72  
7442 67  
7443 84  
7444 63  
7445 76  
7446 66  
7447 79  
7448 67  
7449 89  
7450 81  
7451 57  
7452 67  
7453 83  
7454 58  
7455 66  
7456 50  
7457 60  
7458 63  
7459 90  
7460 52  
7461 93  
7462 65  
7463 81  
7464 56  
7465 80  
7466 63  
7467 70  
7468 66  
7469 70  
7470 96  
7471 69  
7472 83  
7473 66  
7474 86  
7475 80  
7476 85  
7477 84  
7478 74  
7479 54  
7480 63  
7481 78  
7482 71  
7483 99  
7484 85  
7485 90  
7486 99  
7487 96  
7488 52  
7489 63  
7490 87  
7491 84  
7492 87  
7493 88  
7494 67  
7495 62  
7496 61  
7497 76  
7498 82  
7499 87  
7500 73  
7501 67  
7502 56  
7503 62  
7504 66  
7505 67  
7506 78  
7507 74  
7508 93  
7509 62  
7510 82  
7511 61  
7512 55  
7513 82  
7514 76  
7515 71  
7516 98  
7517 53  
7518 63  
7519 69  
7520 91  
7521 80  
7522 95  
7523 53  
7524 71  
7525 51  
7526 88  
7527 81  
7528 59  
7529 93  
7530 71  
7531 69  
7532 71  
7533 56  
7534 80  
7535 61  
7536 52  
7537 80  
7538 92  
7539 81  
7540 84  
7541 68  
7542 75  
7543 77  
7544 98  
7545 62  
7546 99  
7547 97  
7548 51  
7549 74  
7550 97  
7551 66  
7552 54  
7553 71  
7554 94  
7555 95  
7556 92  
7557 52  
7558 74  
7559 50  
7560 64  
7561 71  
7562 53  
7563 62  
7564 76  
7565 68  
7566 74  
7567 54  
7568 60  
7569 79  
7570 82  
7571 71  
7572 53  
7573 56  
7574 85  
7575 61  
7576 67  
7577 57  
7578 75  
7579 91  
7580 95  
7581 75  
7582 63  
7583 51  
7584 56  
7585 87  
7586 83  
7587 73  
7588 93  
7589 96  
7590 88  
7591 72  
7592 76  
7593 62  
7594 64  
7595 76  
7596 60  
7597 91  
7598 50  
7599 83  
7600 54  
7601 92  
7602 100 
7603 99  
7604 73  
7605 51  
7606 81  
7607 98  
7608 89  
7609 92  
7610 90  
7611 75  
7612 93  
7613 96  
7614 86  
7615 67  
7616 53  
7617 50  
7618 100 
7619 63  
7620 67  
7621 54  
7622 77  
7623 90  
7624 97  
7625 78  
7626 93  
7627 73  
7628 87  
7629 51  
7630 92  
7631 58  
7632 95  
7633 87  
7634 59  
7635 50  
7636 100 
7637 96  
7638 52  
7639 92  
7640 83  
7641 76  
7642 62  
7643 71  
7644 51  
7645 84  
7646 83  
7647 83  
7648 89  
7649 68  
7650 89  
7651 72  
7652 77  
7653 92  
7654 75  
7655 87  
7656 59  
7657 87  
7658 51  
7659 95  
7660 79  
7661 66  
7662 51  
7663 59  
7664 99  
7665 66  
7666 93  
7667 97  
7668 68  
7669 72  
7670 67  
7671 82  
7672 60  
7673 71  
7674 77  
7675 60  
7676 51  
7677 93  
7678 95  
7679 53  
7680 78  
7681 90  
7682 61  
7683 96  
7684 56  
7685 54  
7686 81  
7687 93  
7688 95  
7689 97  
7690 61  
7691 88  
7692 87  
7693 55  
7694 84  
7695 87  
7696 57  
7697 56  
7698 74  
7699 59  
7700 53  
7701 88  
7702 93  
7703 78  
7704 97  
7705 58  
7706 86  
7707 69  
7708 100 
7709 67  
7710 55  
7711 61  
7712 91  
7713 76  
7714 99  
7715 72  
7716 81  
7717 59  
7718 83  
7719 66  
7720 76  
7721 92  
7722 59  
7723 83  
7724 59  
7725 100 
7726 100 
7727 85  
7728 100 
7729 75  
7730 74  
7731 76  
7732 71  
7733 64  
7734 96  
7735 71  
7736 59  
7737 82  
7738 52  
7739 56  
7740 51  
7741 58  
7742 81  
7743 93  
7744 52  
7745 61  
7746 95  
7747 73  
7748 93  
7749 90  
7750 93  
7751 68  
7752 52  
7753 79  
7754 94  
7755 71  
7756 100 
7757 76  
7758 63  
7759 99  
7760 55  
7761 58  
7762 89  
7763 54  
7764 69  
7765 92  
7766 98  
7767 83  
7768 100 
7769 69  
7770 63  
7771 92  
7772 88  
7773 52  
7774 74  
7775 66  
7776 86  
7777 93  
7778 53  
7779 83  
7780 66  
7781 79  
7782 59  
7783 77  
7784 64  
7785 74  
7786 71  
7787 90  
7788 53  
7789 79  
7790 85  
7791 84  
7792 66  
7793 54  
7794 64  
7795 85  
7796 75  
7797 69  
7798 70  
7799 100 
7800 92  
7801 55  
7802 64  
7803 70  
7804 67  
7805 86  
7806 99  
7807 95  
7808 64  
7809 68  
7810 84  
7811 88  
7812 56  
7813 64  
7814 93  
7815 53  
7816 63  
7817 51  
7818 80  
7819 84  
7820 50  
7821 79  
7822 96  
7823 68  
7824 68  
7825 55  
7826 98  
7827 100 
7828 91  
7829 95  
7830 97  
7831 70  
7832 60  
7833 51  
7834 79  
7835 83  
7836 67  
7837 67  
7838 53  
7839 68  
7840 100 
7841 63  
7842 50  
7843 53  
7844 60  
7845 52  
7846 60  
7847 84  
7848 75  
7849 95  
7850 67  
7851 84  
7852 78  
7853 80  
7854 68  
7855 59  
7856 51  
7857 78  
7858 66  
7859 55  
7860 60  
7861 60  
7862 82  
7863 57  
7864 50  
7865 63  
7866 95  
7867 88  
7868 67  
7869 96  
7870 97  
7871 92  
7872 65  
7873 54  
7874 53  
7875 77  
7876 63  
7877 82  
7878 56  
7879 55  
7880 64  
7881 66  
7882 66  
7883 82  
7884 87  
7885 55  
7886 66  
7887 86  
7888 88  
7889 60  
7890 64  
7891 89  
7892 64  
7893 97  
7894 55  
7895 87  
7896 54  
7897 58  
7898 61  
7899 73  
7900 89  
7901 58  
7902 52  
7903 98  
7904 83  
7905 72  
7906 66  
7907 67  
7908 80  
7909 91  
7910 51  
7911 72  
7912 70  
7913 55  
7914 57  
7915 82  
7916 60  
7917 84  
7918 67  
7919 87  
7920 86  
7921 71  
7922 96  
7923 71  
7924 81  
7925 95  
7926 66  
7927 55  
7928 79  
7929 73  
7930 93  
7931 50  
7932 76  
7933 51  
7934 73  
7935 87  
7936 89  
7937 71  
7938 76  
7939 81  
7940 93  
7941 86  
7942 84  
7943 81  
7944 51  
7945 78  
7946 61  
7947 57  
7948 96  
7949 57  
7950 74  
7951 59  
7952 72  
7953 52  
7954 54  
7955 99  
7956 74  
7957 51  
7958 51  
7959 61  
7960 93  
7961 90  
7962 72  
7963 54  
7964 52  
7965 78  
7966 74  
7967 84  
7968 77  
7969 74  
7970 96  
7971 68  
7972 75  
7973 98  
7974 88  
7975 88  
7976 69  
7977 66  
7978 97  
7979 70  
7980 65  
7981 67  
7982 82  
7983 63  
7984 98  
7985 73  
7986 83  
7987 92  
7988 97  
7989 95  
7990 69  
7991 94  
7992 58  
7993 73  
7994 86  
7995 63  
7996 64  
7997 79  
7998 96  
7999 80  
8000 62  
8001 52  
8002 65  
8003 59  
8004 92  
8005 87  
8006 72  
8007 90  
8008 71  
8009 100 
8010 57  
8011 62  
8012 53  
8013 90  
8014 87  
8015 58  
8016 62  
8017 74  
8018 65  
8019 58  
8020 79  
8021 73  
8022 79  
8023 91  
8024 74  
8025 88  
8026 74  
8027 80  
8028 71  
8029 79  
8030 95  
8031 50  
8032 53  
8033 65  
8034 56  
8035 50  
8036 81  
8037 83  
8038 81  
8039 58  
8040 77  
8041 73  
8042 77  
8043 53  
8044 80  
8045 58  
8046 83  
8047 55  
8048 81  
8049 91  
8050 51  
8051 68  
8052 64  
8053 68  
8054 69  
8055 60  
8056 96  
8057 81  
8058 63  
8059 63  
8060 92  
8061 98  
8062 78  
8063 91  
8064 68  
8065 72  
8066 64  
8067 81  
8068 63  
8069 85  
8070 62  
8071 76  
8072 87  
8073 98  
8074 77  
8075 63  
8076 77  
8077 99  
8078 86  
8079 62  
8080 70  
8081 60  
8082 68  
8083 81  
8084 68  
8085 99  
8086 59  
8087 97  
8088 83  
8089 82  
8090 82  
8091 54  
8092 53  
8093 64  
8094 53  
8095 69  
8096 90  
8097 72  
8098 81  
8099 65  
8100 55  
8101 64  
8102 78  
8103 58  
8104 90  
8105 51  
8106 95  
8107 77  
8108 79  
8109 80  
8110 58  
8111 59  
8112 56  
8113 50  
8114 98  
8115 64  
8116 75  
8117 84  
8118 70  
8119 61  
8120 80  
8121 64  
8122 57  
8123 50  
8124 56  
8125 66  
8126 96  
8127 100 
8128 79  
8129 69  
8130 61  
8131 99  
8132 72  
8133 68  
8134 94  
8135 84  
8136 53  
8137 86  
8138 77  
8139 64  
8140 94  
8141 61  
8142 58  
8143 84  
8144 54  
8145 67  
8146 67  
8147 65  
8148 72  
8149 80  
8150 97  
8151 99  
8152 53  
8153 78  
8154 50  
8155 81  
8156 82  
8157 79  
8158 62  
8159 57  
8160 88  
8161 93  
8162 62  
8163 99  
8164 66  
8165 90  
8166 95  
8167 58  
8168 89  
8169 90  
8170 56  
8171 60  
8172 85  
8173 95  
8174 81  
8175 57  
8176 50  
8177 53  
8178 90  
8179 89  
8180 63  
8181 53  
8182 59  
8183 94  
8184 98  
8185 97  
8186 84  
8187 95  
8188 52  
8189 64  
8190 68  
8191 79  
8192 58  
8193 93  
8194 62  
8195 69  
8196 81  
8197 86  
8198 83  
8199 87  
8200 92  
8201 99  
8202 56  
8203 50  
8204 84  
8205 85  
8206 98  
8207 96  
8208 69  
8209 89  
8210 51  
8211 73  
8212 68  
8213 80  
8214 98  
8215 66  
8216 57  
8217 91  
8218 78  
8219 75  
8220 63  
8221 83  
8222 66  
8223 93  
8224 86  
8225 56  
8226 52  
8227 53  
8228 74  
8229 100 
8230 57  
8231 85  
8232 93  
8233 59  
8234 51  
8235 83  
8236 95  
8237 79  
8238 57  
8239 81  
8240 66  
8241 55  
8242 59  
8243 69  
8244 92  
8245 60  
8246 90  
8247 50  
8248 50  
8249 86  
8250 59  
8251 70  
8252 96  
8253 100 
8254 100 
8255 89  
8256 91  
8257 92  
8258 75  
8259 78  
8260 93  
8261 64  
8262 93  
8263 85  
8264 95  
8265 72  
8266 68  
8267 65  
8268 81  
8269 88  
8270 86  
8271 59  
8272 71  
8273 52  
8274 63  
8275 58  
8276 82  
8277 56  
8278 97  
8279 85  
8280 69  
8281 81  
8282 56  
8283 68  
8284 73  
8285 99  
8286 83  
8287 94  
8288 94  
8289 92  
8290 52  
8291 71  
8292 91  
8293 60  
8294 74  
8295 81  
8296 61  
8297 95  
8298 61  
8299 57  
8300 82  
8301 59  
8302 64  
8303 93  
8304 57  
8305 67  
8306 77  
8307 84  
8308 80  
8309 69  
8310 57  
8311 74  
8312 75  
8313 68  
8314 70  
8315 71  
8316 88  
8317 90  
8318 85  
8319 88  
8320 87  
8321 73  
8322 89  
8323 51  
8324 60  
8325 99  
8326 88  
8327 68  
8328 55  
8329 86  
8330 50  
8331 73  
8332 97  
8333 76  
8334 73  
8335 57  
8336 74  
8337 83  
8338 71  
8339 73  
8340 59  
8341 98  
8342 90  
8343 100 
8344 56  
8345 74  
8346 80  
8347 73  
8348 90  
8349 86  
8350 74  
8351 85  
8352 81  
8353 87  
8354 58  
8355 58  
8356 59  
8357 72  
8358 75  
8359 97  
8360 81  
8361 55  
8362 57  
8363 84  
8364 82  
8365 50  
8366 88  
8367 100 
8368 71  
8369 96  
8370 77  
8371 57  
8372 54  
8373 97  
8374 96  
8375 64  
8376 66  
8377 50  
8378 56  
8379 72  
8380 93  
8381 97  
8382 98  
8383 67  
8384 88  
8385 54  
8386 62  
8387 55  
8388 53  
8389 74  
8390 99  
8391 76  
8392 80  
8393 61  
8394 63  
8395 80  
8396 60  
8397 67  
8398 68  
8399 88  
8400 96  
8401 69  
8402 82  
8403 75  
8404 78  
8405 89  
8406 62  
8407 74  
8408 85  
8409 96  
8410 76  
8411 71  
8412 91  
8413 56  
8414 83  
8415 93  
8416 52  
8417 84  
8418 51  
8419 59  
8420 97  
8421 90  
8422 75  
8423 55  
8424 94  
8425 64  
8426 51  
8427 67  
8428 94  
8429 73  
8430 52  
8431 65  
8432 74  
8433 91  
8434 80  
8435 57  
8436 63  
8437 87  
8438 73  
8439 79  
8440 94  
8441 55  
8442 91  
8443 73  
8444 64  
8445 53  
8446 70  
8447 53  
8448 59  
8449 81  
8450 52  
8451 76  
8452 77  
8453 89  
8454 72  
8455 59  
8456 52  
8457 70  
8458 60  
8459 75  
8460 72  
8461 90  
8462 85  
8463 69  
8464 67  
8465 59  
8466 67  
8467 93  
8468 75  
8469 96  
8470 58  
8471 81  
8472 92  
8473 74  
8474 77  
8475 92  
8476 86  
8477 51  
8478 72  
8479 82  
8480 66  
8481 53  
8482 82  
8483 77  
8484 62  
8485 63  
8486 79  
8487 61  
8488 63  
8489 69  
8490 94  
8491 96  
8492 87  
8493 96  
8494 75  
8495 57  
8496 100 
8497 86  
8498 85  
8499 63  
8500 76  
8501 86  
8502 88  
8503 63  
8504 59  
8505 89  
8506 51  
8507 64  
8508 50  
8509 94  
8510 83  
8511 54  
8512 73  
8513 59  
8514 55  
8515 59  
8516 62  
8517 82  
8518 50  
8519 95  
8520 89  
8521 52  
8522 61  
8523 89  
8524 75  
8525 85  
8526 75  
8527 80  
8528 68  
8529 97  
8530 61  
8531 93  
8532 55  
8533 76  
8534 82  
8535 100 
8536 64  
8537 53  
8538 73  
8539 65  
8540 79  
8541 50  
8542 85  
8543 92  
8544 71  
8545 67  
8546 54  
8547 100 
8548 61  
8549 88  
8550 94  
8551 70  
8552 69  
8553 75  
8554 59  
8555 99  
8556 85  
8557 61  
8558 84  
8559 63  
8560 90  
8561 71  
8562 70  
8563 91  
8564 69  
8565 80  
8566 75  
8567 79  
8568 58  
8569 70  
8570 99  
8571 67  
8572 58  
8573 95  
8574 66  
8575 60  
8576 60  
8577 79  
8578 62  
8579 65  
8580 96  
8581 98  
8582 91  
8583 63  
8584 79  
8585 60  
8586 69  
8587 68  
8588 100 
8589 93  
8590 91  
8591 57  
8592 59  
8593 84  
8594 60  
8595 96  
8596 55  
8597 66  
8598 79  
8599 52  
8600 73  
8601 75  
8602 66  
8603 62  
8604 95  
8605 86  
8606 93  
8607 85  
8608 50  
8609 94  
8610 89  
8611 98  
8612 50  
8613 70  
8614 96  
8615 88  
8616 65  
8617 78  
8618 66  
8619 74  
8620 89  
8621 62  
8622 72  
8623 63  
8624 91  
8625 79  
8626 92  
8627 64  
8628 60  
8629 97  
8630 72  
8631 66  
8632 54  
8633 88  
8634 84  
8635 89  
8636 70  
8637 99  
8638 76  
8639 82  
8640 52  
8641 88  
8642 99  
8643 78  
8644 73  
8645 58  
8646 72  
8647 76  
8648 95  
8649 100 
8650 85  
8651 73  
8652 58  
8653 97  
8654 93  
8655 62  
8656 56  
8657 75  
8658 84  
8659 76  
8660 74  
8661 63  
8662 52  
8663 71  
8664 97  
8665 75  
8666 100 
8667 52  
8668 69  
8669 50  
8670 87  
8671 56  
8672 70  
8673 69  
8674 61  
8675 59  
8676 66  
8677 50  
8678 66  
8679 76  
8680 68  
8681 93  
8682 67  
8683 54  
8684 73  
8685 97  
8686 95  
8687 94  
8688 75  
8689 89  
8690 82  
8691 64  
8692 68  
8693 71  
8694 92  
8695 96  
8696 63  
8697 59  
8698 55  
8699 64  
8700 88  
8701 87  
8702 66  
8703 98  
8704 82  
8705 78  
8706 51  
8707 51  
8708 89  
8709 51  
8710 96  
8711 74  
8712 88  
8713 79  
8714 54  
8715 73  
8716 95  
8717 50  
8718 75  
8719 92  
8720 54  
8721 70  
8722 84  
8723 100 
8724 82  
8725 82  
8726 78  
8727 73  
8728 63  
8729 84  
8730 81  
8731 66  
8732 61  
8733 65  
8734 57  
8735 85  
8736 50  
8737 100 
8738 76  
8739 97  
8740 50  
8741 66  
8742 72  
8743 50  
8744 62  
8745 91  
8746 100 
8747 88  
8748 90  
8749 58  
8750 84  
8751 70  
8752 59  
8753 98  
8754 71  
8755 90  
8756 78  
8757 96  
8758 68  
8759 82  
8760 62  
8761 80  
8762 69  
8763 60  
8764 50  
8765 57  
8766 85  
8767 95  
8768 72  
8769 99  
8770 97  
8771 56  
8772 85  
8773 72  
8774 82  
8775 56  
8776 90  
8777 53  
8778 54  
8779 60  
8780 53  
8781 97  
8782 62  
8783 58  
8784 98  
8785 52  
8786 67  
8787 92  
8788 84  
8789 79  
8790 85  
8791 99  
8792 63  
8793 89  
8794 85  
8795 62  
8796 89  
8797 67  
8798 79  
8799 96  
8800 64  
8801 56  
8802 71  
8803 78  
8804 100 
8805 65  
8806 90  
8807 90  
8808 54  
8809 69  
8810 95  
8811 81  
8812 66  
8813 75  
8814 52  
8815 83  
8816 89  
8817 53  
8818 51  
8819 96  
8820 97  
8821 81  
8822 70  
8823 96  
8824 80  
8825 78  
8826 60  
8827 67  
8828 87  
8829 61  
8830 65  
8831 56  
8832 66  
8833 88  
8834 92  
8835 74  
8836 51  
8837 93  
8838 51  
8839 83  
8840 76  
8841 73  
8842 99  
8843 89  
8844 57  
8845 70  
8846 54  
8847 93  
8848 63  
8849 51  
8850 51  
8851 77  
8852 95  
8853 70  
8854 53  
8855 55  
8856 85  
8857 78  
8858 75  
8859 90  
8860 84  
8861 84  
8862 81  
8863 67  
8864 50  
8865 66  
8866 64  
8867 74  
8868 82  
8869 56  
8870 91  
8871 70  
8872 94  
8873 62  
8874 98  
8875 73  
8876 79  
8877 87  
8878 83  
8879 93  
8880 72  
8881 82  
8882 56  
8883 58  
8884 75  
8885 100 
8886 53  
8887 50  
8888 52  
8889 74  
8890 92  
8891 59  
8892 59  
8893 60  
8894 76  
8895 87  
8896 79  
8897 53  
8898 99  
8899 66  
8900 97  
8901 63  
8902 99  
8903 88  
8904 63  
8905 82  
8906 77  
8907 89  
8908 100 
8909 88  
8910 89  
8911 76  
8912 77  
8913 86  
8914 82  
8915 88  
8916 94  
8917 69  
8918 51  
8919 61  
8920 57  
8921 92  
8922 57  
8923 89  
8924 92  
8925 83  
8926 50  
8927 71  
8928 50  
8929 50  
8930 65  
8931 51  
8932 52  
8933 85  
8934 57  
8935 95  
8936 59  
8937 67  
8938 83  
8939 62  
8940 53  
8941 70  
8942 75  
8943 96  
8944 70  
8945 55  
8946 92  
8947 75  
8948 98  
8949 68  
8950 82  
8951 66  
8952 53  
8953 73  
8954 87  
8955 84  
8956 75  
8957 61  
8958 73  
8959 66  
8960 68  
8961 83  
8962 66  
8963 88  
8964 86  
8965 91  
8966 97  
8967 63  
8968 82  
8969 76  
8970 94  
8971 89  
8972 87  
8973 52  
8974 61  
8975 84  
8976 74  
8977 96  
8978 99  
8979 54  
8980 94  
8981 99  
8982 72  
8983 75  
8984 97  
8985 55  
8986 94  
8987 91  
8988 77  
8989 55  
8990 65  
8991 76  
8992 98  
8993 95  
8994 82  
8995 90  
8996 59  
8997 93  
8998 73  
8999 53  
9000 87  
9001 73  
9002 96  
9003 83  
9004 72  
9005 85  
9006 67  
9007 63  
9008 61  
9009 68  
9010 79  
9011 83  
9012 68  
9013 56  
9014 54  
9015 76  
9016 75  
9017 87  
9018 86  
9019 96  
9020 61  
9021 64  
9022 82  
9023 84  
9024 57  
9025 79  
9026 98  
9027 51  
9028 56  
9029 98  
9030 70  
9031 98  
9032 64  
9033 90  
9034 70  
9035 59  
9036 91  
9037 100 
9038 82  
9039 73  
9040 66  
9041 62  
9042 52  
9043 75  
9044 85  
9045 72  
9046 62  
9047 92  
9048 98  
9049 70  
9050 59  
9051 83  
9052 96  
9053 70  
9054 88  
9055 50  
9056 80  
9057 64  
9058 92  
9059 69  
9060 52  
9061 61  
9062 64  
9063 89  
9064 99  
9065 72  
9066 86  
9067 82  
9068 78  
9069 100 
9070 59  
9071 91  
9072 55  
9073 87  
9074 94  
9075 88  
9076 89  
9077 84  
9078 74  
9079 60  
9080 52  
9081 57  
9082 74  
9083 54  
9084 55  
9085 63  
9086 51  
9087 89  
9088 70  
9089 59  
9090 57  
9091 71  
9092 90  
9093 78  
9094 52  
9095 59  
9096 74  
9097 85  
9098 68  
9099 86  
9100 72  
9101 76  
9102 63  
9103 63  
9104 67  
9105 99  
9106 75  
9107 89  
9108 86  
9109 87  
9110 94  
9111 98  
9112 63  
9113 82  
9114 55  
9115 68  
9116 89  
9117 69  
9118 93  
9119 55  
9120 60  
9121 60  
9122 57  
9123 56  
9124 62  
9125 72  
9126 85  
9127 52  
9128 74  
9129 97  
9130 79  
9131 80  
9132 59  
9133 96  
9134 97  
9135 93  
9136 55  
9137 65  
9138 74  
9139 67  
9140 90  
9141 65  
9142 87  
9143 89  
9144 63  
9145 58  
9146 65  
9147 53  
9148 56  
9149 99  
9150 82  
9151 71  
9152 77  
9153 70  
9154 74  
9155 70  
9156 66  
9157 83  
9158 79  
9159 77  
9160 72  
9161 54  
9162 65  
9163 51  
9164 94  
9165 55  
9166 94  
9167 97  
9168 65  
9169 75  
9170 66  
9171 97  
9172 55  
9173 92  
9174 66  
9175 61  
9176 64  
9177 100 
9178 69  
9179 90  
9180 99  
9181 86  
9182 98  
9183 67  
9184 79  
9185 62  
9186 72  
9187 79  
9188 56  
9189 80  
9190 56  
9191 95  
9192 77  
9193 82  
9194 86  
9195 86  
9196 95  
9197 80  
9198 65  
9199 65  
9200 50  
9201 61  
9202 65  
9203 78  
9204 88  
9205 96  
9206 67  
9207 66  
9208 76  
9209 83  
9210 96  
9211 72  
9212 86  
9213 94  
9214 98  
9215 66  
9216 76  
9217 72  
9218 57  
9219 96  
9220 67  
9221 56  
9222 90  
9223 57  
9224 86  
9225 97  
9226 92  
9227 92  
9228 81  
9229 80  
9230 83  
9231 61  
9232 68  
9233 81  
9234 71  
9235 90  
9236 91  
9237 92  
9238 54  
9239 78  
9240 84  
9241 93  
9242 79  
9243 53  
9244 76  
9245 79  
9246 50  
9247 64  
9248 91  
9249 62  
9250 88  
9251 71  
9252 80  
9253 52  
9254 57  
9255 53  
9256 73  
9257 85  
9258 63  
9259 72  
9260 83  
9261 85  
9262 84  
9263 99  
9264 83  
9265 72  
9266 90  
9267 65  
9268 84  
9269 89  
9270 100 
9271 52  
9272 97  
9273 55  
9274 63  
9275 98  
9276 98  
9277 61  
9278 72  
9279 73  
9280 95  
9281 78  
9282 51  
9283 90  
9284 83  
9285 89  
9286 99  
9287 94  
9288 80  
9289 76  
9290 70  
9291 88  
9292 85  
9293 95  
9294 90  
9295 93  
9296 70  
9297 78  
9298 93  
9299 59  
9300 55  
9301 85  
9302 88  
9303 79  
9304 54  
9305 63  
9306 66  
9307 100 
9308 86  
9309 77  
9310 84  
9311 55  
9312 63  
9313 79  
9314 75  
9315 68  
9316 51  
9317 88  
9318 64  
9319 83  
9320 90  
9321 64  
9322 91  
9323 100 
9324 98  
9325 99  
9326 75  
9327 85  
9328 62  
9329 64  
9330 69  
9331 72  
9332 68  
9333 62  
9334 94  
9335 72  
9336 86  
9337 62  
9338 52  
9339 55  
9340 88  
9341 54  
9342 80  
9343 59  
9344 83  
9345 63  
9346 85  
9347 54  
9348 82  
9349 59  
9350 69  
9351 89  
9352 75  
9353 87  
9354 83  
9355 73  
9356 86  
9357 93  
9358 68  
9359 98  
9360 86  
9361 60  
9362 70  
9363 75  
9364 84  
9365 55  
9366 76  
9367 78  
9368 94  
9369 73  
9370 86  
9371 51  
9372 77  
9373 75  
9374 96  
9375 60  
9376 81  
9377 67  
9378 90  
9379 81  
9380 99  
9381 85  
9382 94  
9383 96  
9384 83  
9385 77  
9386 56  
9387 91  
9388 66  
9389 84  
9390 79  
9391 51  
9392 67  
9393 87  
9394 73  
9395 81  
9396 57  
9397 65  
9398 89  
9399 61  
9400 82  
9401 65  
9402 93  
9403 95  
9404 100 
9405 89  
9406 57  
9407 94  
9408 66  
9409 76  
9410 89  
9411 89  
9412 75  
9413 58  
9414 60  
9415 100 
9416 52  
9417 56  
9418 100 
9419 75  
9420 90  
9421 58  
9422 61  
9423 63  
9424 74  
9425 73  
9426 56  
9427 100 
9428 64  
9429 53  
9430 81  
9431 59  
9432 93  
9433 75  
9434 96  
9435 68  
9436 52  
9437 51  
9438 83  
9439 57  
9440 66  
9441 96  
9442 56  
9443 57  
9444 90  
9445 88  
9446 58  
9447 99  
9448 79  
9449 86  
9450 50  
9451 88  
9452 99  
9453 90  
9454 94  
9455 73  
9456 68  
9457 64  
9458 63  
9459 94  
9460 57  
9461 54  
9462 86  
9463 62  
9464 96  
9465 58  
9466 60  
9467 83  
9468 98  
9469 92  
9470 98  
9471 78  
9472 80  
9473 84  
9474 73  
9475 67  
9476 56  
9477 61  
9478 87  
9479 56  
9480 90  
9481 56  
9482 61  
9483 69  
9484 72  
9485 88  
9486 57  
9487 63  
9488 75  
9489 61  
9490 90  
9491 62  
9492 79  
9493 75  
9494 56  
9495 80  
9496 92  
9497 83  
9498 70  
9499 55  
9500 74  
9501 69  
9502 99  
9503 76  
9504 64  
9505 92  
9506 74  
9507 66  
9508 67  
9509 80  
9510 61  
9511 66  
9512 52  
9513 98  
9514 59  
9515 72  
9516 77  
9517 79  
9518 89  
9519 77  
9520 96  
9521 87  
9522 78  
9523 60  
9524 100 
9525 60  
9526 54  
9527 88  
9528 82  
9529 55  
9530 54  
9531 51  
9532 69  
9533 90  
9534 82  
9535 100 
9536 53  
9537 62  
9538 71  
9539 86  
9540 87  
9541 94  
9542 87  
9543 94  
9544 87  
9545 59  
9546 88  
9547 52  
9548 63  
9549 60  
9550 91  
9551 51  
9552 91  
9553 67  
9554 85  
9555 50  
9556 61  
9557 83  
9558 57  
9559 53  
9560 61  
9561 78  
9562 97  
9563 68  
9564 100 
9565 85  
9566 99  
9567 58  
9568 84  
9569 58  
9570 85  
9571 94  
9572 83  
9573 100 
9574 58  
9575 88  
9576 70  
9577 68  
9578 64  
9579 63  
9580 93  
9581 98  
9582 93  
9583 60  
9584 84  
9585 54  
9586 74  
9587 69  
9588 51  
9589 89  
9590 55  
9591 88  
9592 81  
9593 90  
9594 57  
9595 96  
9596 53  
9597 91  
9598 72  
9599 85  
9600 84  
9601 96  
9602 68  
9603 91  
9604 78  
9605 70  
9606 94  
9607 95  
9608 64  
9609 99  
9610 85  
9611 59  
9612 98  
9613 85  
9614 55  
9615 70  
9616 68  
9617 82  
9618 61  
9619 99  
9620 59  
9621 64  
9622 64  
9623 84  
9624 55  
9625 86  
9626 66  
9627 72  
9628 78  
9629 93  
9630 52  
9631 85  
9632 99  
9633 60  
9634 88  
9635 71  
9636 79  
9637 66  
9638 62  
9639 57  
9640 66  
9641 54  
9642 68  
9643 74  
9644 51  
9645 63  
9646 87  
9647 96  
9648 89  
9649 55  
9650 87  
9651 70  
9652 79  
9653 53  
9654 69  
9655 83  
9656 90  
9657 51  
9658 99  
9659 51  
9660 67  
9661 52  
9662 55  
9663 64  
9664 67  
9665 93  
9666 52  
9667 75  
9668 73  
9669 79  
9670 54  
9671 92  
9672 60  
9673 92  
9674 78  
9675 66  
9676 67  
9677 74  
9678 57  
9679 73  
9680 59  
9681 53  
9682 61  
9683 76  
9684 77  
9685 73  
9686 85  
9687 92  
9688 57  
9689 58  
9690 72  
9691 78  
9692 53  
9693 54  
9694 61  
9695 62  
9696 88  
9697 69  
9698 81  
9699 53  
9700 89  
9701 57  
9702 60  
9703 70  
9704 72  
9705 52  
9706 50  
9707 87  
9708 94  
9709 84  
9710 91  
9711 95  
9712 55  
9713 71  
9714 57  
9715 61  
9716 71  
9717 93  
9718 81  
9719 87  
9720 100 
9721 59  
9722 59  
9723 86  
9724 80  
9725 81  
9726 51  
9727 72  
9728 92  
9729 93  
9730 69  
9731 62  
9732 58  
9733 84  
9734 94  
9735 66  
9736 77  
9737 90  
9738 51  
9739 100 
9740 97  
9741 64  
9742 100 
9743 80  
9744 96  
9745 50  
9746 76  
9747 59  
9748 81  
9749 92  
9750 64  
9751 64  
9752 74  
9753 60  
9754 73  
9755 66  
9756 71  
9757 71  
9758 74  
9759 69  
9760 66  
9761 58  
9762 77  
9763 95  
9764 64  
9765 51  
9766 57  
9767 93  
9768 73  
9769 55  
9770 81  
9771 83  
9772 67  
9773 95  
9774 87  
9775 90  
9776 89  
9777 88  
9778 99  
9779 73  
9780 53  
9781 66  
9782 67  
9783 68  
9784 51  
9785 96  
9786 81  
9787 53  
9788 79  
9789 81  
9790 67  
9791 89  
9792 98  
9793 89  
9794 81  
9795 81  
9796 91  
9797 71  
9798 88  
9799 63  
9800 69  
9801 61  
9802 72  
9803 95  
9804 54  
9805 88  
9806 54  
9807 74  
9808 55  
9809 67  
9810 91  
9811 74  
9812 54  
9813 57  
9814 88  
9815 69  
9816 69  
9817 86  
9818 71  
9819 90  
9820 83  
9821 80  
9822 51  
9823 80  
9824 87  
9825 52  
9826 57  
9827 50  
9828 88  
9829 98  
9830 64  
9831 58  
9832 61  
9833 73  
9834 73  
9835 96  
9836 99  
9837 58  
9838 83  
9839 94  
9840 51  
9841 78  
9842 63  
9843 59  
9844 66  
9845 95  
9846 58  
9847 87  
9848 67  
9849 97  
9850 75  
9851 78  
9852 61  
9853 70  
9854 59  
9855 75  
9856 84  
9857 80  
9858 100 
9859 66  
9860 86  
9861 71  
9862 59  
9863 80  
9864 73  
9865 98  
9866 79  
9867 52  
9868 59  
9869 59  
9870 60  
9871 69  
9872 82  
9873 63  
9874 91  
9875 61  
9876 52  
9877 56  
9878 66  
9879 69  
9880 87  
9881 65  
9882 99  
9883 63  
9884 55  
9885 91  
9886 76  
9887 59  
9888 100 
9889 71  
9890 64  
9891 60  
9892 74  
9893 67  
9894 58  
9895 69  
9896 55  
9897 80  
9898 59  
9899 73  
9900 69  
9901 94  
9902 55  
9903 86  
9904 97  
9905 100 
9906 91  
9907 64  
9908 83  
9909 73  
9910 90  
9911 100 
9912 82  
9913 67  
9914 78  
9915 95  
9916 58  
9917 72  
9918 83  
9919 59  
9920 97  
9921 67  
9922 99  
9923 64  
9924 85  
9925 95  
9926 77  
9927 51  
9928 50  
9929 50  
9930 99  
9931 75  
9932 61  
9933 96  
9934 64  
9935 50  
9936 100 
9937 92  
9938 71  
9939 84  
9940 63  
9941 63  
9942 82  
9943 69  
9944 62  
9945 88  
9946 69  
9947 62  
9948 56  
9949 55  
9950 53  
9951 88  
9952 75  
9953 56  
9954 70  
9955 90  
9956 67  
9957 61  
9958 53  
9959 69  
9960 71  
9961 71  
9962 100 
9963 68  
9964 84  
9965 72  
9966 82  
9967 99  
9968 65  
9969 57  
9970 82  
9971 93  
9972 70  
9973 83  
9974 96  
9975 97  
9976 66  
9977 50  
9978 51  
9979 86  
9980 50  
9981 53  
9982 85  
9983 85  
9984 54  
9985 85  
9986 99  
9987 73  
9988 93  
9989 89  
9990 79  
9991 85  
9992 91  
9993 98  
9994 70  
9995 94  
9996 56  
9997 75  
9998 61  
9999 83  
10000 54  
10001 77  
DEPOT_SECTION
1
-1
EOF
