NAME : XML10000_2143_01
COMMENT : Generated as the XML100 dataset from the CVRPLIB
TYPE : CVRP
DIMENSION : 10001
EDGE_WEIGHT_TYPE : EUC_2D
CAPACITY : 406
NODE_COORD_SECTION
1    5000 5000
2    2375 8590
3    7093 6671
4    8535 6780
5    2846 9513
6    6520 5968
7    6403 7262
8    820  2109
9    4993 1701
10   8443 8169
11   7195 2748
12   4990 9773
13   7401 1723
14   4977 2375
15   3737 3125
16   9055 6848
17   8724 8174
18   8997 7330
19   6407 8648
20   6099 5055
21   3273 9824
22   3125 8565
23   2792 1250
24   5396 6078
25   1385 5084
26   8711 5465
27   9664 3088
28   5342 2122
29   1530 711 
30   9417 1912
31   8661 1838
32   5913 4989
33   7627 8837
34   3472 2788
35   2724 8018
36   5601 8048
37   833  8667
38   9544 9226
39   3338 6389
40   8225 147 
41   4873 9547
42   2259 9537
43   8647 4040
44   6542 2045
45   9150 7532
46   224  6774
47   7527 4032
48   4778 2375
49   847  9055
50   6878 840 
51   8441 7673
52   1094 761 
53   2439 6544
54   8321 9889
55   3436 3510
56   5964 2838
57   9182 2657
58   7843 6978
59   3229 6303
60   8326 4341
61   5000 7519
62   165  3040
63   7548 5179
64   6605 3626
65   794  5103
66   4223 8051
67   2622 3316
68   4652 9061
69   3392 998 
70   8778 7732
71   6343 2783
72   184  8908
73   5656 8545
74   539  9468
75   9054 5176
76   1438 1243
77   3649 7034
78   9261 9081
79   8862 6184
80   7031 2563
81   6716 5569
82   2517 3888
83   2331 4616
84   8442 6288
85   482  4869
86   1874 1684
87   7764 667 
88   8820 8024
89   810  5926
90   9634 5899
91   302  4187
92   6584 1027
93   473  3547
94   5747 1612
95   5497 2849
96   4252 4762
97   6171 841 
98   9479 6018
99   8114 5453
100  3627 7153
101  9393 8700
102  7005 9651
103  146  5893
104  3292 9500
105  1906 8388
106  4370 4017
107  1785 7610
108  8028 7234
109  1637 9434
110  2286 4023
111  4642 7408
112  8381 4455
113  3019 8158
114  208  6080
115  662  7591
116  4946 7410
117  591  3091
118  45   3683
119  5645 9870
120  4051 6085
121  6007 9824
122  4090 9743
123  4461 9528
124  1995 9886
125  1145 4184
126  222  2859
127  9010 6162
128  6569 5280
129  2342 5055
130  6421 1544
131  192  2769
132  9640 787 
133  3479 6956
134  2795 8358
135  1343 7718
136  4869 1381
137  7889 2580
138  2472 3732
139  7112 2292
140  5868 1694
141  5516 6411
142  7054 6382
143  3958 8486
144  3874 8689
145  7993 5354
146  5946 1240
147  8583 7150
148  1457 7401
149  6925 2371
150  7125 5407
151  3702 6504
152  4904 9095
153  1446 5959
154  4587 9186
155  2509 1959
156  9174 3125
157  4041 3041
158  3538 1378
159  577  8881
160  7252 395 
161  4894 5238
162  1878 4423
163  4708 6773
164  4970 9879
165  7033 2928
166  874  3761
167  4543 7593
168  5291 2622
169  3534 8836
170  617  3496
171  8334 8178
172  6880 9132
173  5457 8098
174  3741 5665
175  2919 7664
176  3846 1368
177  2138 5804
178  4342 725 
179  811  9502
180  626  5720
181  1148 4021
182  7768 5187
183  8312 7265
184  7726 8119
185  5375 6891
186  8494 6482
187  2550 7054
188  6944 9990
189  586  9240
190  9127 6335
191  1728 9513
192  5193 8805
193  6511 6864
194  8609 4673
195  5046 8149
196  1204 461 
197  7952 2783
198  7898 7071
199  9351 5541
200  3954 8838
201  5308 1998
202  4732 5652
203  4388 3765
204  3928 7734
205  8337 8176
206  2544 7630
207  2265 5859
208  7610 7581
209  9186 5982
210  8060 4674
211  9348 3960
212  3291 7400
213  2118 7083
214  2564 4581
215  8541 6687
216  5897 9353
217  7972 2042
218  9147 5802
219  8465 118 
220  6949 9500
221  9722 262 
222  1898 1027
223  4631 9234
224  6759 3220
225  53   7546
226  5897 4335
227  9447 7609
228  9921 4581
229  4101 9242
230  2957 5108
231  5404 8076
232  7126 9951
233  7812 5052
234  5285 7856
235  6648 8379
236  8707 9461
237  4295 7123
238  8437 6916
239  2716 2612
240  4213 4138
241  6861 8391
242  813  3371
243  3008 9441
244  5130 5151
245  7484 9419
246  288  3886
247  465  2753
248  5484 7571
249  9005 2205
250  5431 1900
251  1935 1263
252  1834 1218
253  7740 9579
254  7352 3749
255  7990 3056
256  8066 5888
257  8256 2443
258  7802 7144
259  5252 4099
260  1837 2314
261  8153 1578
262  4566 6905
263  2778 1557
264  6152 8333
265  6910 6229
266  8799 1107
267  6570 5613
268  8121 7576
269  6759 6779
270  6546 1178
271  6431 1   
272  2455 8403
273  4477 8616
274  6205 9619
275  4248 815 
276  4141 7600
277  9602 4953
278  4670 5310
279  7160 426 
280  262  4169
281  2340 6153
282  5121 8886
283  1813 4352
284  8457 4061
285  4455 438 
286  7922 7532
287  4769 9751
288  4866 8919
289  6005 3147
290  9268 3077
291  118  3644
292  8646 2725
293  8467 2546
294  1153 3308
295  2768 2180
296  6535 9197
297  5334 5892
298  5922 4588
299  386  7256
300  7439 2067
301  3696 7667
302  3190 8981
303  9007 8771
304  4316 28  
305  1670 1141
306  3237 2579
307  7927 4265
308  8653 2578
309  1911 751 
310  8324 3574
311  6379 3416
312  6257 5157
313  4930 7603
314  8223 1384
315  6629 784 
316  4028 4157
317  982  4433
318  4594 444 
319  2844 2285
320  1192 7942
321  5414 7079
322  5405 9416
323  799  2355
324  566  7770
325  1222 4490
326  6026 8018
327  2944 6603
328  8919 6165
329  7933 611 
330  1657 6536
331  3262 82  
332  9058 3482
333  4521 5312
334  6180 9350
335  9368 4327
336  2956 7968
337  7824 1348
338  8277 8865
339  6912 4878
340  3083 9313
341  6608 1105
342  9371 9236
343  6543 825 
344  4795 752 
345  4477 2529
346  2526 8996
347  7624 5584
348  1161 2918
349  8664 4415
350  8087 5316
351  470  438 
352  182  8987
353  5714 1924
354  1187 7806
355  7143 4729
356  1436 9686
357  7436 8753
358  5433 5332
359  4016 7245
360  3751 9338
361  6786 7346
362  1235 8016
363  2279 2267
364  1027 1399
365  8472 9186
366  5632 4778
367  1886 3769
368  4371 3764
369  7143 7700
370  5841 1833
371  1386 6308
372  2836 5493
373  9812 4639
374  2946 2772
375  5560 5123
376  3032 5932
377  5374 8926
378  8168 6449
379  8274 2669
380  7120 5246
381  1104 2115
382  6526 8503
383  4787 2094
384  8010 3282
385  8838 5142
386  4281 5973
387  8298 8182
388  8597 1880
389  8079 5553
390  4721 7570
391  4422 7411
392  3034 3607
393  9647 4053
394  3229 426 
395  9051 6477
396  4224 7787
397  8595 7744
398  1961 9766
399  2108 819 
400  2528 5902
401  5493 8988
402  2072 5136
403  4512 5004
404  2129 2005
405  297  805 
406  4064 8264
407  5978 856 
408  4525 9879
409  1571 2198
410  3129 57  
411  9151 9210
412  9639 5892
413  675  8850
414  4817 8515
415  8061 8327
416  5889 6455
417  443  3250
418  4692 7487
419  4314 1873
420  8885 843 
421  9808 6482
422  1406 7457
423  5646 8108
424  1686 4850
425  1790 5229
426  4211 8606
427  1467 1537
428  9091 3990
429  3989 9757
430  2805 6141
431  3218 6692
432  7259 1808
433  2104 8494
434  9711 806 
435  1844 2248
436  8578 3138
437  3456 6270
438  2472 2107
439  1807 6579
440  9540 9533
441  9358 9564
442  404  4663
443  3436 5268
444  8942 8991
445  4855 9669
446  1620 3819
447  4569 7244
448  8094 9930
449  976  7509
450  6103 9690
451  3501 6568
452  6698 1794
453  3517 4945
454  3888 4683
455  1599 3403
456  8878 2515
457  6604 5305
458  7991 6562
459  5965 3867
460  7112 8479
461  4650 8085
462  6524 2708
463  6283 4564
464  7371 4974
465  6921 946 
466  2969 5429
467  2124 2378
468  1850 9139
469  651  4944
470  2293 3225
471  3392 4372
472  9234 1637
473  4122 1884
474  150  4691
475  3533 9431
476  2206 4623
477  2605 355 
478  1373 2070
479  7436 3716
480  234  8564
481  7833 9295
482  5855 3491
483  203  4076
484  5121 2868
485  4634 8500
486  6317 1241
487  4960 6040
488  1937 7413
489  9800 595 
490  4737 488 
491  9740 5067
492  2688 383 
493  6163 5376
494  4536 5247
495  5400 9254
496  6044 4060
497  8956 4092
498  3841 3311
499  9335 8437
500  8349 7970
501  3277 1545
502  9875 1857
503  6810 2828
504  3482 2775
505  2297 357 
506  4798 2216
507  3724 2803
508  3561 7703
509  8983 6069
510  3633 630 
511  272  2451
512  264  3191
513  4986 535 
514  8142 1508
515  5223 6098
516  3980 4223
517  475  7390
518  6241 3068
519  6092 4400
520  7786 4790
521  5907 1716
522  4910 1256
523  1075 2763
524  7097 1067
525  5985 6297
526  7560 6572
527  7904 2484
528  6187 3167
529  7278 1113
530  3892 7938
531  2565 8626
532  4147 5873
533  6904 6127
534  7553 8207
535  7175 7466
536  8912 5684
537  5734 9521
538  195  5664
539  85   157 
540  1800 8989
541  9160 6162
542  9850 2317
543  3835 3849
544  5387 4019
545  8440 9289
546  4243 2844
547  5776 7402
548  6649 895 
549  1342 116 
550  3077 4204
551  3995 9061
552  6741 9931
553  4927 5855
554  3000 2398
555  6612 7551
556  1997 3282
557  7488 6345
558  1359 6629
559  2027 4243
560  6633 2401
561  6511 8697
562  1068 4429
563  6828 9575
564  7416 1303
565  1019 3773
566  1354 6878
567  8619 4164
568  1351 4762
569  7184 3196
570  2125 5275
571  7332 5716
572  4636 4339
573  2151 8788
574  6390 8759
575  3079 769 
576  7599 5150
577  7944 8234
578  7598 8559
579  4695 9607
580  1459 7871
581  199  3502
582  4347 7829
583  4753 4864
584  998  4074
585  4929 8433
586  845  8934
587  1548 946 
588  5468 6720
589  5238 1099
590  8496 216 
591  8881 2606
592  9958 9316
593  9115 2381
594  1028 8153
595  3790 4288
596  9489 4972
597  7832 9324
598  8876 330 
599  7057 2139
600  5296 3628
601  1942 2708
602  8544 5225
603  4003 2695
604  1802 150 
605  8249 5424
606  4158 5071
607  9797 5585
608  2909 9535
609  185  2158
610  3727 2120
611  5182 9733
612  5580 1898
613  7466 4957
614  8199 2070
615  1508 2749
616  8259 4719
617  9775 534 
618  7960 2940
619  2962 8612
620  4645 6093
621  4322 247 
622  2500 7320
623  8305 2618
624  9345 5949
625  336  6631
626  6922 130 
627  6982 7022
628  2355 5756
629  414  6787
630  9852 3773
631  6338 5557
632  2597 9837
633  8546 5558
634  2437 2171
635  201  2675
636  6002 9377
637  8263 3394
638  7109 5386
639  8043 644 
640  718  4174
641  1499 8959
642  813  3914
643  2984 7429
644  8826 4953
645  2613 7759
646  3674 3467
647  1451 4953
648  6863 3537
649  7138 3280
650  2160 9094
651  8696 5512
652  6755 5548
653  580  3114
654  1734 252 
655  8591 3811
656  8795 3245
657  152  4856
658  667  3243
659  2146 1977
660  5640 1478
661  6134 7777
662  1034 3030
663  138  6716
664  6006 1571
665  9002 5476
666  2418 8312
667  4015 8867
668  2039 2484
669  2583 2464
670  6034 7721
671  4539 7906
672  6379 2727
673  4523 7682
674  2365 8481
675  2008 9475
676  1234 2867
677  4140 3037
678  3209 1619
679  2903 3000
680  897  7809
681  7243 7084
682  3464 8132
683  5126 5138
684  6116 5436
685  1130 6694
686  422  7519
687  1848 1082
688  9354 4345
689  4856 1071
690  3165 3254
691  5820 4835
692  8980 6176
693  3306 9757
694  1277 9050
695  7272 9348
696  4540 6181
697  1432 5396
698  1786 7637
699  191  5810
700  1493 6460
701  2966 4048
702  964  697 
703  5749 1165
704  9315 3653
705  5394 7318
706  5472 6362
707  3848 8876
708  3858 8423
709  5770 1985
710  6693 4800
711  7981 7539
712  2641 9039
713  8747 2443
714  6904 9244
715  4141 6170
716  5374 1980
717  1623 3630
718  7325 5623
719  7311 7016
720  8555 7066
721  1237 427 
722  3554 1425
723  5010 2273
724  485  6922
725  2253 2734
726  6505 2261
727  9205 1601
728  6388 7167
729  6235 7373
730  6846 9291
731  5763 8944
732  4941 6560
733  1351 3957
734  6220 5358
735  8321 7769
736  5387 8031
737  1311 4622
738  4982 6607
739  2051 2814
740  6504 6865
741  2804 6981
742  5587 32  
743  9497 1379
744  7867 2176
745  9035 3024
746  6901 698 
747  965  2480
748  6024 4287
749  9037 8710
750  1362 368 
751  2177 7077
752  9306 7665
753  4208 1236
754  6952 7707
755  608  9397
756  4609 2902
757  6520 4742
758  1421 7321
759  8921 2771
760  1016 9946
761  5426 6951
762  303  1259
763  7445 901 
764  5473 5863
765  292  632 
766  8701 4752
767  2597 835 
768  7467 8166
769  7982 6987
770  2019 5976
771  4796 5707
772  5084 4331
773  8934 5419
774  8820 258 
775  85   580 
776  7646 4816
777  6338 1036
778  6816 6248
779  5727 9564
780  2551 7428
781  7260 2718
782  6130 6104
783  7714 1519
784  8803 3247
785  3248 2022
786  261  9578
787  5991 5857
788  7133 7582
789  6870 3820
790  8241 1706
791  8300 4288
792  1422 9427
793  3697 4866
794  6117 4719
795  2553 5870
796  3888 6714
797  82   8926
798  5203 9569
799  8998 4175
800  7154 6122
801  7550 8908
802  7083 4773
803  834  9834
804  8404 3100
805  7701 8197
806  6092 2493
807  7379 7403
808  1510 8816
809  8588 3618
810  8095 454 
811  9389 7224
812  6373 43  
813  7114 3155
814  1141 3369
815  2544 4251
816  248  568 
817  1260 8606
818  8977 1594
819  6792 3963
820  9231 7725
821  9606 5286
822  3690 6221
823  6063 446 
824  9322 3471
825  9281 8264
826  4969 3966
827  1658 3723
828  2615 7535
829  1506 5551
830  57   9899
831  8043 4260
832  6774 8367
833  8302 7142
834  7625 7184
835  3762 700 
836  8293 6524
837  2089 3475
838  5213 9028
839  2584 3370
840  8534 3253
841  2699 6547
842  9855 885 
843  5157 7550
844  3571 156 
845  673  6103
846  1496 7204
847  109  4358
848  7859 9913
849  3145 5732
850  9237 849 
851  6446 7031
852  2615 4103
853  6653 8592
854  5181 8338
855  4478 2484
856  7329 6286
857  8834 8340
858  7913 1392
859  166  1058
860  766  8946
861  3524 4071
862  9773 2765
863  7740 3435
864  2691 510 
865  7107 8693
866  426  3797
867  7156 5606
868  4857 5743
869  2008 7946
870  967  2914
871  5831 7354
872  4596 1368
873  1033 3976
874  1964 2729
875  9359 6298
876  3271 9   
877  6351 2275
878  1679 4515
879  3997 671 
880  920  8420
881  1480 1757
882  9603 5510
883  1570 7522
884  7398 3119
885  2018 7569
886  8966 3950
887  8880 5324
888  9544 7203
889  6368 7381
890  5510 1350
891  7016 8693
892  9812 8394
893  5321 1309
894  4697 27  
895  7246 3738
896  555  2296
897  64   8286
898  3076 1666
899  7088 3896
900  862  4839
901  4367 1605
902  8578 4881
903  6089 8539
904  2995 6909
905  6244 2097
906  6918 4920
907  675  7856
908  5651 9623
909  1775 9297
910  8003 1359
911  3693 4673
912  964  1062
913  9148 2941
914  6856 2986
915  5171 4741
916  3487 9809
917  8964 5431
918  4296 1469
919  5930 5473
920  157  3363
921  1907 8950
922  6947 622 
923  3278 7965
924  9583 5851
925  3568 1125
926  9933 3053
927  9324 961 
928  8492 1248
929  2365 2502
930  2515 7706
931  7004 7830
932  1992 3337
933  4778 6094
934  4801 8019
935  105  7377
936  6477 8105
937  761  6775
938  5448 4857
939  3259 3607
940  975  5627
941  8034 1682
942  2163 2032
943  8223 7219
944  6769 32  
945  8266 2342
946  8873 3926
947  9671 5479
948  5717 2923
949  5267 8555
950  4435 3755
951  9359 567 
952  1396 6466
953  5334 7088
954  8857 3911
955  2489 4526
956  5136 5236
957  7493 577 
958  2306 1712
959  2903 6494
960  6614 4913
961  9400 666 
962  2618 9116
963  3370 172 
964  5253 5935
965  6535 6026
966  5688 2860
967  4356 9789
968  1690 8597
969  1537 3864
970  938  3051
971  4781 6787
972  8174 6526
973  7771 6457
974  9719 936 
975  6719 1519
976  8933 4032
977  4066 8733
978  9921 5475
979  238  7679
980  3710 6581
981  5927 5626
982  1466 7808
983  3876 2543
984  9836 978 
985  3356 5211
986  9333 7468
987  580  1413
988  9869 5285
989  8078 5901
990  1867 7841
991  4814 8026
992  6491 9860
993  3101 5102
994  1517 2761
995  7547 802 
996  7580 8716
997  6191 9423
998  8680 271 
999  8502 8032
1000 1452 5384
1001 8787 4050
1002 1441 4440
1003 8386 1685
1004 5946 8009
1005 3405 8219
1006 2122 9170
1007 4415 6587
1008 260  3129
1009 8636 4942
1010 5103 4841
1011 6106 2224
1012 1770 1910
1013 776  7695
1014 4334 1821
1015 6224 8625
1016 7534 6186
1017 5171 8102
1018 3927 1596
1019 5325 2681
1020 6610 7077
1021 1566 9667
1022 7277 4635
1023 4680 6750
1024 9692 3073
1025 6900 2310
1026 9642 2370
1027 8300 4949
1028 2921 877 
1029 3895 6076
1030 9577 9757
1031 2991 7431
1032 2219 7609
1033 9074 7966
1034 4397 844 
1035 2816 1753
1036 9507 714 
1037 6234 4861
1038 812  2513
1039 811  9999
1040 1639 5949
1041 3688 2234
1042 7671 5727
1043 7953 7068
1044 1508 3717
1045 3847 4923
1046 2538 975 
1047 7314 9   
1048 6288 8942
1049 794  9683
1050 2365 122 
1051 6002 1802
1052 2810 5690
1053 6720 3342
1054 4621 1476
1055 3124 2804
1056 9359 4192
1057 2835 5634
1058 1429 3588
1059 1846 263 
1060 9562 9566
1061 2962 7895
1062 5577 1371
1063 3298 6131
1064 2274 8190
1065 6729 6582
1066 6167 8143
1067 805  4289
1068 8225 7096
1069 3997 583 
1070 7527 7212
1071 8299 4127
1072 9426 7847
1073 431  9116
1074 239  7110
1075 8537 9184
1076 2337 5929
1077 9408 8361
1078 7502 713 
1079 7511 5656
1080 2656 2108
1081 1517 7951
1082 351  9616
1083 5658 2044
1084 5577 9770
1085 1722 2024
1086 4960 8656
1087 388  6764
1088 7551 7097
1089 9918 8452
1090 8590 1597
1091 3806 1638
1092 4899 8367
1093 8927 465 
1094 9562 144 
1095 5467 3322
1096 1254 8872
1097 6949 8944
1098 5507 8906
1099 3448 5424
1100 7366 3104
1101 9176 3962
1102 8022 1168
1103 3661 532 
1104 4080 6348
1105 1530 5237
1106 4799 5902
1107 5945 2540
1108 977  2384
1109 5213 8848
1110 8635 765 
1111 780  9474
1112 8637 8348
1113 5622 3927
1114 5477 624 
1115 7805 4671
1116 462  5240
1117 1960 8191
1118 4086 6821
1119 4285 5750
1120 243  9624
1121 2787 3465
1122 5157 7611
1123 9111 7212
1124 7568 9454
1125 6589 388 
1126 71   7357
1127 9311 8949
1128 9102 1954
1129 7081 52  
1130 5328 8388
1131 2329 6495
1132 8828 3356
1133 1813 407 
1134 9981 6069
1135 4500 8432
1136 4329 5229
1137 4927 8715
1138 6854 1638
1139 2187 2319
1140 6124 2569
1141 7252 1580
1142 833  4058
1143 351  2149
1144 8938 7257
1145 665  7809
1146 520  4252
1147 2816 4380
1148 5983 8683
1149 1578 5032
1150 6917 2631
1151 4518 9919
1152 287  8879
1153 5719 7598
1154 8987 7813
1155 871  3560
1156 4443 2621
1157 5909 3439
1158 6174 1583
1159 5687 2321
1160 8149 7521
1161 3936 8595
1162 7176 6592
1163 1171 229 
1164 6398 2736
1165 1058 2141
1166 9654 9017
1167 9858 4479
1168 9462 8940
1169 9396 5794
1170 4768 2066
1171 2844 4513
1172 4121 1684
1173 6397 2009
1174 5347 5722
1175 4035 9585
1176 5159 2871
1177 1306 5845
1178 5423 3510
1179 184  7056
1180 4725 1719
1181 2823 8914
1182 116  2507
1183 6860 9029
1184 7952 4823
1185 3886 5697
1186 4076 9412
1187 7023 7143
1188 2842 5681
1189 9082 273 
1190 9412 6453
1191 6610 1045
1192 1751 3058
1193 9605 105 
1194 7594 9322
1195 1462 3003
1196 6505 4642
1197 3751 1254
1198 8049 2347
1199 3209 6923
1200 77   5014
1201 1523 6440
1202 3961 555 
1203 180  5826
1204 6067 4913
1205 1072 9757
1206 1177 3110
1207 4072 8039
1208 6115 4125
1209 3097 8209
1210 3315 9030
1211 3069 4223
1212 561  7458
1213 7662 2171
1214 9671 5395
1215 3748 6348
1216 9556 7644
1217 2217 5745
1218 9988 4022
1219 9251 3069
1220 8446 4639
1221 2052 5814
1222 2337 2379
1223 6098 5367
1224 4093 3825
1225 631  1822
1226 8240 4945
1227 6179 5654
1228 174  1989
1229 3213 6616
1230 4177 3964
1231 3825 5440
1232 8142 6823
1233 5302 1742
1234 1500 4673
1235 5160 8594
1236 8463 7675
1237 6    3945
1238 7545 5617
1239 2873 4127
1240 7191 1590
1241 8330 9049
1242 7975 7486
1243 3343 3111
1244 4876 9963
1245 8391 1169
1246 6795 2246
1247 1012 6320
1248 7654 659 
1249 5991 640 
1250 3410 684 
1251 4903 4603
1252 4425 5640
1253 1077 6723
1254 5926 5716
1255 1051 4305
1256 5981 5015
1257 7535 6409
1258 8301 7689
1259 9332 1755
1260 6142 4762
1261 6518 3735
1262 9668 8646
1263 111  5623
1264 9419 3461
1265 4557 1177
1266 7323 4882
1267 4553 3989
1268 5503 5936
1269 9252 4880
1270 1454 1825
1271 6353 5091
1272 9780 8069
1273 9918 824 
1274 6320 199 
1275 2846 4909
1276 4996 6304
1277 325  7497
1278 1985 8216
1279 4570 4312
1280 8772 7017
1281 5107 5107
1282 4242 7139
1283 8400 4   
1284 3887 8081
1285 6345 3872
1286 5587 558 
1287 4450 1569
1288 1661 2041
1289 7376 1939
1290 6441 1510
1291 8422 1232
1292 7214 9846
1293 8409 5459
1294 9211 9485
1295 4065 9970
1296 3696 5167
1297 7331 8893
1298 5637 4028
1299 9076 1968
1300 2433 3938
1301 406  3   
1302 147  1937
1303 3617 1073
1304 2434 9537
1305 4092 4864
1306 5495 8518
1307 9184 9399
1308 8034 8698
1309 6673 9957
1310 6940 2288
1311 9434 2172
1312 5545 2919
1313 9406 6689
1314 9707 5329
1315 9973 7610
1316 2974 1283
1317 999  7547
1318 716  3719
1319 7611 9561
1320 7962 6563
1321 9372 8072
1322 7937 8275
1323 8952 4909
1324 2271 121 
1325 6812 4653
1326 6784 990 
1327 4187 7548
1328 4576 1152
1329 1256 4098
1330 9325 2072
1331 8263 8364
1332 348  2069
1333 2109 7864
1334 6860 5271
1335 940  1640
1336 7203 5858
1337 8003 8428
1338 1728 391 
1339 4614 7732
1340 5869 2834
1341 10000 3665
1342 4208 5233
1343 1776 6463
1344 3630 5854
1345 2247 5691
1346 6011 2226
1347 7894 8433
1348 9899 3593
1349 8218 6460
1350 7510 7047
1351 6022 7601
1352 8759 3911
1353 6575 8706
1354 3587 8414
1355 8370 9801
1356 1757 4111
1357 597  6707
1358 8331 6704
1359 1661 7336
1360 3760 9993
1361 3979 1302
1362 4141 1403
1363 8355 3071
1364 3779 4412
1365 4060 7278
1366 619  9678
1367 1074 4139
1368 3501 3031
1369 9598 9902
1370 3686 416 
1371 5323 5949
1372 1537 4325
1373 484  9599
1374 1522 8355
1375 5263 633 
1376 1823 868 
1377 1779 4135
1378 2030 9357
1379 5504 4171
1380 7190 7570
1381 9751 7835
1382 4764 5804
1383 6406 4346
1384 8635 8064
1385 563  8530
1386 1332 588 
1387 8115 3123
1388 4576 9999
1389 412  875 
1390 9189 7032
1391 1019 3528
1392 5799 5558
1393 8887 1170
1394 9754 4955
1395 6777 9252
1396 3933 7038
1397 7262 3230
1398 3665 7127
1399 7357 5787
1400 4236 5909
1401 216  1321
1402 6931 957 
1403 6401 5839
1404 5205 1279
1405 6027 1953
1406 3879 3813
1407 9280 255 
1408 4576 6852
1409 6097 6672
1410 2508 8410
1411 6304 1614
1412 530  7621
1413 1275 6596
1414 5274 683 
1415 5791 130 
1416 7035 7647
1417 2076 8229
1418 8926 4698
1419 2125 5667
1420 4546 2625
1421 3243 6358
1422 7626 2389
1423 5608 1755
1424 2461 3941
1425 764  2822
1426 4748 3392
1427 5793 68  
1428 7634 6879
1429 6205 1146
1430 1338 3123
1431 5761 7491
1432 7558 2443
1433 6147 725 
1434 1286 7234
1435 1079 6892
1436 6340 9887
1437 8997 4297
1438 6790 2568
1439 2367 379 
1440 9140 9970
1441 3908 6178
1442 9735 136 
1443 6219 2445
1444 8487 3412
1445 4535 2897
1446 1290 6314
1447 5173 5723
1448 7313 6659
1449 3234 9123
1450 9540 5708
1451 9943 2010
1452 6410 4890
1453 1489 6674
1454 9618 9440
1455 3871 7900
1456 7292 5361
1457 2930 7779
1458 2327 3519
1459 4826 3329
1460 605  4905
1461 6003 1041
1462 3928 4805
1463 683  4416
1464 3650 855 
1465 7262 752 
1466 6157 925 
1467 9089 4159
1468 8687 6476
1469 2300 9151
1470 5979 1209
1471 1147 1164
1472 8786 2846
1473 7340 1480
1474 7997 2833
1475 7092 2170
1476 8936 7736
1477 2000 1411
1478 2368 5784
1479 4560 8887
1480 3406 7974
1481 3334 8293
1482 9056 315 
1483 3267 729 
1484 4018 678 
1485 5546 8995
1486 4723 8414
1487 2264 9748
1488 9690 3189
1489 806  6281
1490 3258 2747
1491 1047 8426
1492 7834 631 
1493 9849 2808
1494 8167 7864
1495 7446 1605
1496 7453 1067
1497 148  4970
1498 7529 8464
1499 9541 2874
1500 2014 8688
1501 70   8973
1502 3729 9818
1503 3183 4179
1504 9629 2863
1505 6815 5290
1506 7579 9178
1507 67   9241
1508 1764 8079
1509 6724 7248
1510 2244 278 
1511 7024 5901
1512 7474 1940
1513 4416 156 
1514 8990 5766
1515 6491 2240
1516 8086 3831
1517 5375 6025
1518 1755 9554
1519 8889 6630
1520 1710 7527
1521 7253 3848
1522 5401 4411
1523 3435 8590
1524 4318 5267
1525 8359 7223
1526 9905 8015
1527 1171 8712
1528 6012 6174
1529 1717 8695
1530 5321 5718
1531 7933 8683
1532 4740 813 
1533 7946 6671
1534 8017 6361
1535 2858 2851
1536 7323 1084
1537 7025 7880
1538 7353 773 
1539 4115 4337
1540 6973 6347
1541 1085 5698
1542 2069 5322
1543 5046 9383
1544 4813 3123
1545 5234 6079
1546 2178 9144
1547 931  647 
1548 1010 7112
1549 9980 5722
1550 8251 3741
1551 5306 1720
1552 3774 6223
1553 5882 8890
1554 6358 5627
1555 321  6473
1556 614  7340
1557 2948 6241
1558 6046 8568
1559 2607 6060
1560 5790 1116
1561 4285 8620
1562 2913 8616
1563 4306 316 
1564 9923 2500
1565 6670 3592
1566 2019 6040
1567 9245 5373
1568 8010 3864
1569 7521 6789
1570 2280 4860
1571 3001 8099
1572 8291 9144
1573 665  9917
1574 6991 685 
1575 6887 2272
1576 8137 2715
1577 7562 689 
1578 603  376 
1579 5975 331 
1580 6235 3949
1581 8600 9742
1582 7111 2096
1583 1394 3868
1584 1503 7102
1585 3999 8117
1586 1670 9402
1587 5020 6252
1588 6189 9237
1589 8078 5020
1590 8236 1940
1591 7338 747 
1592 2954 8580
1593 1857 3692
1594 7553 2839
1595 5816 4326
1596 6762 2285
1597 5308 2659
1598 6840 1091
1599 9883 874 
1600 1023 5674
1601 8806 3496
1602 5802 944 
1603 6420 350 
1604 3115 9339
1605 6455 9415
1606 6189 5355
1607 1961 673 
1608 18   2513
1609 8317 5782
1610 9012 5994
1611 5103 841 
1612 3018 672 
1613 8688 2253
1614 5805 6497
1615 8875 9412
1616 8208 3620
1617 693  3361
1618 3732 6978
1619 1268 7595
1620 1992 4564
1621 1523 4054
1622 5983 6932
1623 5976 2283
1624 2242 5636
1625 1893 7229
1626 9378 2385
1627 6252 6901
1628 4308 1591
1629 5504 7085
1630 3137 1061
1631 9916 9377
1632 161  806 
1633 1433 1716
1634 2699 8687
1635 5687 3896
1636 1731 2491
1637 2174 1318
1638 1545 3367
1639 4352 3552
1640 497  4947
1641 9589 1441
1642 8427 5347
1643 5808 6167
1644 4311 386 
1645 7672 7481
1646 679  7594
1647 2867 2829
1648 9640 529 
1649 6102 924 
1650 4964 1528
1651 2346 8681
1652 1790 8545
1653 9253 9292
1654 7311 7754
1655 8962 9399
1656 190  6161
1657 9054 5221
1658 2652 1531
1659 5967 7012
1660 6459 1733
1661 394  3901
1662 4595 1601
1663 5510 716 
1664 3536 8903
1665 1354 4715
1666 1814 5275
1667 9524 9698
1668 3448 5925
1669 2873 6171
1670 5896 9359
1671 5474 1370
1672 6674 9807
1673 4519 6646
1674 509  2053
1675 6994 8259
1676 2160 9924
1677 4153 2450
1678 5588 8116
1679 7074 1470
1680 8195 520 
1681 7373 4467
1682 5882 8679
1683 3099 9890
1684 441  5251
1685 3930 7341
1686 3726 1974
1687 3847 4245
1688 7441 4646
1689 8725 3392
1690 9434 1306
1691 8972 8634
1692 665  7800
1693 5618 2382
1694 4100 8740
1695 9023 3916
1696 1086 8209
1697 2906 6053
1698 961  5416
1699 1645 947 
1700 4561 4816
1701 3758 4002
1702 4219 7580
1703 4810 9866
1704 6354 5262
1705 6205 8704
1706 8927 4209
1707 2802 1328
1708 5650 8998
1709 12   1220
1710 4356 825 
1711 4249 5283
1712 8951 7588
1713 7030 1123
1714 7865 3658
1715 3799 956 
1716 3920 6428
1717 8883 6383
1718 2562 4625
1719 3760 7148
1720 2742 7299
1721 8019 2494
1722 6460 6212
1723 7963 6939
1724 8046 3941
1725 5648 2762
1726 4986 4906
1727 3568 9977
1728 5534 2766
1729 8886 4187
1730 5143 9181
1731 9232 1469
1732 9403 1104
1733 5390 9114
1734 6197 2570
1735 8672 1662
1736 7623 4471
1737 2108 4339
1738 2065 911 
1739 3134 3949
1740 2357 239 
1741 845  7074
1742 5328 2608
1743 6864 3428
1744 7233 2285
1745 4604 9046
1746 6624 1329
1747 8496 7687
1748 7261 8180
1749 8456 5013
1750 2190 5400
1751 9959 690 
1752 3333 5338
1753 4621 5704
1754 7519 4693
1755 2804 7601
1756 4303 5869
1757 9800 1432
1758 9705 9141
1759 8103 7897
1760 2769 9270
1761 6336 7658
1762 9886 9427
1763 5631 1716
1764 3777 5770
1765 582  6503
1766 9182 3651
1767 5061 1831
1768 6409 4547
1769 9714 4516
1770 5847 5320
1771 3913 4240
1772 6088 2480
1773 8029 5370
1774 1674 3106
1775 7114 9954
1776 8061 4093
1777 8588 525 
1778 8679 588 
1779 6095 7883
1780 9700 2042
1781 2838 3666
1782 2617 3362
1783 2532 4191
1784 3632 7815
1785 6287 3761
1786 7868 2610
1787 7515 2842
1788 7161 1670
1789 6607 3845
1790 5914 4469
1791 5968 9695
1792 9344 7348
1793 9623 2806
1794 6992 8264
1795 2545 4158
1796 4158 5320
1797 949  3138
1798 2541 8125
1799 1059 4134
1800 4820 4688
1801 2979 239 
1802 1520 9904
1803 7125 1434
1804 5688 6888
1805 3658 2983
1806 3767 8386
1807 4165 7086
1808 8584 19  
1809 4979 9250
1810 7840 9712
1811 6947 7015
1812 473  8264
1813 4238 3394
1814 2525 9381
1815 5463 1479
1816 476  5521
1817 979  1629
1818 7980 82  
1819 369  6252
1820 3580 7642
1821 6552 5940
1822 8583 5417
1823 9517 1464
1824 3725 5338
1825 9735 7742
1826 5657 2523
1827 8374 745 
1828 3860 2195
1829 1138 3723
1830 5161 7929
1831 8087 4281
1832 7675 416 
1833 2709 8276
1834 9518 2213
1835 5623 6908
1836 4966 5940
1837 9243 4682
1838 7484 2861
1839 7191 3597
1840 3163 2601
1841 2654 5613
1842 5099 9456
1843 9062 2760
1844 6900 3032
1845 8951 1460
1846 2960 533 
1847 8720 500 
1848 4330 5632
1849 6893 726 
1850 1070 273 
1851 2556 1117
1852 6340 6545
1853 3100 4775
1854 2057 7737
1855 2347 7955
1856 4893 8102
1857 6248 5772
1858 883  3933
1859 8881 9182
1860 1588 8011
1861 3070 8310
1862 8060 8355
1863 8992 4038
1864 8048 9883
1865 5001 177 
1866 2949 1782
1867 9023 2275
1868 8639 7669
1869 8059 8067
1870 1611 9799
1871 3680 6299
1872 8205 8557
1873 9969 2695
1874 7906 9864
1875 7516 9308
1876 3964 2312
1877 182  4553
1878 655  9582
1879 3310 4290
1880 1670 6800
1881 4384 9308
1882 205  8971
1883 2567 2921
1884 1758 7974
1885 1332 7116
1886 9044 9525
1887 3848 9035
1888 4336 5692
1889 5293 9406
1890 5832 1989
1891 6151 6548
1892 880  433 
1893 558  2890
1894 9024 8500
1895 1470 9859
1896 3233 6512
1897 6951 7270
1898 9017 8987
1899 5531 2486
1900 6222 438 
1901 9731 3791
1902 6751 4189
1903 7658 1886
1904 538  509 
1905 5094 3658
1906 8316 4380
1907 8198 4653
1908 2967 1176
1909 9438 5560
1910 7306 7522
1911 8077 1100
1912 4496 2148
1913 5956 1103
1914 4592 6909
1915 368  8962
1916 2409 3955
1917 9328 1453
1918 6959 383 
1919 4404 6899
1920 4487 2108
1921 5597 4050
1922 2390 5816
1923 7164 574 
1924 8487 780 
1925 6215 9613
1926 156  8552
1927 3134 2198
1928 5263 7997
1929 3875 5532
1930 624  6547
1931 7203 844 
1932 6320 7299
1933 7824 9275
1934 2598 2722
1935 8724 4295
1936 6265 2529
1937 9341 4613
1938 7185 4882
1939 2553 6928
1940 6423 5509
1941 8271 344 
1942 5309 893 
1943 8629 4790
1944 9977 5586
1945 3979 800 
1946 5042 8445
1947 9888 7688
1948 3141 8130
1949 8628 730 
1950 9958 4006
1951 6836 2968
1952 7099 6901
1953 9685 8599
1954 9501 2552
1955 9596 5787
1956 6307 231 
1957 5768 1008
1958 5192 4634
1959 6530 8273
1960 8917 973 
1961 593  7442
1962 2255 7469
1963 3929 9279
1964 7352 785 
1965 1123 9642
1966 7307 7702
1967 5893 7961
1968 4062 9745
1969 9760 7140
1970 3188 7249
1971 1037 3050
1972 3103 6045
1973 8421 912 
1974 8776 9014
1975 9969 4674
1976 7290 7112
1977 544  9801
1978 8461 2270
1979 4337 3515
1980 4943 6737
1981 761  287 
1982 5263 5859
1983 8393 4117
1984 8714 7725
1985 7887 7423
1986 7575 4361
1987 5083 9288
1988 3040 4958
1989 2653 1306
1990 898  9852
1991 9576 821 
1992 8119 4392
1993 9292 9982
1994 3200 3620
1995 5038 2056
1996 960  6752
1997 7942 1729
1998 5643 1620
1999 6438 983 
2000 7112 8134
2001 4669 729 
2002 9617 2491
2003 2496 1728
2004 1495 6480
2005 3081 2997
2006 8507 6994
2007 9244 4969
2008 5276 1366
2009 3036 1302
2010 1458 757 
2011 6488 7466
2012 4943 4212
2013 7064 3459
2014 9381 9716
2015 720  6261
2016 3725 3882
2017 2215 7194
2018 332  8729
2019 3184 1589
2020 1954 1571
2021 1726 7175
2022 8949 3949
2023 6502 2021
2024 2495 5956
2025 9899 1855
2026 32   345 
2027 1166 5670
2028 6643 4901
2029 6474 1909
2030 5293 6461
2031 7062 166 
2032 8401 1840
2033 9637 1047
2034 5726 8513
2035 2649 1905
2036 5447 5414
2037 7434 1452
2038 2720 5740
2039 5094 7870
2040 2392 4162
2041 5593 5174
2042 7228 5043
2043 6133 2003
2044 6272 7388
2045 7702 8941
2046 3535 4736
2047 727  6615
2048 3282 2269
2049 7679 1566
2050 9927 809 
2051 3774 6491
2052 9785 9021
2053 4115 9714
2054 9382 4018
2055 1679 7437
2056 5220 582 
2057 1770 4849
2058 9943 3959
2059 6158 4398
2060 8248 5900
2061 6058 5917
2062 5631 5877
2063 6760 7449
2064 46   7185
2065 8213 890 
2066 4889 6097
2067 8354 4201
2068 922  3679
2069 2105 7904
2070 3894 9404
2071 3822 1172
2072 3992 341 
2073 2635 8691
2074 3579 2465
2075 8901 5610
2076 5754 482 
2077 8226 9536
2078 7141 6427
2079 2925 8095
2080 2230 4223
2081 9131 8563
2082 5883 8564
2083 1189 805 
2084 3350 1389
2085 385  177 
2086 3053 7163
2087 4871 4665
2088 6774 370 
2089 2462 6465
2090 7841 396 
2091 6330 1082
2092 5829 8556
2093 794  5821
2094 6795 1052
2095 3791 2783
2096 8230 9845
2097 9870 4952
2098 523  85  
2099 8774 239 
2100 3008 8189
2101 617  2726
2102 7725 3319
2103 8646 2342
2104 310  7214
2105 9919 8717
2106 8136 4934
2107 8497 5486
2108 8011 2471
2109 4871 1934
2110 3902 225 
2111 5049 2283
2112 6943 295 
2113 8352 1114
2114 6015 4940
2115 5797 6645
2116 2826 6039
2117 4540 7949
2118 8915 3178
2119 270  163 
2120 4973 2485
2121 8581 6659
2122 4982 3833
2123 725  8442
2124 6875 4571
2125 8736 9850
2126 7457 3436
2127 3190 81  
2128 7003 9523
2129 6464 4107
2130 9471 9081
2131 8454 2225
2132 9457 5660
2133 9001 4195
2134 7558 4084
2135 6109 3458
2136 2483 4406
2137 3802 3953
2138 517  2177
2139 7290 2392
2140 3267 9228
2141 389  2991
2142 2438 9765
2143 6965 5614
2144 8964 1874
2145 8052 9057
2146 8713 3798
2147 564  6698
2148 2865 7926
2149 8485 5562
2150 1711 7753
2151 8307 4896
2152 9807 1129
2153 6085 9473
2154 2111 2410
2155 1759 7900
2156 1566 4012
2157 2690 5788
2158 5123 7574
2159 161  1787
2160 2117 6041
2161 2651 226 
2162 267  499 
2163 3514 4436
2164 9002 9159
2165 3382 7180
2166 4825 6387
2167 6041 7129
2168 8931 7477
2169 2849 3635
2170 7482 9835
2171 1431 6009
2172 374  8948
2173 3894 5517
2174 9511 4132
2175 617  989 
2176 4905 3076
2177 3961 1908
2178 385  2795
2179 1875 52  
2180 736  7640
2181 5764 5681
2182 4576 781 
2183 235  7939
2184 6599 9982
2185 5748 156 
2186 8463 3912
2187 8932 9206
2188 108  1014
2189 1984 7511
2190 2041 1834
2191 5451 1579
2192 5521 5821
2193 195  318 
2194 7609 8590
2195 5    2421
2196 9181 493 
2197 7534 3668
2198 5395 6913
2199 1299 6675
2200 3250 5370
2201 5958 8493
2202 7887 270 
2203 9330 5323
2204 6779 3451
2205 7577 0   
2206 7234 2725
2207 8195 5828
2208 6629 6738
2209 2244 2417
2210 6699 9755
2211 5378 7320
2212 2630 529 
2213 6831 7863
2214 3116 5324
2215 6585 2285
2216 1986 1625
2217 2326 2645
2218 6316 3522
2219 9545 3137
2220 6518 8685
2221 2851 4298
2222 547  7169
2223 3403 4489
2224 2291 5538
2225 8499 1590
2226 3485 6532
2227 1430 5846
2228 1967 7385
2229 374  2703
2230 7845 7545
2231 8134 4770
2232 3154 3090
2233 560  7289
2234 3068 9690
2235 2133 7057
2236 4791 2029
2237 5783 7724
2238 4881 5969
2239 9660 4679
2240 2604 591 
2241 139  4849
2242 408  1906
2243 8185 9284
2244 4695 2673
2245 8805 4313
2246 2937 2555
2247 6449 8310
2248 8698 4592
2249 1155 4378
2250 7264 1391
2251 9017 1093
2252 626  1381
2253 2091 578 
2254 976  9271
2255 2201 5735
2256 6946 4279
2257 4125 5206
2258 8690 6726
2259 8143 4584
2260 6430 6512
2261 8477 7279
2262 807  9064
2263 4302 6935
2264 9325 7851
2265 6810 7855
2266 2863 17  
2267 504  9843
2268 9438 2741
2269 9885 2026
2270 4061 4650
2271 2925 4880
2272 5819 2739
2273 339  4453
2274 8830 5226
2275 5837 7571
2276 2545 6893
2277 8579 5905
2278 3196 7340
2279 744  3770
2280 9144 8703
2281 6553 6492
2282 7476 1006
2283 3854 60  
2284 8122 3444
2285 7439 7947
2286 8932 2124
2287 4786 3433
2288 888  1132
2289 4477 7833
2290 9614 1826
2291 9753 2198
2292 7466 4962
2293 7183 1302
2294 714  8357
2295 8138 3436
2296 6501 3693
2297 4890 2242
2298 7597 2876
2299 8369 8472
2300 7252 4563
2301 7569 7671
2302 3198 2131
2303 9651 6251
2304 9909 600 
2305 2773 6233
2306 7840 9307
2307 9936 522 
2308 6544 8892
2309 6829 9319
2310 3937 9929
2311 5398 3073
2312 2396 492 
2313 4668 5926
2314 3113 4524
2315 3947 941 
2316 9226 4063
2317 7329 5048
2318 4851 6332
2319 5101 8045
2320 7768 8434
2321 1945 9523
2322 5832 1216
2323 4363 2237
2324 5430 4009
2325 918  306 
2326 9136 1400
2327 666  7430
2328 5634 6353
2329 190  5057
2330 2857 7200
2331 5574 9159
2332 9517 5671
2333 3920 9383
2334 8095 8252
2335 4410 7034
2336 3848 4501
2337 8923 4486
2338 4917 6730
2339 74   5243
2340 1651 9888
2341 5481 6758
2342 7207 3892
2343 7112 2627
2344 2907 8206
2345 914  1009
2346 574  3435
2347 8852 3484
2348 9749 6282
2349 2689 3371
2350 9845 1746
2351 659  747 
2352 6171 8796
2353 5315 7800
2354 4828 8336
2355 4812 762 
2356 3943 5656
2357 3578 8124
2358 9208 3417
2359 8232 9224
2360 1613 7699
2361 7226 3696
2362 4049 3377
2363 8627 5534
2364 5783 5715
2365 2768 9067
2366 8849 1640
2367 1126 8540
2368 9073 3838
2369 7284 1153
2370 8422 1621
2371 2351 8394
2372 5109 2462
2373 5465 6106
2374 1871 4800
2375 551  6544
2376 4229 128 
2377 7631 3721
2378 5998 9955
2379 1450 8224
2380 9212 5587
2381 1735 8681
2382 2278 7273
2383 3801 5147
2384 9152 7952
2385 8635 7006
2386 4435 4429
2387 8370 9973
2388 4155 9634
2389 3298 9691
2390 752  6956
2391 6149 4830
2392 2201 5311
2393 3780 5711
2394 7238 8970
2395 1315 5845
2396 2144 1680
2397 9767 9238
2398 7386 1529
2399 7224 7400
2400 3139 1078
2401 3587 8673
2402 8550 793 
2403 2843 9739
2404 2346 8311
2405 2695 3997
2406 8073 8857
2407 3420 9599
2408 753  7657
2409 7085 5702
2410 9545 971 
2411 407  2234
2412 4394 1178
2413 1432 6807
2414 9793 2837
2415 2371 9068
2416 6361 9817
2417 484  5550
2418 9937 7074
2419 5767 6590
2420 7345 7715
2421 699  4017
2422 6533 8535
2423 2648 3838
2424 666  7008
2425 5221 754 
2426 9844 3134
2427 2817 559 
2428 9354 5304
2429 2149 5172
2430 2766 7930
2431 7599 5192
2432 6660 4649
2433 8816 6953
2434 519  365 
2435 9701 8621
2436 4513 1729
2437 6049 5313
2438 9335 2099
2439 8425 2144
2440 9992 4888
2441 9018 1763
2442 8128 593 
2443 4400 3745
2444 6989 8764
2445 758  9138
2446 3154 4125
2447 8035 7078
2448 2151 1393
2449 8387 8231
2450 5567 414 
2451 2548 8268
2452 6300 4350
2453 2410 6833
2454 3632 3843
2455 5067 9289
2456 7943 4984
2457 6305 1285
2458 2260 1958
2459 3368 357 
2460 983  420 
2461 92   9188
2462 453  901 
2463 1403 9138
2464 999  1490
2465 430  1167
2466 2049 7004
2467 6409 7000
2468 2899 9387
2469 8935 9161
2470 9479 4783
2471 1017 3903
2472 170  431 
2473 7234 9046
2474 8471 8821
2475 9361 8473
2476 4604 6171
2477 3401 5330
2478 1949 2362
2479 5697 8665
2480 4946 2402
2481 6094 6387
2482 1023 6227
2483 1635 9386
2484 4259 3188
2485 5874 262 
2486 6248 5373
2487 2478 7989
2488 5238 9980
2489 2587 7328
2490 1754 3736
2491 1215 2726
2492 5993 7104
2493 7026 2947
2494 9777 5899
2495 9172 1556
2496 2962 8871
2497 6641 3427
2498 2145 1628
2499 3350 9591
2500 7350 8141
2501 7222 6956
2502 1607 2182
2503 939  1161
2504 9845 4264
2505 3746 6178
2506 6248 209 
2507 8983 786 
2508 7193 951 
2509 2847 8198
2510 1109 6767
2511 6758 1159
2512 7765 2472
2513 3961 7015
2514 2693 1555
2515 9059 233 
2516 63   759 
2517 7118 1827
2518 4537 360 
2519 776  5872
2520 855  1863
2521 6841 5191
2522 5475 5695
2523 246  4274
2524 8453 7927
2525 2335 8543
2526 5430 4628
2527 5764 5916
2528 3412 9241
2529 5060 2662
2530 9054 8437
2531 9806 7717
2532 5756 8591
2533 5051 561 
2534 8793 3616
2535 9965 4008
2536 3868 8173
2537 8576 9155
2538 8624 5543
2539 4390 360 
2540 2746 9472
2541 3733 7529
2542 1246 4095
2543 640  2335
2544 8364 4092
2545 6935 5380
2546 9379 7663
2547 441  8165
2548 9767 3853
2549 5002 8207
2550 1443 7977
2551 49   9901
2552 1884 8889
2553 1163 5319
2554 7174 3049
2555 8086 311 
2556 9712 6826
2557 7967 7923
2558 1016 8869
2559 4083 1860
2560 700  6484
2561 8765 975 
2562 3170 5563
2563 7021 4993
2564 9725 49  
2565 1831 6625
2566 5314 7007
2567 708  4207
2568 6077 6901
2569 2538 6937
2570 4956 9071
2571 8599 2016
2572 5037 6301
2573 5546 2170
2574 213  6636
2575 5813 7948
2576 7721 8088
2577 657  7556
2578 3930 3343
2579 5321 3258
2580 3722 9958
2581 4931 927 
2582 7753 7563
2583 5903 3815
2584 4029 2926
2585 6783 6869
2586 2721 6091
2587 4942 7633
2588 8644 5737
2589 1962 3344
2590 3444 2593
2591 7629 7258
2592 7553 5009
2593 4195 1077
2594 8576 9797
2595 863  9368
2596 3914 509 
2597 782  5698
2598 9596 9049
2599 3241 3949
2600 8624 8907
2601 5368 2760
2602 9710 5810
2603 6476 485 
2604 7121 2188
2605 5546 3649
2606 190  6264
2607 3312 6194
2608 1921 6370
2609 3444 3162
2610 3277 8898
2611 65   3738
2612 9826 1301
2613 192  7440
2614 2193 2070
2615 2424 6924
2616 3853 6889
2617 2965 9841
2618 867  5946
2619 4537 7837
2620 4679 8878
2621 454  3719
2622 7358 7875
2623 3391 8492
2624 2124 6161
2625 1082 2246
2626 6271 7392
2627 5308 9337
2628 8336 1575
2629 8756 3504
2630 9702 833 
2631 2584 3866
2632 4825 4397
2633 6483 108 
2634 6628 7235
2635 5290 5050
2636 5691 1566
2637 1743 6372
2638 935  2775
2639 1250 5510
2640 1564 8829
2641 4760 6884
2642 7742 2987
2643 3103 4215
2644 2163 545 
2645 2026 3574
2646 2647 1203
2647 7784 8119
2648 2818 8776
2649 8442 9667
2650 1834 8972
2651 4512 3239
2652 4141 8976
2653 8410 8521
2654 3688 6313
2655 1591 4994
2656 5290 7067
2657 422  7290
2658 8548 3742
2659 2226 2068
2660 7580 2712
2661 5270 6200
2662 2844 752 
2663 3642 7004
2664 4263 1715
2665 9074 233 
2666 3112 5596
2667 7267 3133
2668 8654 6030
2669 3043 8893
2670 5033 2209
2671 4159 7559
2672 8533 7516
2673 5269 1282
2674 7696 9851
2675 1712 7129
2676 9472 2025
2677 1130 2582
2678 1486 2684
2679 7367 3584
2680 300  1435
2681 1997 9539
2682 6785 7674
2683 6786 9462
2684 3144 9693
2685 2795 8571
2686 601  9236
2687 8636 9248
2688 8801 3014
2689 1226 8477
2690 3260 524 
2691 992  950 
2692 679  878 
2693 7536 3359
2694 3318 4246
2695 9732 3812
2696 50   8475
2697 5222 7223
2698 5330 7977
2699 6423 4865
2700 7537 5488
2701 4303 8301
2702 1850 6836
2703 726  5078
2704 9007 7456
2705 8470 9007
2706 7548 7072
2707 167  7726
2708 4335 8621
2709 7176 7544
2710 4166 4806
2711 8921 6213
2712 746  7314
2713 2006 841 
2714 959  3198
2715 7132 2361
2716 6764 3905
2717 4825 6596
2718 2201 6969
2719 1000 5620
2720 345  6925
2721 7432 1608
2722 8794 4395
2723 1953 1609
2724 6897 9452
2725 6067 4301
2726 5576 2556
2727 4348 7898
2728 9880 3541
2729 1284 5633
2730 6616 9608
2731 3293 5682
2732 6650 9684
2733 506  5792
2734 6190 2733
2735 5929 5034
2736 1668 8890
2737 1440 4703
2738 817  6092
2739 1106 9151
2740 9286 2098
2741 9074 9999
2742 130  9727
2743 6001 8427
2744 4493 2223
2745 3503 245 
2746 29   354 
2747 9651 4244
2748 8676 19  
2749 9628 4035
2750 5874 1916
2751 5888 5214
2752 2310 4783
2753 7749 113 
2754 3862 2501
2755 5623 9027
2756 4808 2803
2757 6111 5019
2758 2282 7514
2759 6088 4432
2760 3148 1160
2761 4173 1079
2762 5062 2763
2763 2125 2553
2764 1604 3695
2765 1280 5778
2766 4503 5187
2767 4125 6861
2768 5284 1944
2769 2579 6080
2770 4482 4859
2771 612  8363
2772 3081 8322
2773 8072 2475
2774 4132 4719
2775 8757 4899
2776 8065 4677
2777 9401 5467
2778 5653 6919
2779 1778 6388
2780 8586 6857
2781 3842 3185
2782 9665 7280
2783 5082 4233
2784 9496 8143
2785 6933 1125
2786 162  5273
2787 5530 5482
2788 1111 8012
2789 5806 9833
2790 9860 2975
2791 1550 7528
2792 6341 1546
2793 7326 4864
2794 6584 1297
2795 5054 5251
2796 9869 1391
2797 7446 4196
2798 9081 5346
2799 8290 9669
2800 9700 1441
2801 7598 1611
2802 7414 4059
2803 1197 1870
2804 9728 7974
2805 3368 8349
2806 326  5656
2807 1762 9369
2808 1893 1922
2809 483  5614
2810 2043 1089
2811 8028 3614
2812 865  6971
2813 5435 5735
2814 878  9578
2815 7245 3277
2816 2040 2300
2817 392  7649
2818 9591 9873
2819 2280 7723
2820 5456 40  
2821 5368 1232
2822 4744 8895
2823 1425 5462
2824 647  2929
2825 971  2648
2826 9927 1227
2827 2500 8117
2828 7593 7834
2829 7347 9875
2830 5370 7521
2831 2878 1077
2832 2423 2620
2833 8518 2719
2834 2055 1586
2835 1316 3319
2836 3238 2221
2837 2467 8154
2838 8462 6818
2839 3840 8898
2840 2308 2570
2841 5127 9071
2842 1094 3868
2843 3817 7177
2844 2586 9922
2845 1587 1945
2846 3700 646 
2847 8744 5681
2848 6894 7988
2849 2970 7181
2850 129  7883
2851 5179 4124
2852 1622 2293
2853 5587 7186
2854 6336 4373
2855 4699 6383
2856 8065 2331
2857 5534 7990
2858 9750 6564
2859 6455 8038
2860 6827 498 
2861 8564 1041
2862 6384 7507
2863 3957 6223
2864 1735 9627
2865 6405 7084
2866 3513 6662
2867 2370 9354
2868 2003 6380
2869 7889 6361
2870 2743 9935
2871 4159 1534
2872 7415 9342
2873 1269 4655
2874 5189 1930
2875 6267 6907
2876 2564 8997
2877 5169 442 
2878 2564 1749
2879 5057 8032
2880 5958 250 
2881 1433 316 
2882 839  7145
2883 6420 6413
2884 8622 5226
2885 3698 1014
2886 4699 7896
2887 1188 8805
2888 1310 5865
2889 1994 103 
2890 4661 671 
2891 3108 8758
2892 4326 5105
2893 6177 1782
2894 4197 2379
2895 929  5466
2896 5754 585 
2897 388  5744
2898 2244 1531
2899 6938 3743
2900 5155 7794
2901 1074 3155
2902 9716 9096
2903 9748 9819
2904 3579 5396
2905 4049 4459
2906 2623 2554
2907 7420 6056
2908 7009 175 
2909 3263 5206
2910 3294 305 
2911 8278 1163
2912 1818 333 
2913 5904 6450
2914 7937 7073
2915 5801 6651
2916 8485 9485
2917 5094 803 
2918 3125 2910
2919 1693 5613
2920 966  1786
2921 5278 9330
2922 185  8368
2923 3129 8997
2924 1374 8427
2925 5849 9197
2926 7112 6921
2927 4344 9506
2928 3639 762 
2929 2676 5349
2930 6072 3713
2931 5008 7751
2932 1873 1746
2933 5371 8858
2934 4535 7281
2935 4583 173 
2936 4917 6558
2937 3954 5119
2938 1376 7465
2939 5467 9398
2940 788  4858
2941 1341 5074
2942 9789 1181
2943 1210 6908
2944 2563 5013
2945 7981 102 
2946 5642 564 
2947 5591 5935
2948 4690 1023
2949 2219 6380
2950 2052 3849
2951 3852 3694
2952 3790 7903
2953 200  6059
2954 8748 7751
2955 3462 2241
2956 5038 8152
2957 7446 5957
2958 5244 9174
2959 5100 3141
2960 4473 9453
2961 3642 2085
2962 5084 5263
2963 2882 739 
2964 76   6869
2965 9369 7197
2966 3976 1177
2967 1197 6465
2968 229  4752
2969 622  6725
2970 3397 1617
2971 1618 3025
2972 8848 7220
2973 2182 8986
2974 8539 2787
2975 3386 1593
2976 6913 5772
2977 5072 1316
2978 2164 1205
2979 4338 7342
2980 4387 6836
2981 340  4321
2982 2491 3091
2983 9377 7503
2984 5163 8535
2985 2867 3136
2986 7300 1983
2987 370  2091
2988 6962 5335
2989 4353 6805
2990 3941 2795
2991 4045 4036
2992 4870 97  
2993 7475 7471
2994 5292 7231
2995 7061 9727
2996 2127 5746
2997 4312 2366
2998 5397 3417
2999 8391 1390
3000 9923 1468
3001 4830 5744
3002 709  4544
3003 9504 8445
3004 5517 6753
3005 4706 5321
3006 2229 6683
3007 9687 9641
3008 4193 8043
3009 970  9731
3010 2514 7341
3011 8510 3061
3012 7588 7813
3013 6715 3859
3014 8850 5434
3015 8058 1599
3016 4119 397 
3017 7441 6341
3018 6982 2279
3019 4981 4896
3020 7802 5379
3021 6381 2289
3022 7561 4560
3023 4544 80  
3024 1300 4360
3025 5514 8456
3026 166  2663
3027 316  188 
3028 2070 4847
3029 4445 2421
3030 163  7891
3031 905  5701
3032 4475 962 
3033 2492 825 
3034 206  6858
3035 4949 514 
3036 4153 6298
3037 279  8885
3038 3184 672 
3039 6026 8577
3040 5681 3223
3041 379  6042
3042 1741 5858
3043 1420 1613
3044 6838 1317
3045 6437 2292
3046 5590 3656
3047 9939 1180
3048 2723 6806
3049 3303 2939
3050 9011 2801
3051 9468 5696
3052 103  5565
3053 130  7206
3054 8306 3352
3055 5209 9509
3056 1652 7199
3057 2733 2683
3058 3514 5904
3059 9199 1550
3060 9222 1807
3061 3456 5698
3062 2906 6841
3063 207  9004
3064 4405 7513
3065 956  7076
3066 3099 2235
3067 5176 4551
3068 294  5099
3069 4525 6809
3070 4215 2595
3071 1828 7673
3072 9919 1803
3073 1633 7768
3074 7092 2499
3075 6170 67  
3076 2031 5348
3077 8808 8187
3078 2295 9846
3079 2602 3225
3080 5443 3998
3081 8178 7305
3082 7297 8295
3083 3175 3528
3084 3805 9466
3085 4059 1373
3086 7416 372 
3087 1900 8802
3088 2510 7345
3089 7289 234 
3090 3524 4307
3091 4235 9449
3092 9918 5526
3093 9543 6174
3094 8754 8774
3095 5148 2356
3096 423  574 
3097 4921 4137
3098 8970 5442
3099 17   3836
3100 5919 2674
3101 4143 7381
3102 609  9327
3103 3197 3831
3104 9641 3428
3105 8613 7036
3106 4342 5183
3107 6786 7803
3108 9064 4707
3109 803  4650
3110 5574 5343
3111 9070 6700
3112 6876 7170
3113 4521 9195
3114 6398 3134
3115 7097 1923
3116 7066 1266
3117 1400 7124
3118 4259 9093
3119 4403 3399
3120 6743 1583
3121 2112 4298
3122 1525 1804
3123 2599 6710
3124 2538 9931
3125 5101 7682
3126 3918 69  
3127 1710 6201
3128 4489 9500
3129 2606 1421
3130 127  2102
3131 6517 5930
3132 7222 4903
3133 3937 9020
3134 8930 7279
3135 658  1150
3136 2903 4441
3137 3328 5467
3138 3968 6862
3139 582  405 
3140 4983 3227
3141 364  6741
3142 1301 2030
3143 127  7261
3144 1037 2020
3145 3544 9338
3146 9940 5562
3147 8395 4868
3148 6452 8054
3149 3792 2308
3150 2983 1441
3151 3238 3814
3152 6547 4433
3153 3835 9587
3154 9882 6684
3155 813  1382
3156 736  4837
3157 5458 6004
3158 9090 455 
3159 220  946 
3160 281  8703
3161 5896 1366
3162 1234 7259
3163 1470 1651
3164 3003 8122
3165 2316 7008
3166 1071 1493
3167 787  214 
3168 2643 9933
3169 5928 9340
3170 5969 9134
3171 4666 9135
3172 6030 1898
3173 8222 271 
3174 4172 5901
3175 5735 4472
3176 9320 9225
3177 7709 8790
3178 2250 3381
3179 7117 3529
3180 9291 9746
3181 9862 8497
3182 1766 3058
3183 8559 6488
3184 6369 4306
3185 7291 3484
3186 457  27  
3187 9040 9982
3188 7459 3105
3189 223  6469
3190 7865 2042
3191 6226 9680
3192 3422 5738
3193 9616 7160
3194 4173 9196
3195 8761 7684
3196 3342 626 
3197 8194 3755
3198 6627 1990
3199 5237 4625
3200 2182 2897
3201 3937 6772
3202 2992 1585
3203 7710 5539
3204 1842 2500
3205 9387 1654
3206 2593 2639
3207 4255 2929
3208 7773 2797
3209 1595 9931
3210 1850 8272
3211 8778 9472
3212 9693 794 
3213 7575 4967
3214 158  6829
3215 5320 6437
3216 9771 4452
3217 5617 585 
3218 4184 6581
3219 3928 4277
3220 1519 2490
3221 2472 5882
3222 1269 6959
3223 7940 8713
3224 4896 751 
3225 3061 256 
3226 4522 4742
3227 4338 3674
3228 1324 8095
3229 266  2132
3230 7746 3704
3231 6758 7599
3232 1879 359 
3233 6214 5316
3234 7134 5621
3235 3117 8963
3236 9406 8642
3237 6079 9494
3238 8990 144 
3239 8008 690 
3240 4214 7147
3241 2665 4146
3242 587  754 
3243 6779 1890
3244 9438 6982
3245 2904 1790
3246 9016 5267
3247 4603 1012
3248 3711 7982
3249 6304 7495
3250 5318 574 
3251 3818 9138
3252 9686 5732
3253 2450 5734
3254 6154 5006
3255 200  2589
3256 6846 819 
3257 6436 6495
3258 5849 2152
3259 8581 1666
3260 4192 1180
3261 7950 2923
3262 4739 5007
3263 285  6300
3264 2026 1521
3265 7396 741 
3266 7929 2034
3267 5823 8179
3268 1843 8336
3269 232  1205
3270 7687 2828
3271 7440 8896
3272 6057 7533
3273 1935 2358
3274 7606 6423
3275 1034 9930
3276 7231 922 
3277 3681 8869
3278 9446 6516
3279 4035 5087
3280 172  8863
3281 216  6304
3282 6519 3589
3283 7236 2415
3284 3393 1167
3285 8925 6404
3286 9855 6142
3287 680  25  
3288 9074 8269
3289 7327 8189
3290 895  6918
3291 9191 9868
3292 9139 2394
3293 5663 3600
3294 7934 2172
3295 7381 5220
3296 6091 3701
3297 7769 547 
3298 9885 6106
3299 404  8027
3300 2516 1360
3301 7388 7327
3302 5742 8170
3303 2134 5307
3304 5222 5215
3305 7933 9248
3306 8919 3296
3307 5109 7595
3308 7960 331 
3309 2159 3350
3310 5812 3703
3311 498  5420
3312 3728 9928
3313 6105 7507
3314 574  3549
3315 6228 6013
3316 4046 6668
3317 2794 8856
3318 7064 1175
3319 9089 8436
3320 3672 1268
3321 6934 2100
3322 4511 8178
3323 9608 4726
3324 5169 8670
3325 3272 1149
3326 2655 5655
3327 7046 9612
3328 5341 4688
3329 8302 6390
3330 7388 4489
3331 496  4470
3332 1244 258 
3333 1064 1960
3334 3802 1700
3335 6071 1370
3336 9197 7123
3337 9446 8721
3338 341  5293
3339 377  637 
3340 4479 3720
3341 7039 2020
3342 2184 3147
3343 943  7488
3344 1142 3088
3345 1035 9123
3346 5544 7475
3347 4205 7404
3348 293  5605
3349 5862 9030
3350 731  2936
3351 9894 3996
3352 1129 5621
3353 4599 5277
3354 8924 9687
3355 6460 5782
3356 3292 1776
3357 6213 1678
3358 6520 6265
3359 4255 1773
3360 3352 2892
3361 9435 34  
3362 3115 3890
3363 650  2917
3364 3961 6512
3365 6877 3356
3366 2567 2671
3367 1136 4895
3368 9932 2821
3369 7215 3804
3370 927  9974
3371 8605 6146
3372 5136 3091
3373 4634 5261
3374 1725 2107
3375 9370 9850
3376 2606 9694
3377 4807 8216
3378 254  3208
3379 8717 9627
3380 88   290 
3381 655  1618
3382 1907 1357
3383 1344 1993
3384 6739 3053
3385 2252 381 
3386 8466 2282
3387 4330 8767
3388 6719 6955
3389 1645 7074
3390 6728 5197
3391 8476 2103
3392 3481 4384
3393 4394 2874
3394 124  1158
3395 8946 576 
3396 2423 10  
3397 5415 8506
3398 4142 5843
3399 2930 2798
3400 7753 4086
3401 8338 7546
3402 986  7368
3403 6144 3184
3404 9203 4012
3405 8787 1709
3406 354  4477
3407 973  8366
3408 5988 6386
3409 107  4258
3410 5374 2377
3411 8251 1612
3412 9998 1010
3413 9974 3898
3414 3830 5004
3415 5437 6484
3416 1604 8186
3417 8234 4469
3418 2717 5250
3419 9878 1384
3420 6757 2741
3421 7599 7248
3422 185  2633
3423 9086 2497
3424 2832 4068
3425 2438 864 
3426 1028 5742
3427 5391 3489
3428 2724 409 
3429 8729 8828
3430 1339 2048
3431 9963 1930
3432 9851 2452
3433 346  3771
3434 1135 2242
3435 1423 404 
3436 7624 2337
3437 2383 4661
3438 2527 7653
3439 9488 5660
3440 2626 7313
3441 35   1134
3442 6818 7719
3443 9019 315 
3444 1964 2843
3445 2206 521 
3446 6332 1399
3447 9824 8519
3448 287  1932
3449 1139 9368
3450 4719 3997
3451 9483 89  
3452 7466 9347
3453 1294 2769
3454 2269 1564
3455 9421 9154
3456 8015 9945
3457 6136 4518
3458 1138 5851
3459 8846 4647
3460 2623 3057
3461 6739 889 
3462 4462 5812
3463 5048 8030
3464 474  4846
3465 1284 4681
3466 1386 1348
3467 3263 5810
3468 2371 2605
3469 7111 690 
3470 3140 9136
3471 2565 6105
3472 6371 1403
3473 8765 6032
3474 3074 6045
3475 3788 6297
3476 8740 1326
3477 5552 8700
3478 3251 6008
3479 4394 8117
3480 5944 9506
3481 844  638 
3482 9917 4836
3483 4629 935 
3484 6348 9161
3485 8097 321 
3486 6987 7891
3487 2079 4295
3488 9175 6442
3489 8559 6282
3490 3812 1366
3491 7533 8008
3492 923  5730
3493 2734 8567
3494 6804 750 
3495 9172 6800
3496 9570 5798
3497 4480 8949
3498 3703 3824
3499 4265 9871
3500 7312 1865
3501 9225 9416
3502 6939 5625
3503 7560 3723
3504 6310 7043
3505 4009 6186
3506 963  6898
3507 8007 4836
3508 3281 8795
3509 568  6697
3510 5533 5308
3511 6770 7525
3512 4332 4741
3513 6102 7122
3514 8977 5817
3515 316  8891
3516 5323 9528
3517 6166 8858
3518 5395 5954
3519 5622 2002
3520 9025 2855
3521 46   7970
3522 6887 5271
3523 9796 5899
3524 1542 1543
3525 7565 5050
3526 2365 8618
3527 9742 1773
3528 720  7759
3529 9280 6782
3530 8426 5887
3531 6436 7750
3532 4425 8321
3533 2664 7820
3534 8968 6487
3535 4033 251 
3536 4622 6567
3537 8988 8571
3538 9596 4083
3539 7670 4931
3540 5007 692 
3541 4444 9239
3542 3723 9430
3543 4505 448 
3544 8140 1886
3545 5412 8632
3546 7656 559 
3547 2706 9066
3548 6784 1812
3549 9064 105 
3550 8399 9434
3551 7790 8485
3552 9417 3764
3553 4637 7230
3554 5636 2308
3555 2234 438 
3556 8338 8782
3557 6707 4793
3558 9055 5559
3559 8441 3784
3560 7690 4829
3561 3773 3066
3562 5151 7521
3563 7563 6788
3564 7484 9792
3565 2037 4006
3566 5073 2094
3567 1792 9378
3568 9027 699 
3569 8454 1263
3570 2173 901 
3571 327  7214
3572 3043 3799
3573 3122 8189
3574 8482 7811
3575 5659 9308
3576 91   3139
3577 6771 1022
3578 8064 3611
3579 6902 3640
3580 3091 3270
3581 8809 4584
3582 5904 3963
3583 3301 6806
3584 6421 3436
3585 7117 4351
3586 7712 4008
3587 4036 8254
3588 6611 4946
3589 8978 4342
3590 7599 404 
3591 166  4252
3592 942  2290
3593 2875 1401
3594 4090 7772
3595 7719 391 
3596 1108 713 
3597 9395 7203
3598 2959 1481
3599 2371 2042
3600 5110 5994
3601 4786 7796
3602 6388 5527
3603 8813 8731
3604 4911 6364
3605 7273 2800
3606 3365 4975
3607 5167 8082
3608 5027 1063
3609 5314 2129
3610 257  4639
3611 6165 1774
3612 3756 3759
3613 4910 9977
3614 4286 2274
3615 884  3089
3616 6728 1701
3617 1714 8513
3618 1147 9558
3619 1570 8721
3620 974  4702
3621 6779 9903
3622 4630 6578
3623 6787 6438
3624 9709 9514
3625 471  868 
3626 7797 57  
3627 9599 4125
3628 5839 1944
3629 4321 5315
3630 5110 3533
3631 7630 7667
3632 8639 1604
3633 3725 5796
3634 9287 8717
3635 1366 91  
3636 1693 8695
3637 756  3433
3638 703  8259
3639 6305 4628
3640 6996 8720
3641 8447 6428
3642 1075 5608
3643 8338 2712
3644 4226 7221
3645 5913 7705
3646 6231 4867
3647 9448 5522
3648 9478 6701
3649 3732 5094
3650 6991 4132
3651 1538 5912
3652 6460 5952
3653 717  3391
3654 127  89  
3655 1554 7149
3656 2462 826 
3657 5110 5241
3658 9162 6372
3659 6159 7767
3660 8210 69  
3661 647  3853
3662 9297 267 
3663 545  6514
3664 4444 27  
3665 8547 3056
3666 1236 5711
3667 8467 1387
3668 9229 2891
3669 5860 5981
3670 973  1271
3671 6696 9901
3672 6902 9453
3673 5282 4210
3674 1316 399 
3675 9843 689 
3676 4950 9683
3677 4508 1467
3678 3841 7837
3679 4500 2351
3680 8478 2436
3681 8386 4004
3682 7922 6420
3683 268  9589
3684 4936 5561
3685 7433 3770
3686 675  4918
3687 817  9918
3688 1443 1737
3689 987  305 
3690 664  9495
3691 6538 9530
3692 1529 9237
3693 9695 2110
3694 5514 5248
3695 3738 6867
3696 2142 5042
3697 4398 6864
3698 1433 6884
3699 6374 3907
3700 1274 8069
3701 6084 56  
3702 7686 688 
3703 2587 9238
3704 1461 2095
3705 9535 4228
3706 425  4995
3707 6706 3903
3708 608  5214
3709 8406 7134
3710 558  3388
3711 8501 8345
3712 5606 6514
3713 1800 5845
3714 5021 7381
3715 6848 5712
3716 7473 5219
3717 2323 5709
3718 2818 5253
3719 3154 3956
3720 8848 2866
3721 2452 6298
3722 6810 6944
3723 8709 3527
3724 6795 5308
3725 9945 761 
3726 9355 6934
3727 9049 3776
3728 5133 8360
3729 8700 96  
3730 6017 1930
3731 7094 159 
3732 9873 1233
3733 4098 390 
3734 3651 6750
3735 9111 873 
3736 2300 5027
3737 6528 2759
3738 5863 842 
3739 7013 9719
3740 2528 289 
3741 7727 2907
3742 645  356 
3743 9411 7469
3744 2303 1690
3745 1563 8301
3746 59   2224
3747 2127 9355
3748 8980 2099
3749 2707 564 
3750 5294 9276
3751 7735 6917
3752 7552 64  
3753 8488 9153
3754 9166 8516
3755 3971 2546
3756 6141 823 
3757 6520 9133
3758 7827 7139
3759 4314 4721
3760 7700 8380
3761 4556 7294
3762 8449 3083
3763 3838 5179
3764 8550 9064
3765 4278 5199
3766 4509 8672
3767 4594 2131
3768 3343 5778
3769 3843 2909
3770 2381 7272
3771 400  9490
3772 5049 5596
3773 9206 5248
3774 2451 3689
3775 8017 5052
3776 6741 8988
3777 5964 5849
3778 7499 8512
3779 3348 8060
3780 7578 8049
3781 6530 866 
3782 9939 4096
3783 632  7436
3784 1731 4314
3785 3625 6355
3786 4368 2477
3787 6399 2182
3788 827  436 
3789 6049 5433
3790 479  9234
3791 4357 2040
3792 3350 1188
3793 7108 9667
3794 8826 5489
3795 3433 4647
3796 3120 2312
3797 6267 2329
3798 8145 9217
3799 4623 1994
3800 1913 5914
3801 2704 9398
3802 772  4108
3803 6345 108 
3804 4605 6454
3805 8001 9715
3806 7549 1604
3807 9906 4894
3808 5749 1039
3809 2727 964 
3810 9681 342 
3811 888  8107
3812 6820 6132
3813 9976 7017
3814 9984 3131
3815 4102 8007
3816 8072 3319
3817 3053 8046
3818 7526 94  
3819 5552 9728
3820 4966 4580
3821 2527 4125
3822 4192 3808
3823 6785 7481
3824 7659 3201
3825 1482 2107
3826 3711 5240
3827 799  663 
3828 7653 3734
3829 3312 4301
3830 946  1900
3831 1182 7139
3832 340  447 
3833 4974 2610
3834 435  485 
3835 1859 572 
3836 1932 8337
3837 6315 204 
3838 5624 810 
3839 6406 677 
3840 880  6727
3841 5366 2531
3842 9655 7507
3843 393  6197
3844 7746 1269
3845 1817 9184
3846 8633 5819
3847 4460 4254
3848 7850 3171
3849 6496 9761
3850 8903 9743
3851 401  1408
3852 6721 7387
3853 6921 2290
3854 8737 2858
3855 8046 2693
3856 6822 7261
3857 3957 6749
3858 6737 6114
3859 9397 6623
3860 8968 637 
3861 9988 5270
3862 541  8995
3863 6543 6377
3864 4865 9757
3865 6692 3433
3866 6323 2502
3867 3574 4497
3868 5721 8825
3869 5973 1155
3870 5427 1059
3871 7391 7499
3872 1850 1582
3873 7510 6360
3874 778  5610
3875 1512 8864
3876 807  5362
3877 5392 5852
3878 6114 7777
3879 1463 1326
3880 1280 1727
3881 8051 877 
3882 5391 9897
3883 6544 2638
3884 7823 4878
3885 5356 3497
3886 624  4593
3887 4056 6513
3888 6929 9344
3889 9928 2058
3890 4308 8395
3891 5409 5948
3892 2645 7915
3893 7089 8656
3894 1821 6362
3895 827  3962
3896 2465 9996
3897 210  1944
3898 2674 3333
3899 7639 5216
3900 2373 8354
3901 1720 9237
3902 7811 1550
3903 5177 5162
3904 4039 4740
3905 8068 7898
3906 7844 6294
3907 3601 8471
3908 7101 1691
3909 5256 2178
3910 9845 9056
3911 8106 6564
3912 7970 2780
3913 4716 9765
3914 8184 7683
3915 1978 8906
3916 9882 9191
3917 2920 6129
3918 4900 3828
3919 4201 9325
3920 7502 9969
3921 8003 9430
3922 9073 7787
3923 72   2139
3924 7514 121 
3925 1322 8392
3926 7275 6727
3927 4832 5141
3928 3341 1379
3929 1601 3674
3930 5057 4365
3931 4424 907 
3932 9684 7199
3933 5092 4018
3934 4814 152 
3935 7366 8478
3936 9984 4880
3937 3430 9634
3938 5603 9499
3939 1409 9589
3940 2286 8586
3941 5811 4433
3942 9112 1146
3943 265  3422
3944 2774 3371
3945 3918 4393
3946 8773 7389
3947 9259 5995
3948 3976 343 
3949 4161 6359
3950 2746 8769
3951 3841 531 
3952 1211 195 
3953 7498 873 
3954 7525 4515
3955 3379 169 
3956 2697 2145
3957 4774 8331
3958 9013 2401
3959 8722 7910
3960 2953 8401
3961 7857 9082
3962 6092 1418
3963 3107 1095
3964 1404 839 
3965 587  2355
3966 5607 5879
3967 4499 8350
3968 2641 8934
3969 6802 578 
3970 8492 7340
3971 4499 5841
3972 4547 6302
3973 9263 4683
3974 215  1347
3975 2056 7336
3976 6560 7792
3977 2133 1170
3978 5562 8114
3979 9416 9785
3980 5015 2131
3981 2230 344 
3982 5149 221 
3983 9692 9712
3984 2746 1303
3985 9984 6572
3986 6157 7188
3987 5560 3615
3988 9279 2726
3989 1566 2906
3990 9716 2124
3991 153  4121
3992 605  7094
3993 8309 2729
3994 9880 7459
3995 6865 1018
3996 5024 3631
3997 2192 7081
3998 1312 115 
3999 2729 3715
4000 503  2952
4001 934  6850
4002 3622 3351
4003 8182 3495
4004 3089 3543
4005 1473 160 
4006 6880 1608
4007 1332 5973
4008 9148 8393
4009 3504 2402
4010 3470 2023
4011 2446 2107
4012 4019 4834
4013 9746 8983
4014 9681 6973
4015 6694 1623
4016 6475 219 
4017 5821 7779
4018 7168 2622
4019 2050 9445
4020 2885 2615
4021 5460 8433
4022 9299 6507
4023 162  292 
4024 7817 2183
4025 4185 1726
4026 7323 7631
4027 1576 171 
4028 8902 8853
4029 723  5614
4030 6911 6577
4031 5693 3137
4032 2112 2278
4033 9073 1590
4034 1178 2407
4035 9138 7071
4036 1490 1749
4037 3822 7485
4038 4290 7834
4039 6365 5830
4040 6816 9088
4041 8096 5145
4042 8293 600 
4043 6271 7404
4044 4748 7039
4045 224  5130
4046 5373 9187
4047 9127 971 
4048 3715 2554
4049 2213 9413
4050 2632 2647
4051 8457 4649
4052 7422 5501
4053 2532 2032
4054 8310 7913
4055 1218 1517
4056 5313 3708
4057 193  9127
4058 7517 3644
4059 974  7109
4060 209  8999
4061 1802 4688
4062 8495 4807
4063 3132 7374
4064 7286 7713
4065 367  8176
4066 324  9963
4067 1853 8902
4068 4694 4974
4069 6521 7905
4070 270  6435
4071 7316 2994
4072 6829 9536
4073 6724 8764
4074 2835 1523
4075 1283 8598
4076 4187 4920
4077 6322 8472
4078 5576 3466
4079 5624 5839
4080 7131 2477
4081 7918 5901
4082 9121 2792
4083 6355 1155
4084 4207 4082
4085 6175 8084
4086 370  8906
4087 7185 4210
4088 1013 9966
4089 4571 7130
4090 6786 615 
4091 8376 5224
4092 1851 3189
4093 8697 3647
4094 8296 3040
4095 3311 3072
4096 5776 7554
4097 7558 9913
4098 2490 2238
4099 1800 6512
4100 9546 9698
4101 5800 4522
4102 6168 4408
4103 653  5586
4104 4267 5528
4105 5305 1160
4106 6811 9244
4107 6595 7404
4108 7125 6779
4109 6865 5533
4110 3194 4962
4111 2207 886 
4112 7655 9546
4113 3655 8918
4114 9582 4872
4115 5527 1299
4116 6844 7455
4117 974  7967
4118 200  8171
4119 726  2673
4120 1576 7284
4121 5896 7667
4122 3893 7504
4123 7823 8516
4124 6587 3394
4125 6982 9040
4126 158  6744
4127 5130 5122
4128 222  3323
4129 7399 4771
4130 2304 4149
4131 3781 3882
4132 6869 5248
4133 8793 8248
4134 1245 6561
4135 3321 9600
4136 367  2955
4137 6542 9646
4138 2796 9654
4139 2131 2492
4140 7832 9415
4141 5994 4711
4142 3305 2819
4143 1535 8374
4144 7120 3680
4145 2678 8733
4146 1686 7165
4147 4309 7481
4148 8029 9725
4149 7685 8112
4150 1998 30  
4151 5397 3164
4152 9656 7888
4153 1144 325 
4154 9554 8814
4155 9979 8371
4156 3598 3372
4157 9137 825 
4158 2307 5523
4159 8515 8742
4160 3958 8957
4161 4051 8020
4162 4581 3165
4163 5033 5113
4164 6129 3951
4165 4493 7352
4166 5344 6292
4167 2656 654 
4168 7886 6617
4169 9202 6276
4170 700  9288
4171 5923 9320
4172 9476 4568
4173 1403 7135
4174 1669 9474
4175 164  6526
4176 7746 3571
4177 586  5508
4178 7335 3098
4179 7306 6929
4180 6615 9596
4181 3153 2976
4182 5924 6832
4183 4509 2711
4184 2950 8429
4185 8229 8987
4186 1695 4066
4187 7680 3232
4188 814  3327
4189 9698 2002
4190 6170 6441
4191 8725 4803
4192 6873 5947
4193 2090 544 
4194 3854 1204
4195 374  7541
4196 302  9706
4197 7798 4728
4198 725  9877
4199 6382 5246
4200 2114 4981
4201 1243 4173
4202 7560 2356
4203 7555 6547
4204 8036 4404
4205 2374 8794
4206 6821 6429
4207 865  2036
4208 8948 9859
4209 5585 960 
4210 1767 6308
4211 4208 4160
4212 3212 9169
4213 4254 8478
4214 7654 9711
4215 8598 7423
4216 5546 1257
4217 1095 279 
4218 8936 2873
4219 8883 5094
4220 9902 3123
4221 5974 4241
4222 9310 5367
4223 609  5169
4224 6797 3014
4225 111  4491
4226 488  1011
4227 2856 7451
4228 6930 85  
4229 7251 6332
4230 2719 4969
4231 8757 6615
4232 137  5814
4233 1858 8564
4234 8193 2724
4235 3118 2630
4236 2782 7208
4237 4185 3923
4238 7371 6107
4239 3040 6070
4240 3036 2494
4241 3093 9856
4242 5932 8955
4243 9734 3837
4244 3737 1201
4245 9036 7692
4246 2931 7416
4247 5559 9408
4248 5433 1953
4249 9823 5474
4250 903  6749
4251 489  2918
4252 1755 1353
4253 8343 8694
4254 824  3824
4255 518  7264
4256 6509 3645
4257 9124 726 
4258 2754 8632
4259 6096 8824
4260 8021 9107
4261 2710 984 
4262 1563 7512
4263 1652 4769
4264 7683 5387
4265 5468 1667
4266 2578 9191
4267 9593 6477
4268 8338 4349
4269 774  6644
4270 4868 89  
4271 860  7200
4272 1484 1686
4273 5427 2718
4274 7893 9454
4275 8431 7299
4276 6794 3053
4277 57   9433
4278 3851 7318
4279 3440 8692
4280 9377 1693
4281 4401 774 
4282 42   8612
4283 4000 4654
4284 2509 7717
4285 7311 1674
4286 2689 2738
4287 413  9633
4288 6929 9923
4289 304  5472
4290 7600 39  
4291 725  2521
4292 6129 5256
4293 9346 9427
4294 9472 2005
4295 5926 9405
4296 9082 5399
4297 220  4354
4298 183  4494
4299 407  2261
4300 9479 5375
4301 3581 8656
4302 1699 846 
4303 1487 6107
4304 9975 6085
4305 6652 4900
4306 2178 7486
4307 933  8327
4308 4908 4868
4309 8896 9168
4310 5277 1210
4311 2803 308 
4312 1195 4036
4313 6774 8315
4314 8933 6188
4315 2656 1554
4316 3341 5723
4317 9583 4201
4318 6504 5317
4319 6792 2959
4320 3087 6124
4321 2287 5945
4322 8781 3588
4323 3805 703 
4324 1255 5203
4325 5915 2410
4326 1553 5301
4327 1711 9234
4328 9885 665 
4329 9721 9763
4330 4107 5488
4331 3868 2098
4332 3943 7354
4333 2989 6115
4334 7451 5266
4335 6737 5982
4336 7925 3496
4337 4223 8717
4338 257  5491
4339 8573 6328
4340 8190 1028
4341 821  7698
4342 5060 573 
4343 5333 4719
4344 9101 3416
4345 4232 6582
4346 2625 6766
4347 5399 4436
4348 8480 6918
4349 5592 4577
4350 743  1526
4351 7857 5819
4352 680  8921
4353 3346 5494
4354 4785 9702
4355 6172 4272
4356 2866 15  
4357 1776 926 
4358 339  1329
4359 8565 9405
4360 2668 2483
4361 4972 4498
4362 6400 2282
4363 8577 9085
4364 7697 239 
4365 2212 3584
4366 6674 6976
4367 719  3907
4368 7467 1705
4369 5750 720 
4370 7861 9534
4371 8164 8090
4372 9657 2944
4373 3960 621 
4374 8204 894 
4375 1211 1067
4376 5065 3858
4377 7874 816 
4378 759  7120
4379 9428 4824
4380 5913 4901
4381 6360 848 
4382 7001 3328
4383 1030 4855
4384 8942 3712
4385 3459 3014
4386 1253 8182
4387 4544 7614
4388 8774 8817
4389 7189 14  
4390 4820 1783
4391 4711 1518
4392 939  766 
4393 7790 2494
4394 2368 6222
4395 7868 7528
4396 3561 2429
4397 4777 6128
4398 3113 4555
4399 2332 2433
4400 4257 1756
4401 1094 8346
4402 8544 7965
4403 7246 4875
4404 4555 1287
4405 4626 3234
4406 612  1700
4407 1395 4283
4408 2208 2726
4409 6123 9882
4410 6002 5788
4411 2392 5591
4412 3668 8101
4413 1092 1857
4414 8392 2789
4415 5895 1237
4416 1148 8079
4417 5331 8704
4418 1765 7415
4419 2726 1530
4420 3465 2682
4421 7821 6145
4422 7445 3481
4423 9096 8280
4424 1006 8262
4425 2241 7434
4426 1260 9693
4427 5097 1613
4428 1999 8854
4429 5547 8062
4430 2310 1355
4431 1226 719 
4432 3994 7857
4433 7792 7252
4434 7083 8018
4435 347  3906
4436 4642 2395
4437 2894 4520
4438 5161 6298
4439 5443 2351
4440 4618 8753
4441 7000 3534
4442 5516 5828
4443 2002 5478
4444 1422 3296
4445 7733 4946
4446 6248 5871
4447 9570 4774
4448 3371 9544
4449 2373 4824
4450 3427 7157
4451 1190 7043
4452 4424 8626
4453 5767 362 
4454 8724 4499
4455 81   4782
4456 6439 3234
4457 3260 2826
4458 78   8153
4459 9002 4460
4460 6687 113 
4461 8368 4949
4462 826  2512
4463 2294 6559
4464 9593 4810
4465 8996 1066
4466 7760 8639
4467 4862 1012
4468 4696 3835
4469 7471 6549
4470 8172 3429
4471 6013 6639
4472 7976 4484
4473 1319 4521
4474 106  2920
4475 6053 7781
4476 1852 8400
4477 4545 9808
4478 6624 4205
4479 5748 8928
4480 9693 8868
4481 5394 8384
4482 1374 5402
4483 177  3904
4484 4687 8693
4485 2702 2855
4486 1273 3034
4487 5764 9781
4488 6217 4249
4489 7545 6014
4490 1305 3391
4491 9267 474 
4492 3242 1326
4493 4433 249 
4494 7108 707 
4495 1466 7018
4496 8315 4319
4497 9609 9176
4498 1898 8246
4499 6322 3124
4500 3112 8815
4501 9571 7993
4502 1851 8276
4503 8687 1500
4504 1055 8620
4505 4721 8856
4506 1321 5195
4507 6741 80  
4508 2464 5725
4509 939  8295
4510 8769 5869
4511 3553 1070
4512 7833 1081
4513 479  4496
4514 6659 9395
4515 2064 1689
4516 8269 6782
4517 8128 5890
4518 292  1117
4519 703  2173
4520 6020 9449
4521 6137 4267
4522 6889 5839
4523 8542 1998
4524 6795 2367
4525 6385 8935
4526 2000 609 
4527 8135 9828
4528 960  4454
4529 3480 7810
4530 851  7658
4531 4475 9826
4532 9844 2542
4533 9735 9326
4534 7877 5862
4535 5511 4422
4536 1700 8208
4537 1929 1669
4538 9221 1276
4539 68   4318
4540 2395 3969
4541 4025 6289
4542 4501 8860
4543 5942 8303
4544 7010 6634
4545 6237 6584
4546 8779 2709
4547 6991 4826
4548 5662 5019
4549 4473 413 
4550 6122 7144
4551 1208 5053
4552 75   3748
4553 283  7054
4554 2730 4497
4555 8924 3133
4556 1406 8724
4557 4278 1050
4558 5157 4594
4559 2453 4855
4560 878  8379
4561 988  3456
4562 3170 5871
4563 2049 5245
4564 1041 752 
4565 2245 7761
4566 2150 7797
4567 5834 8602
4568 5957 5340
4569 5164 1140
4570 2995 4442
4571 4721 4315
4572 6313 5932
4573 4245 7507
4574 7059 63  
4575 942  7466
4576 9445 3406
4577 1601 9957
4578 23   8687
4579 5395 1430
4580 1078 1500
4581 2589 7129
4582 2461 345 
4583 6239 3484
4584 2827 9003
4585 1549 9678
4586 6691 8114
4587 6137 2208
4588 5639 2513
4589 2172 7289
4590 8538 4300
4591 7340 6632
4592 3484 4837
4593 9235 434 
4594 7075 6988
4595 7345 4413
4596 7437 7225
4597 9490 5777
4598 2383 1866
4599 1824 7057
4600 4552 8286
4601 3962 2366
4602 3884 6154
4603 3160 3412
4604 8671 8796
4605 2699 8877
4606 2687 477 
4607 2200 5917
4608 1226 519 
4609 614  1588
4610 8776 4915
4611 7405 5031
4612 8348 6388
4613 9299 5430
4614 5978 396 
4615 9406 1030
4616 8203 5520
4617 9990 7283
4618 5263 3832
4619 2247 5761
4620 2818 2056
4621 8813 890 
4622 205  5510
4623 9744 9427
4624 1116 1740
4625 5315 2638
4626 5415 5123
4627 6593 1205
4628 7667 4287
4629 7097 2353
4630 6165 7100
4631 978  1093
4632 5105 9205
4633 1687 9749
4634 4553 5183
4635 5097 3846
4636 4227 6551
4637 6361 1459
4638 9327 7423
4639 7556 8795
4640 4424 7156
4641 7303 883 
4642 4858 3461
4643 6042 3853
4644 1545 371 
4645 5424 9971
4646 9079 6718
4647 2028 1914
4648 6489 6380
4649 441  5836
4650 5598 19  
4651 5353 3640
4652 8702 6105
4653 5888 7265
4654 4518 8135
4655 8855 3615
4656 7892 9464
4657 5270 3209
4658 1890 7769
4659 113  9676
4660 3124 3813
4661 4887 4795
4662 1503 2270
4663 1112 8768
4664 8135 3010
4665 647  6883
4666 3675 658 
4667 9137 4843
4668 6950 320 
4669 8664 1634
4670 6370 3490
4671 4279 2956
4672 428  5495
4673 6149 5751
4674 1301 4079
4675 6032 9502
4676 468  1631
4677 443  299 
4678 6026 535 
4679 84   559 
4680 3216 5080
4681 7277 437 
4682 5332 9595
4683 8918 3061
4684 7648 3483
4685 3442 1752
4686 126  3433
4687 6221 1391
4688 3851 1750
4689 4507 6992
4690 8464 3699
4691 501  999 
4692 3885 3563
4693 580  4774
4694 5717 2019
4695 1232 5084
4696 4148 2884
4697 1841 78  
4698 9554 2698
4699 6691 3237
4700 378  2392
4701 3674 9193
4702 3986 8669
4703 938  1646
4704 6364 7585
4705 2187 2279
4706 2856 4803
4707 5478 3430
4708 7904 2323
4709 6476 1095
4710 9253 530 
4711 604  520 
4712 1267 376 
4713 4940 5714
4714 1375 7761
4715 3085 5300
4716 379  6388
4717 9324 4097
4718 1950 244 
4719 1141 6665
4720 4488 7517
4721 7788 5776
4722 4157 7022
4723 7717 4764
4724 3187 6526
4725 8261 2723
4726 8425 8238
4727 8338 6316
4728 3839 4807
4729 2109 9918
4730 8304 9385
4731 912  2240
4732 7267 4445
4733 3832 9270
4734 783  9038
4735 6998 5204
4736 2074 7126
4737 4456 3998
4738 2645 7014
4739 443  3648
4740 5780 9847
4741 2687 6482
4742 7630 5446
4743 555  6903
4744 7021 6524
4745 4784 8416
4746 7174 12  
4747 3156 4497
4748 1272 5706
4749 9762 6724
4750 1695 4134
4751 4945 7232
4752 5197 1722
4753 9300 1867
4754 9139 9004
4755 1972 2409
4756 8066 2673
4757 1661 7954
4758 944  2596
4759 5795 9143
4760 8479 9070
4761 1197 9658
4762 3313 7715
4763 4384 6793
4764 4617 8243
4765 9906 1721
4766 5733 395 
4767 5602 1183
4768 2632 790 
4769 1681 7104
4770 2871 3933
4771 9961 4268
4772 6071 7652
4773 8677 7440
4774 7660 3347
4775 1183 8922
4776 8935 9604
4777 857  8224
4778 2322 9533
4779 4512 3551
4780 7907 9191
4781 3935 5150
4782 4163 3985
4783 8838 8431
4784 9304 6835
4785 6099 3580
4786 9711 985 
4787 8279 7734
4788 5893 2130
4789 5059 619 
4790 5645 1161
4791 7827 1610
4792 6034 6184
4793 3760 6668
4794 1982 9350
4795 3646 7457
4796 1843 6416
4797 5483 6441
4798 919  5896
4799 8278 1509
4800 3759 6987
4801 9293 6130
4802 86   5446
4803 1858 5935
4804 2499 327 
4805 9083 3830
4806 7853 2988
4807 848  996 
4808 6884 6866
4809 4413 5589
4810 6246 1438
4811 255  9112
4812 3943 1724
4813 1503 3043
4814 2663 9949
4815 6062 587 
4816 2763 8881
4817 1632 2511
4818 4810 4010
4819 1930 9383
4820 5373 4064
4821 5292 9701
4822 7061 6847
4823 8140 6974
4824 1952 5577
4825 5082 3590
4826 9154 9609
4827 5293 408 
4828 4038 5185
4829 2152 7452
4830 4818 2207
4831 5990 571 
4832 3103 1569
4833 1671 1155
4834 4866 5446
4835 5806 9700
4836 7702 5530
4837 1252 1068
4838 5145 5582
4839 2997 4618
4840 2677 2790
4841 7319 7815
4842 6902 288 
4843 3468 8104
4844 1739 358 
4845 4686 8534
4846 3532 9359
4847 8741 6987
4848 3984 8868
4849 1934 9362
4850 5862 6656
4851 4176 1845
4852 2284 5347
4853 8970 1086
4854 6982 9185
4855 843  1955
4856 1123 1771
4857 6642 6608
4858 1381 9236
4859 2320 2048
4860 9112 6658
4861 3681 9692
4862 5333 8556
4863 2592 4028
4864 6631 8948
4865 6934 2004
4866 6953 1581
4867 8441 7755
4868 1701 6660
4869 8922 2753
4870 216  2492
4871 5834 7385
4872 7461 8942
4873 9632 4145
4874 9550 2991
4875 4628 7091
4876 8523 6479
4877 4553 1944
4878 5886 8620
4879 6544 8516
4880 2954 6508
4881 6132 6400
4882 708  4472
4883 6650 1287
4884 9686 5830
4885 1394 9699
4886 243  3376
4887 8216 3995
4888 2829 9232
4889 5169 3225
4890 7150 4270
4891 5935 2916
4892 766  1348
4893 2249 191 
4894 3796 7793
4895 9856 8693
4896 5222 4070
4897 8479 1107
4898 2675 9543
4899 8929 1060
4900 8766 9328
4901 4023 7276
4902 9988 9739
4903 7785 9556
4904 8204 8920
4905 6356 829 
4906 4255 2019
4907 8709 5341
4908 3629 5178
4909 4182 5031
4910 9030 663 
4911 4580 1599
4912 6672 4326
4913 2281 3055
4914 9788 8733
4915 3954 5572
4916 7131 9203
4917 280  2095
4918 3192 4835
4919 835  6290
4920 9059 242 
4921 9288 2044
4922 361  9125
4923 6038 5532
4924 8857 5961
4925 2980 4476
4926 8020 1305
4927 2577 6291
4928 82   66  
4929 253  2399
4930 8373 8740
4931 1604 652 
4932 6341 3872
4933 4930 4079
4934 4783 4974
4935 9255 2850
4936 6182 5619
4937 6389 7488
4938 1084 3203
4939 5440 8876
4940 5247 1314
4941 6556 512 
4942 6815 7385
4943 2031 7396
4944 8162 8083
4945 5609 6753
4946 2102 7866
4947 5869 9850
4948 536  3716
4949 6901 159 
4950 740  6979
4951 3984 4143
4952 2819 9793
4953 7971 9121
4954 7144 8810
4955 2573 2353
4956 8575 8571
4957 6571 5819
4958 3234 1337
4959 6156 4874
4960 9760 4611
4961 7014 8879
4962 7262 8513
4963 4116 4185
4964 744  2388
4965 8234 2132
4966 698  1553
4967 3574 3036
4968 4157 3781
4969 8214 6325
4970 2945 8483
4971 8455 2176
4972 3012 6737
4973 892  5571
4974 5912 7886
4975 3756 991 
4976 4204 5195
4977 4741 6305
4978 9827 3660
4979 5547 8446
4980 5714 4965
4981 7081 4323
4982 9817 2982
4983 1091 8242
4984 8388 2902
4985 3745 4316
4986 4811 8379
4987 3974 3660
4988 8031 7134
4989 1163 4409
4990 6046 1336
4991 2354 8172
4992 4304 8508
4993 7178 3637
4994 9795 60  
4995 486  7512
4996 8525 1128
4997 5602 4425
4998 7306 7622
4999 1082 6102
5000 209  1314
5001 6920 5468
5002 2279 4956
5003 878  1204
5004 8865 6708
5005 4351 4197
5006 3134 5149
5007 9718 8157
5008 5066 2688
5009 7799 4859
5010 899  7591
5011 3224 6293
5012 6264 8020
5013 1972 7609
5014 9032 5709
5015 7414 7638
5016 729  3218
5017 2963 260 
5018 8371 8219
5019 9230 3597
5020 420  4025
5021 5750 1352
5022 2238 9541
5023 1816 1567
5024 1200 4524
5025 4835 616 
5026 3294 4060
5027 1851 6923
5028 347  197 
5029 9412 2453
5030 3230 2328
5031 7886 4406
5032 7827 8348
5033 6629 7824
5034 3846 6086
5035 3036 7351
5036 5326 7238
5037 802  3638
5038 7844 438 
5039 3692 6269
5040 1923 7844
5041 2797 4330
5042 1495 9413
5043 5057 6957
5044 6685 9695
5045 2641 4300
5046 6694 6381
5047 1537 8778
5048 4310 5214
5049 3806 3835
5050 3624 7190
5051 4811 7407
5052 266  6973
5053 1982 5741
5054 3857 7364
5055 6013 9692
5056 9127 9530
5057 7774 6179
5058 1600 6035
5059 367  9205
5060 9656 5402
5061 5973 2307
5062 1895 6361
5063 2206 2730
5064 2305 455 
5065 9278 1668
5066 5430 3882
5067 3041 9982
5068 7538 2698
5069 6926 5073
5070 5136 6207
5071 387  4970
5072 5113 390 
5073 9311 5164
5074 4909 5361
5075 7082 283 
5076 2319 851 
5077 1016 3168
5078 2157 2026
5079 7640 8073
5080 6821 702 
5081 4873 2645
5082 3218 5902
5083 4563 7259
5084 9960 6836
5085 2616 6817
5086 2135 9307
5087 9144 5237
5088 455  7849
5089 3431 6932
5090 1871 9068
5091 8411 9089
5092 7103 6205
5093 6891 1259
5094 8523 9023
5095 8014 2105
5096 651  9277
5097 4515 5917
5098 2399 9849
5099 4206 5492
5100 5307 6999
5101 1957 287 
5102 539  9011
5103 3119 3900
5104 7531 6969
5105 857  7561
5106 1768 8740
5107 3953 9746
5108 5518 8950
5109 8994 2908
5110 1920 5542
5111 6938 7333
5112 4078 149 
5113 3965 2200
5114 2334 8691
5115 183  7399
5116 3227 8320
5117 7937 6678
5118 5165 7651
5119 1859 9133
5120 4529 1245
5121 4147 9447
5122 1750 8790
5123 3018 18  
5124 71   8229
5125 1876 9542
5126 7415 5697
5127 4809 998 
5128 5799 6978
5129 6739 405 
5130 3647 358 
5131 5246 9045
5132 8707 1536
5133 9351 859 
5134 7522 3624
5135 5395 3888
5136 7525 6546
5137 4116 4113
5138 8028 4786
5139 5669 4127
5140 9756 1827
5141 3033 6413
5142 2237 3489
5143 7632 1750
5144 2264 9270
5145 9442 7396
5146 3308 3299
5147 546  6537
5148 7201 6391
5149 4363 6719
5150 4773 6924
5151 5777 9918
5152 8571 8755
5153 625  3629
5154 3737 8617
5155 5049 1404
5156 8191 2730
5157 8718 5136
5158 2393 9127
5159 2173 246 
5160 6655 6459
5161 1998 8751
5162 5722 8977
5163 301  6763
5164 2171 9402
5165 4726 8429
5166 8977 8327
5167 1084 381 
5168 5931 9814
5169 3189 4547
5170 6094 763 
5171 7356 6196
5172 7317 5418
5173 3676 7566
5174 3541 5991
5175 8343 3672
5176 2667 2758
5177 2209 7573
5178 4586 1640
5179 6255 9494
5180 5202 6787
5181 3030 184 
5182 9718 8505
5183 6732 194 
5184 5253 7017
5185 9920 5934
5186 3457 9005
5187 4114 3483
5188 4008 4148
5189 6887 2507
5190 5660 8314
5191 3372 2006
5192 1226 8777
5193 7615 4774
5194 7390 8303
5195 3120 5282
5196 1116 8328
5197 7296 9638
5198 6129 3415
5199 9314 1935
5200 4498 7880
5201 1927 2891
5202 9645 9386
5203 4123 4246
5204 8963 7522
5205 1197 7607
5206 9020 4977
5207 6319 153 
5208 2816 5011
5209 6206 8162
5210 3405 8047
5211 3996 5558
5212 65   1510
5213 7501 5438
5214 2923 3096
5215 66   5221
5216 3831 6694
5217 9422 9495
5218 4685 7468
5219 6905 1899
5220 5100 7444
5221 2542 7385
5222 4533 6088
5223 6820 9037
5224 4170 6382
5225 4421 9050
5226 2391 972 
5227 3623 5512
5228 8175 7567
5229 5233 678 
5230 8805 9099
5231 2826 6480
5232 5459 3300
5233 9249 5905
5234 2056 7316
5235 9666 4311
5236 4715 692 
5237 4475 3531
5238 9181 9112
5239 5423 5289
5240 2055 1974
5241 6306 5883
5242 2012 8371
5243 7251 5439
5244 107  4611
5245 2813 1281
5246 2357 543 
5247 7002 9194
5248 3446 8358
5249 9020 8838
5250 8525 5496
5251 4571 7050
5252 1794 1452
5253 9195 792 
5254 1173 1041
5255 1893 8387
5256 8497 4403
5257 4170 7556
5258 3174 3912
5259 3227 1516
5260 7240 9898
5261 7079 5592
5262 9739 6646
5263 923  3462
5264 831  2902
5265 2250 6894
5266 4178 1670
5267 9279 8790
5268 9447 9648
5269 1877 1990
5270 8688 1945
5271 1751 6566
5272 6312 1104
5273 256  3316
5274 666  9302
5275 4297 137 
5276 3502 596 
5277 6013 4496
5278 5129 9946
5279 286  9178
5280 1918 2880
5281 5859 5443
5282 7022 9197
5283 1257 1756
5284 9364 2954
5285 5560 6392
5286 5451 5845
5287 1410 8751
5288 1180 8261
5289 4367 6587
5290 9814 9561
5291 4080 1286
5292 8572 2603
5293 8575 4932
5294 9834 7975
5295 9636 5974
5296 1508 6965
5297 622  9335
5298 932  7166
5299 278  5792
5300 5090 1434
5301 9903 1005
5302 2403 214 
5303 643  4045
5304 6150 1450
5305 9518 7480
5306 1392 9079
5307 2698 1531
5308 9242 2599
5309 2480 3344
5310 6934 3757
5311 1460 7775
5312 1022 4936
5313 6270 5611
5314 9513 9144
5315 9698 955 
5316 8748 9123
5317 7534 3798
5318 7727 209 
5319 8486 1107
5320 320  8512
5321 396  9435
5322 2588 8080
5323 3815 699 
5324 8215 3912
5325 9973 4708
5326 9743 6185
5327 457  8506
5328 1124 317 
5329 6436 2759
5330 7313 6086
5331 9234 6476
5332 1003 2408
5333 141  4057
5334 9743 4458
5335 2464 2609
5336 5186 5199
5337 991  9684
5338 4866 3229
5339 7177 3585
5340 3239 4257
5341 4364 314 
5342 9361 6368
5343 6553 3399
5344 6125 5542
5345 343  9870
5346 6325 4831
5347 6875 6532
5348 5230 7354
5349 4573 6840
5350 8158 1651
5351 5516 1386
5352 4269 9428
5353 1098 7734
5354 6282 6019
5355 4615 7819
5356 4295 4347
5357 6292 3455
5358 4554 4531
5359 3360 9457
5360 6497 1939
5361 9886 7167
5362 9576 7976
5363 2685 5614
5364 2929 9552
5365 4305 9903
5366 1182 1996
5367 2200 3859
5368 5273 8292
5369 5236 9496
5370 7695 4646
5371 4449 9281
5372 1075 3570
5373 9131 2891
5374 8145 28  
5375 6669 7149
5376 5763 195 
5377 314  1469
5378 314  976 
5379 8263 3784
5380 4002 1723
5381 7038 1518
5382 1068 9575
5383 2000 5800
5384 5341 149 
5385 331  6272
5386 9842 1607
5387 1711 5323
5388 9578 1102
5389 3552 3211
5390 7372 9916
5391 4882 3051
5392 2394 5749
5393 7771 1633
5394 4922 9915
5395 5345 9836
5396 4689 9600
5397 7240 9312
5398 4596 9312
5399 2836 2886
5400 1039 807 
5401 65   1085
5402 4261 5315
5403 2472 441 
5404 4791 5662
5405 4191 7174
5406 8074 1995
5407 8824 1874
5408 9864 6371
5409 4364 1504
5410 4663 8209
5411 9744 7848
5412 8385 814 
5413 2217 5923
5414 979  2926
5415 6692 6256
5416 6919 6078
5417 5504 2768
5418 3678 1587
5419 4234 6083
5420 5265 4273
5421 1740 3074
5422 6185 4366
5423 254  8416
5424 6657 9305
5425 9645 8825
5426 9561 6616
5427 8975 4544
5428 4755 27  
5429 5568 3910
5430 9714 8169
5431 8157 8323
5432 5149 7663
5433 2172 773 
5434 5605 2762
5435 8893 4381
5436 1589 5813
5437 6517 411 
5438 5835 8284
5439 4088 4675
5440 1953 8968
5441 5466 7399
5442 9095 5078
5443 2661 1704
5444 765  4241
5445 4543 3334
5446 9169 8103
5447 8235 7973
5448 2459 3527
5449 5198 5946
5450 7705 2990
5451 6542 6761
5452 2121 6240
5453 7588 1673
5454 9199 343 
5455 4340 6841
5456 3853 5499
5457 1355 9751
5458 6576 911 
5459 8535 6331
5460 230  708 
5461 6189 8322
5462 5906 7884
5463 5920 181 
5464 7195 4507
5465 8048 708 
5466 8122 7035
5467 5075 3832
5468 5239 3738
5469 9205 4977
5470 6491 3170
5471 7703 9030
5472 7398 4442
5473 7836 8043
5474 4165 5362
5475 8910 902 
5476 7613 8429
5477 274  5951
5478 8290 5230
5479 2300 2182
5480 4337 5381
5481 9984 8275
5482 2610 6318
5483 6670 2488
5484 4372 9088
5485 2377 8471
5486 6991 3403
5487 4211 37  
5488 8572 8084
5489 1256 2600
5490 5980 8558
5491 3599 3844
5492 5750 9340
5493 8528 8077
5494 883  7839
5495 2811 4820
5496 1668 7155
5497 4658 8418
5498 5772 4781
5499 7952 4382
5500 2953 200 
5501 2168 9647
5502 7919 1469
5503 1634 6328
5504 4617 7174
5505 7317 8594
5506 9549 2592
5507 4658 4074
5508 3136 4801
5509 7066 795 
5510 8128 5945
5511 7455 9870
5512 6718 4962
5513 2391 5757
5514 6607 5181
5515 1897 6788
5516 3642 1333
5517 4776 6232
5518 6227 4914
5519 578  700 
5520 3258 1082
5521 2420 6805
5522 3642 5756
5523 3207 8786
5524 8314 5855
5525 4795 4209
5526 4459 9141
5527 5502 2340
5528 2783 3294
5529 7020 2183
5530 5773 2618
5531 7476 3390
5532 80   5334
5533 9554 7581
5534 6518 1028
5535 3309 3091
5536 8876 9   
5537 5937 8454
5538 4390 840 
5539 6184 4727
5540 7862 2006
5541 7792 9705
5542 3211 575 
5543 3875 4556
5544 8492 6790
5545 4653 3719
5546 7546 9124
5547 8241 3735
5548 6161 3557
5549 739  15  
5550 6599 1635
5551 3951 7799
5552 1156 1970
5553 3772 2743
5554 1763 1012
5555 3050 5336
5556 1296 4566
5557 338  7996
5558 8934 7981
5559 4241 282 
5560 3479 8281
5561 7973 734 
5562 566  995 
5563 3738 5006
5564 8627 1660
5565 2010 822 
5566 5547 8534
5567 7849 7229
5568 8513 2405
5569 5214 3813
5570 7887 809 
5571 1484 2205
5572 4539 5602
5573 758  9921
5574 8598 9377
5575 1824 5877
5576 1736 3521
5577 1574 7274
5578 7148 4900
5579 5422 9966
5580 4614 1430
5581 4684 4887
5582 9363 2588
5583 2571 5183
5584 4770 2123
5585 8445 5889
5586 6707 2144
5587 6904 3243
5588 3928 6731
5589 4576 642 
5590 2766 5930
5591 6904 8699
5592 7604 2433
5593 8073 7158
5594 3127 4291
5595 3701 6406
5596 3718 229 
5597 3792 4901
5598 4318 7477
5599 2830 5150
5600 401  4191
5601 2985 8785
5602 1133 2792
5603 628  1640
5604 1676 9437
5605 4320 6857
5606 9499 8393
5607 3204 9642
5608 2838 9976
5609 9208 3793
5610 5842 3631
5611 4465 6493
5612 6076 6267
5613 2314 6458
5614 8729 1814
5615 3780 747 
5616 1916 9458
5617 3813 4516
5618 4544 5006
5619 8895 5710
5620 4618 7125
5621 8935 6896
5622 5591 2074
5623 5690 2449
5624 6964 4882
5625 6701 3648
5626 2859 7463
5627 7617 4195
5628 1086 1882
5629 9798 380 
5630 3625 8821
5631 4985 3077
5632 2553 9433
5633 7255 1262
5634 9727 6434
5635 3334 5484
5636 3673 2280
5637 4656 5710
5638 7914 9224
5639 9839 3501
5640 3108 6076
5641 9127 1825
5642 9482 2352
5643 995  9364
5644 1867 8028
5645 2777 864 
5646 4167 5751
5647 3270 3504
5648 1218 391 
5649 4230 5990
5650 2815 585 
5651 5713 5693
5652 1009 7038
5653 1343 3409
5654 2313 1803
5655 5794 4163
5656 5003 4431
5657 5847 8845
5658 5335 8665
5659 9740 1941
5660 1347 1059
5661 5497 5170
5662 8958 2612
5663 1966 4344
5664 1984 6220
5665 5839 4907
5666 4765 8556
5667 9984 7235
5668 3262 4658
5669 3358 5368
5670 6310 1710
5671 5850 1144
5672 3756 4896
5673 6766 979 
5674 9974 9964
5675 2996 5026
5676 46   9421
5677 9692 2536
5678 9786 613 
5679 8097 2441
5680 2913 969 
5681 6102 6666
5682 5656 8469
5683 4029 4453
5684 2924 6504
5685 9958 2643
5686 7792 2726
5687 845  5729
5688 677  3071
5689 8911 7629
5690 2393 8830
5691 6063 6293
5692 1394 7195
5693 8548 1401
5694 6602 6913
5695 9219 1882
5696 609  2294
5697 6458 9178
5698 8232 7381
5699 3692 8945
5700 8574 2832
5701 166  1270
5702 7781 9595
5703 2057 7865
5704 6127 4625
5705 6227 9992
5706 9234 2112
5707 6890 639 
5708 447  7347
5709 3466 2317
5710 8802 9538
5711 7087 6148
5712 1239 249 
5713 4351 8636
5714 7542 2210
5715 6687 8658
5716 548  712 
5717 6471 3052
5718 135  4347
5719 2652 6997
5720 9711 2119
5721 9686 1096
5722 1801 6335
5723 293  6172
5724 6498 5838
5725 5542 2254
5726 617  2280
5727 6744 8240
5728 3900 7311
5729 9783 8143
5730 7960 2871
5731 8490 788 
5732 6650 6739
5733 3340 9858
5734 2575 4347
5735 4789 8981
5736 6364 9310
5737 7709 5910
5738 8408 7308
5739 5427 9677
5740 2150 2742
5741 4363 9964
5742 7044 1504
5743 2247 3892
5744 7607 7507
5745 2147 6796
5746 9088 7919
5747 1453 3428
5748 6627 7242
5749 803  6922
5750 2027 899 
5751 7071 2277
5752 5869 6749
5753 5322 4660
5754 7322 3152
5755 1832 5339
5756 1974 4106
5757 3178 8790
5758 1419 9200
5759 2992 7051
5760 6416 6379
5761 4346 5312
5762 4478 101 
5763 9206 9350
5764 6265 9301
5765 195  1476
5766 8740 7307
5767 2292 7499
5768 5871 7786
5769 9069 294 
5770 7811 1118
5771 5087 6774
5772 66   6191
5773 2304 2903
5774 5150 9082
5775 7097 9170
5776 7635 6266
5777 5396 1791
5778 6236 1097
5779 1794 5455
5780 2649 2472
5781 1477 7351
5782 8944 4679
5783 4402 970 
5784 2800 9937
5785 7344 8358
5786 3778 2077
5787 4883 1897
5788 9615 1371
5789 1645 6423
5790 1477 7512
5791 2857 5335
5792 547  6047
5793 9548 3569
5794 6243 8646
5795 6301 1049
5796 9839 2478
5797 9362 2142
5798 8532 9074
5799 8374 288 
5800 5190 1605
5801 9682 2155
5802 3012 1000
5803 1205 1659
5804 7098 6784
5805 8868 9583
5806 9723 3065
5807 7417 5421
5808 6030 5487
5809 5883 4676
5810 966  3628
5811 6812 8217
5812 9007 4205
5813 6571 8036
5814 2434 8646
5815 160  5998
5816 7446 1617
5817 8881 8061
5818 9805 8624
5819 2909 8843
5820 2742 3123
5821 5079 5173
5822 8148 5139
5823 1131 6008
5824 1750 6910
5825 7918 8132
5826 2128 904 
5827 6899 8357
5828 2858 7194
5829 139  5650
5830 2133 9683
5831 5890 4329
5832 7099 1973
5833 4071 9604
5834 2999 5091
5835 1050 1215
5836 1908 3368
5837 7109 7997
5838 309  1780
5839 3032 5992
5840 5179 8494
5841 6585 8594
5842 1954 2196
5843 9204 4587
5844 4793 2764
5845 4446 8381
5846 9013 8777
5847 9184 1040
5848 3782 8503
5849 4073 1284
5850 2161 6135
5851 7185 4122
5852 3773 731 
5853 7106 272 
5854 8281 208 
5855 6500 7955
5856 8868 4782
5857 3646 5662
5858 5094 9819
5859 6559 1219
5860 3460 8095
5861 141  5781
5862 118  8436
5863 257  6133
5864 183  6003
5865 8349 9905
5866 7421 339 
5867 1620 6168
5868 4509 4467
5869 1380 8464
5870 9251 969 
5871 3894 7026
5872 525  424 
5873 4160 2331
5874 502  9691
5875 4592 1250
5876 3492 3822
5877 1931 6013
5878 4560 8545
5879 1535 7116
5880 4795 7979
5881 5733 8545
5882 8954 173 
5883 8793 8374
5884 5792 8695
5885 2152 5380
5886 1712 3048
5887 4346 6499
5888 1715 5164
5889 2761 2910
5890 3634 5653
5891 3049 1523
5892 7923 5266
5893 2720 5152
5894 8748 2253
5895 618  5712
5896 4318 7657
5897 8488 9428
5898 1028 4269
5899 2711 3497
5900 8003 562 
5901 8579 8009
5902 3449 4283
5903 4849 9112
5904 9011 621 
5905 3883 2191
5906 4119 7341
5907 4458 7082
5908 5703 1350
5909 8142 6738
5910 602  7583
5911 3765 2064
5912 2041 2420
5913 5740 9596
5914 6846 6357
5915 6989 7940
5916 8129 7931
5917 3261 3786
5918 6725 2829
5919 7523 3324
5920 3435 3931
5921 9137 2982
5922 2872 942 
5923 4554 8629
5924 8054 7538
5925 8746 6529
5926 7774 862 
5927 1240 3969
5928 6894 9353
5929 2443 5548
5930 5641 1913
5931 564  8566
5932 773  7973
5933 5019 6549
5934 1487 5832
5935 946  223 
5936 8308 4356
5937 3368 2085
5938 2917 8543
5939 8750 4294
5940 1344 8880
5941 7485 6949
5942 6186 2786
5943 9920 7382
5944 9688 3155
5945 3672 637 
5946 6749 1149
5947 5707 139 
5948 2678 9773
5949 1111 6001
5950 5165 7886
5951 5695 7813
5952 5769 7939
5953 1893 7828
5954 2985 7154
5955 5860 842 
5956 7685 6341
5957 141  8248
5958 8872 822 
5959 1123 1953
5960 1396 8340
5961 4079 38  
5962 1330 5441
5963 4987 8406
5964 3288 767 
5965 2478 6972
5966 7115 42  
5967 8334 3237
5968 9367 5873
5969 6329 8929
5970 8037 640 
5971 9801 8018
5972 9411 6170
5973 6660 4957
5974 9082 4373
5975 9254 6153
5976 2402 124 
5977 2548 8387
5978 7631 9721
5979 9530 2844
5980 7872 4332
5981 2523 7396
5982 2831 5927
5983 4182 8131
5984 9674 3679
5985 3071 8550
5986 2177 1987
5987 7955 851 
5988 4491 2718
5989 2074 8832
5990 4807 440 
5991 1831 2244
5992 6625 230 
5993 9165 4605
5994 1593 3522
5995 5983 2334
5996 8480 6978
5997 6266 6604
5998 4243 7989
5999 7826 5920
6000 9196 3713
6001 3476 3285
6002 7190 9775
6003 5872 893 
6004 9912 1825
6005 9260 8137
6006 7865 796 
6007 9334 1278
6008 2007 9098
6009 2609 2023
6010 2019 5111
6011 6354 3685
6012 7957 6333
6013 7443 6715
6014 5800 6868
6015 5477 9422
6016 5100 2910
6017 4378 2609
6018 8925 2915
6019 3699 8756
6020 843  5843
6021 924  2821
6022 4292 4202
6023 4213 8820
6024 5528 3763
6025 2403 5048
6026 4716 2830
6027 3689 7233
6028 979  4646
6029 2117 6897
6030 1839 2997
6031 3517 1175
6032 5139 5068
6033 7213 5159
6034 5277 9432
6035 143  7016
6036 1092 3861
6037 5944 1942
6038 6772 8624
6039 9908 7469
6040 3394 2746
6041 5756 2751
6042 1175 4414
6043 1858 7932
6044 3881 2228
6045 9121 9719
6046 6750 5716
6047 4049 8314
6048 3137 7969
6049 7485 9617
6050 9514 3332
6051 5637 7056
6052 6617 4678
6053 9109 6685
6054 6398 6276
6055 4132 5587
6056 2747 4591
6057 9116 278 
6058 8833 2628
6059 216  4160
6060 5076 2385
6061 9453 1600
6062 8772 1063
6063 5615 6093
6064 340  633 
6065 8309 1986
6066 2187 918 
6067 5086 7094
6068 5093 3438
6069 9695 5368
6070 1507 3416
6071 5929 1613
6072 6858 2792
6073 3028 6840
6074 7656 3777
6075 197  1286
6076 9114 5299
6077 6808 4959
6078 6763 8525
6079 9423 8844
6080 3481 4850
6081 5168 9910
6082 4789 3813
6083 5049 9687
6084 9427 2694
6085 8216 8763
6086 8001 1902
6087 132  9243
6088 6635 8122
6089 1877 4287
6090 7180 3697
6091 2793 2373
6092 9944 3467
6093 2559 6261
6094 1680 2925
6095 3632 4583
6096 8273 7539
6097 1397 4890
6098 8120 1447
6099 2537 3695
6100 201  633 
6101 2535 5897
6102 5971 6236
6103 8979 3283
6104 1721 9842
6105 6368 9582
6106 5356 6547
6107 7074 6433
6108 4698 5577
6109 787  9836
6110 9552 2650
6111 8810 7777
6112 6386 949 
6113 4472 6302
6114 9804 5268
6115 4772 9938
6116 5934 6962
6117 4923 781 
6118 1097 9194
6119 2646 6542
6120 1791 6997
6121 1224 952 
6122 8049 9289
6123 2103 721 
6124 6707 5403
6125 435  2203
6126 5751 8366
6127 7579 9924
6128 7082 2529
6129 3065 2659
6130 8160 1730
6131 5765 2883
6132 4468 4931
6133 5041 6849
6134 4756 5565
6135 8763 3390
6136 1615 4019
6137 1844 7023
6138 1092 5024
6139 6533 6217
6140 3126 3860
6141 8924 5355
6142 668  8055
6143 338  8558
6144 7588 4100
6145 2433 5585
6146 2972 8022
6147 8871 7481
6148 4852 9149
6149 5158 5118
6150 1671 3222
6151 6407 4573
6152 393  3483
6153 5344 6026
6154 6798 372 
6155 577  3616
6156 2029 6015
6157 1322 9974
6158 2088 5540
6159 5485 9003
6160 2046 8801
6161 1143 4266
6162 5795 1965
6163 9227 4264
6164 9032 289 
6165 7137 5604
6166 7073 1316
6167 2586 1794
6168 3042 2368
6169 9467 8548
6170 3701 9605
6171 3446 4669
6172 9691 1827
6173 1454 6585
6174 9465 8115
6175 1803 1975
6176 9478 482 
6177 5995 6779
6178 3113 3789
6179 4136 5154
6180 3616 6452
6181 7748 2440
6182 1659 3474
6183 952  3973
6184 7453 3180
6185 4114 2237
6186 8307 5315
6187 7383 2340
6188 1829 8452
6189 1466 9908
6190 5945 1605
6191 5482 4334
6192 4052 4873
6193 1594 817 
6194 7066 3594
6195 4834 9477
6196 7764 5252
6197 7078 2025
6198 2739 9097
6199 4810 203 
6200 844  7175
6201 1746 7291
6202 1695 5402
6203 9924 3053
6204 1878 3972
6205 8324 9955
6206 5573 1855
6207 4699 846 
6208 9727 3473
6209 3612 8450
6210 2960 1478
6211 6309 5604
6212 8994 2012
6213 170  3719
6214 5074 5073
6215 3415 7584
6216 2603 9710
6217 7821 3603
6218 6810 3815
6219 7672 4192
6220 8108 9160
6221 9377 7637
6222 9167 2529
6223 9914 4223
6224 4278 7044
6225 4251 1488
6226 7649 869 
6227 1832 1799
6228 8457 1124
6229 9733 3798
6230 9566 2361
6231 5053 1295
6232 3264 1309
6233 419  6862
6234 5341 8637
6235 3244 4411
6236 9031 4410
6237 5433 8260
6238 7633 6590
6239 805  9397
6240 2036 6726
6241 1518 4040
6242 5102 2795
6243 3902 9370
6244 5929 3170
6245 2244 6212
6246 1596 769 
6247 4478 3600
6248 3647 9890
6249 3030 3942
6250 5056 7294
6251 9377 8066
6252 5076 4204
6253 4426 8203
6254 3319 8872
6255 9175 7650
6256 2221 7475
6257 5267 4650
6258 956  2694
6259 3968 2850
6260 6466 4105
6261 4822 5206
6262 9595 6009
6263 5820 4393
6264 4642 1376
6265 8966 3929
6266 153  2624
6267 1228 5342
6268 6544 719 
6269 838  5654
6270 8929 2282
6271 9767 6204
6272 6715 6943
6273 6503 5003
6274 6785 2567
6275 5608 9316
6276 5624 8082
6277 744  6007
6278 2867 5734
6279 6417 5109
6280 5480 8648
6281 423  3914
6282 9213 6147
6283 3907 2769
6284 3868 3160
6285 1588 7543
6286 609  7993
6287 444  3371
6288 2510 2596
6289 2254 82  
6290 255  8052
6291 691  2807
6292 5995 472 
6293 4282 2139
6294 377  9489
6295 2504 3756
6296 6561 7440
6297 1196 9752
6298 6573 7329
6299 7042 3696
6300 1349 6015
6301 7240 4706
6302 1675 2655
6303 5915 2285
6304 9058 4727
6305 3888 182 
6306 7142 889 
6307 5462 4415
6308 5146 8780
6309 3344 5707
6310 2892 8513
6311 2397 7538
6312 271  9058
6313 2811 2296
6314 8081 7498
6315 7771 8938
6316 2159 7684
6317 5949 3172
6318 2889 4870
6319 3177 3975
6320 1576 7086
6321 8135 2101
6322 2859 5259
6323 1204 3682
6324 4686 2852
6325 374  4389
6326 5295 4134
6327 3220 8435
6328 7669 5612
6329 6059 3065
6330 3372 9532
6331 9676 648 
6332 4891 7293
6333 6314 4287
6334 1778 4470
6335 1039 6200
6336 9745 425 
6337 4985 4479
6338 9629 7891
6339 6421 2882
6340 181  7133
6341 4060 4547
6342 9832 7413
6343 9394 5284
6344 3919 5675
6345 7828 7081
6346 9715 2883
6347 9557 8241
6348 6862 7618
6349 5792 8801
6350 9351 922 
6351 1945 4691
6352 56   3493
6353 6636 1548
6354 3562 4206
6355 34   6168
6356 3321 1672
6357 8130 9902
6358 59   1507
6359 5546 7657
6360 7060 6764
6361 9227 4574
6362 7838 4308
6363 9149 4281
6364 8378 3020
6365 3652 785 
6366 3604 1244
6367 6717 9348
6368 3135 2590
6369 9050 185 
6370 1134 2315
6371 8111 4411
6372 3933 3793
6373 5420 4526
6374 4225 4729
6375 1916 9904
6376 1150 8706
6377 4779 3523
6378 124  9064
6379 6462 331 
6380 3171 1682
6381 9348 8396
6382 1414 1496
6383 3153 7351
6384 3723 420 
6385 6051 7670
6386 3771 5583
6387 5130 8166
6388 1028 2553
6389 3915 4853
6390 9481 12  
6391 5021 4221
6392 8123 5109
6393 6917 5139
6394 7795 3788
6395 2459 5634
6396 379  930 
6397 2837 3969
6398 6506 4294
6399 8695 738 
6400 6882 3082
6401 283  2320
6402 4613 3128
6403 6291 1462
6404 9194 4759
6405 8249 2568
6406 1211 2205
6407 2726 8420
6408 1000 5293
6409 9325 9296
6410 2976 5349
6411 5009 4313
6412 6869 4690
6413 2328 4904
6414 4811 2821
6415 4501 577 
6416 2465 5936
6417 9330 6788
6418 4821 1160
6419 9229 2384
6420 3369 4874
6421 15   2057
6422 6748 6439
6423 3815 7298
6424 292  3370
6425 4683 3965
6426 5896 4489
6427 8375 9070
6428 228  9186
6429 1781 9965
6430 358  942 
6431 831  3549
6432 8594 1475
6433 189  2280
6434 688  8962
6435 1089 4143
6436 8095 3931
6437 1154 8333
6438 7961 7163
6439 5721 1518
6440 4200 486 
6441 3198 8402
6442 5735 3829
6443 250  9300
6444 7055 6647
6445 8038 4454
6446 9047 8157
6447 1654 5712
6448 7844 6591
6449 2752 354 
6450 2739 1352
6451 8085 6048
6452 2137 3250
6453 4546 5963
6454 6466 9258
6455 151  2531
6456 5338 2283
6457 3422 6783
6458 7738 8184
6459 9396 5452
6460 3884 2202
6461 2045 8105
6462 2830 3515
6463 2205 9710
6464 7922 2984
6465 8200 9553
6466 8108 8072
6467 8652 5442
6468 8362 3268
6469 8550 6982
6470 8171 4223
6471 77   6950
6472 7611 4625
6473 7350 8011
6474 292  212 
6475 9357 6453
6476 8955 7523
6477 6582 1444
6478 6924 5092
6479 5270 39  
6480 8216 1432
6481 2080 9348
6482 1199 5299
6483 712  7310
6484 5535 2429
6485 1287 1359
6486 6602 177 
6487 9038 7091
6488 4702 1460
6489 4280 3365
6490 796  2614
6491 8619 3830
6492 408  3662
6493 8015 1222
6494 863  8813
6495 4907 7604
6496 8270 8206
6497 2906 7280
6498 2647 1916
6499 6601 7401
6500 4801 2895
6501 9382 9364
6502 9696 6214
6503 6843 2440
6504 8339 8810
6505 961  8885
6506 1456 5541
6507 8137 1154
6508 398  1991
6509 8267 3331
6510 7382 6899
6511 9803 1812
6512 2206 3812
6513 1728 477 
6514 6811 7959
6515 9767 1498
6516 4874 5226
6517 4557 8357
6518 2853 6648
6519 4566 3310
6520 6456 2521
6521 6563 2463
6522 5591 9038
6523 5395 6925
6524 9315 7288
6525 1659 577 
6526 1298 7222
6527 8991 6884
6528 9171 7943
6529 4289 5136
6530 7594 2683
6531 2403 3261
6532 2641 4177
6533 654  4060
6534 8240 2053
6535 4398 9854
6536 6764 9306
6537 5098 8678
6538 7248 8957
6539 913  6619
6540 9054 9080
6541 5168 3562
6542 285  3165
6543 150  6829
6544 7217 2378
6545 2694 1411
6546 4680 9203
6547 7869 5731
6548 5874 7615
6549 7241 761 
6550 9350 132 
6551 3917 5665
6552 9567 5011
6553 3873 4112
6554 9295 7420
6555 4161 1926
6556 5484 5417
6557 2110 6983
6558 4899 5349
6559 5560 4777
6560 8630 9368
6561 5233 3975
6562 6131 9255
6563 1107 5774
6564 2624 6667
6565 2799 989 
6566 8017 7651
6567 9011 2   
6568 6833 7693
6569 8763 3421
6570 3019 2090
6571 3639 7664
6572 6061 3704
6573 2330 4193
6574 5087 9860
6575 4982 8524
6576 1681 3936
6577 859  7545
6578 1989 8500
6579 471  152 
6580 5726 731 
6581 9594 2735
6582 1158 4267
6583 2751 8165
6584 9972 9985
6585 9039 5695
6586 2851 3038
6587 7619 5941
6588 3840 3654
6589 3410 5811
6590 133  640 
6591 7822 6670
6592 6604 1085
6593 7439 347 
6594 1690 6516
6595 2578 68  
6596 6427 721 
6597 88   8044
6598 6600 315 
6599 7821 6655
6600 8073 5531
6601 2859 9609
6602 9924 6679
6603 2864 6907
6604 6901 2832
6605 1578 1047
6606 2588 1767
6607 1569 2432
6608 5466 8825
6609 8590 6611
6610 7894 4272
6611 6979 4755
6612 2528 5027
6613 987  9865
6614 9710 1687
6615 3130 1069
6616 4064 3319
6617 189  3622
6618 6447 8859
6619 4300 4449
6620 115  2690
6621 8550 5914
6622 838  2064
6623 9908 7152
6624 3540 8186
6625 654  1919
6626 2998 7451
6627 1135 1575
6628 7837 4152
6629 1722 2378
6630 4583 4881
6631 5309 4814
6632 2054 8785
6633 4805 6395
6634 7931 6236
6635 5986 250 
6636 6654 763 
6637 7550 361 
6638 7783 4013
6639 18   731 
6640 9539 1781
6641 777  1194
6642 4418 9613
6643 7047 9904
6644 7836 4327
6645 4982 7872
6646 1353 7547
6647 9108 6133
6648 5214 5334
6649 928  5969
6650 1366 4563
6651 7335 933 
6652 9878 4445
6653 2080 6687
6654 6677 4664
6655 4921 4061
6656 4878 5745
6657 6141 5193
6658 1493 7548
6659 994  1653
6660 9157 5964
6661 3264 2599
6662 6908 9327
6663 4922 3749
6664 1283 6631
6665 2427 6978
6666 6069 4206
6667 7126 7128
6668 666  5530
6669 9004 3879
6670 7111 440 
6671 7633 1428
6672 6438 674 
6673 2192 3449
6674 8942 1155
6675 3494 2668
6676 9190 5306
6677 9041 2350
6678 9260 1096
6679 6774 13  
6680 2213 9489
6681 3101 7775
6682 197  749 
6683 7056 188 
6684 553  3697
6685 5463 5766
6686 7421 9210
6687 1998 246 
6688 4072 2082
6689 598  9189
6690 5536 6188
6691 57   9595
6692 7235 6599
6693 8342 8053
6694 9175 8851
6695 7051 8676
6696 6538 8036
6697 3839 3822
6698 1939 9925
6699 5642 47  
6700 2832 2805
6701 7108 6393
6702 3556 7224
6703 8796 6572
6704 7810 2236
6705 3634 2265
6706 5796 8942
6707 1527 110 
6708 3024 3904
6709 8542 1439
6710 5077 5264
6711 6948 5016
6712 5686 5350
6713 4096 4956
6714 3968 9679
6715 5362 450 
6716 5893 7921
6717 3085 7301
6718 6271 5868
6719 8200 4030
6720 22   2153
6721 1228 6468
6722 2504 4711
6723 6821 3323
6724 6604 6794
6725 1649 6861
6726 2963 2177
6727 8611 6116
6728 6366 8903
6729 2165 4621
6730 9349 8485
6731 5494 7894
6732 8886 3973
6733 304  9212
6734 8014 4780
6735 4957 9505
6736 9877 9829
6737 8799 1972
6738 137  6470
6739 9981 8389
6740 5893 6436
6741 6017 3311
6742 1825 2946
6743 8238 1854
6744 4867 8256
6745 3721 3637
6746 154  2557
6747 3255 2237
6748 8075 2114
6749 9587 7195
6750 902  4224
6751 1280 7025
6752 8195 9   
6753 5912 1485
6754 4609 252 
6755 581  9526
6756 715  5433
6757 7770 3609
6758 796  4351
6759 2620 4791
6760 3666 1998
6761 7708 7862
6762 2290 7997
6763 4683 4481
6764 9245 4035
6765 8933 2747
6766 6387 1534
6767 7956 6292
6768 6912 8632
6769 4337 7393
6770 7326 6877
6771 2186 9202
6772 4336 1627
6773 1150 2309
6774 8865 7924
6775 4015 4920
6776 7663 6718
6777 5521 6539
6778 7118 6118
6779 6264 7417
6780 9435 7687
6781 6164 604 
6782 7388 4571
6783 4965 7138
6784 1967 6371
6785 8420 2734
6786 8787 5998
6787 1226 9487
6788 7707 2370
6789 1198 9385
6790 4754 7979
6791 1623 5662
6792 4181 1717
6793 5248 1946
6794 2822 3004
6795 724  6399
6796 274  3854
6797 9448 8192
6798 2637 5818
6799 2710 8840
6800 3150 9813
6801 1112 2859
6802 9416 7333
6803 3713 9983
6804 6187 6704
6805 6563 389 
6806 2818 3654
6807 8038 5917
6808 514  5431
6809 762  939 
6810 3868 8332
6811 7058 5995
6812 6179 9947
6813 9884 8467
6814 1293 5611
6815 8608 8925
6816 3822 3228
6817 6380 9204
6818 8984 9874
6819 9009 9735
6820 1932 6413
6821 8577 7952
6822 9727 8869
6823 4176 1160
6824 1743 7181
6825 8198 3431
6826 2447 5173
6827 8080 1346
6828 6005 3423
6829 7830 8221
6830 9689 7176
6831 6676 8868
6832 3474 6366
6833 8493 7029
6834 1054 6572
6835 4917 4224
6836 3930 470 
6837 93   2219
6838 5131 5917
6839 6737 664 
6840 6712 6870
6841 6048 4150
6842 7369 2580
6843 7134 3656
6844 6505 8860
6845 6266 7135
6846 7285 1264
6847 4667 1855
6848 4782 5300
6849 1486 6557
6850 3286 1827
6851 1201 9852
6852 2082 9608
6853 2335 8400
6854 3590 479 
6855 7514 1385
6856 4613 5242
6857 3156 1971
6858 8935 5233
6859 1378 1529
6860 7487 9217
6861 7814 7369
6862 6279 9376
6863 5671 8315
6864 5351 6971
6865 1977 7571
6866 5718 4634
6867 9967 9569
6868 7964 8117
6869 3034 4102
6870 6650 1638
6871 3874 3652
6872 2745 786 
6873 5486 6020
6874 3817 8885
6875 6147 5630
6876 9481 3420
6877 2498 6295
6878 829  8673
6879 3323 2065
6880 7121 1612
6881 9743 6153
6882 7794 3561
6883 3547 1157
6884 5673 6790
6885 8517 8168
6886 1638 8462
6887 147  959 
6888 6555 3471
6889 1273 5658
6890 6711 0   
6891 1791 6455
6892 3605 9360
6893 7624 4091
6894 3420 647 
6895 8986 6387
6896 2744 1248
6897 3877 2635
6898 6568 1289
6899 910  250 
6900 3886 8832
6901 4281 4360
6902 1009 5394
6903 1143 5267
6904 62   9914
6905 6898 6902
6906 821  598 
6907 8304 9186
6908 845  3952
6909 492  2264
6910 6511 7196
6911 8789 324 
6912 874  532 
6913 5099 7214
6914 5539 4445
6915 1597 1742
6916 1672 8496
6917 9035 972 
6918 815  7084
6919 9442 4329
6920 6789 1574
6921 9829 915 
6922 1375 8844
6923 7886 27  
6924 5599 6765
6925 9664 1247
6926 5501 3043
6927 9929 8498
6928 5155 5914
6929 7513 585 
6930 5594 846 
6931 9819 1646
6932 6845 7027
6933 6644 2495
6934 7515 5036
6935 2567 5586
6936 7788 3480
6937 5979 1125
6938 590  5800
6939 1225 1018
6940 3051 9936
6941 6001 6950
6942 2074 6548
6943 1407 1842
6944 374  6371
6945 9170 640 
6946 3983 1558
6947 1582 5712
6948 2322 2617
6949 2331 5333
6950 3977 1973
6951 6468 7954
6952 6984 1033
6953 2053 2063
6954 7988 18  
6955 9305 4060
6956 386  5393
6957 6035 8402
6958 4567 8284
6959 473  4965
6960 2535 8493
6961 7944 4767
6962 3279 1035
6963 4831 5142
6964 4451 8521
6965 4526 4032
6966 3410 5586
6967 7025 1741
6968 4792 7413
6969 6551 3559
6970 1400 7967
6971 7402 3625
6972 9122 1840
6973 1147 9263
6974 2430 5271
6975 7498 6587
6976 7821 3336
6977 4395 9359
6978 6954 7682
6979 1863 8532
6980 1208 3773
6981 3422 15  
6982 5086 2670
6983 4527 8833
6984 5819 624 
6985 4642 3658
6986 3279 4071
6987 4961 572 
6988 6731 4846
6989 8580 4353
6990 8058 6560
6991 1984 1019
6992 7164 7138
6993 9726 9265
6994 2487 7438
6995 4658 8732
6996 7647 9086
6997 7691 7302
6998 8812 2467
6999 7057 4165
7000 599  3941
7001 1618 1059
7002 5595 5717
7003 1089 2895
7004 5758 4811
7005 9851 6087
7006 9828 2230
7007 7415 3180
7008 2051 7472
7009 1339 1283
7010 7779 3557
7011 8433 2067
7012 4676 3196
7013 9063 1583
7014 7010 3262
7015 8643 817 
7016 4352 3613
7017 3649 1217
7018 2724 2560
7019 2274 9392
7020 2292 1114
7021 6129 8457
7022 4315 242 
7023 3314 8548
7024 8179 7246
7025 8158 625 
7026 1346 3478
7027 9718 2375
7028 1989 2208
7029 2787 2589
7030 9219 9647
7031 8658 3629
7032 7400 2275
7033 8271 3607
7034 1150 5332
7035 388  657 
7036 1195 4096
7037 1758 3882
7038 9120 3461
7039 8249 7873
7040 4532 3400
7041 3692 1962
7042 346  9072
7043 1619 9175
7044 1993 7642
7045 5588 8757
7046 6347 9981
7047 7211 567 
7048 9481 9680
7049 2806 5511
7050 1064 1616
7051 7495 8488
7052 9741 8919
7053 4952 5756
7054 2760 9878
7055 5571 6332
7056 9534 3557
7057 4549 9949
7058 6236 7622
7059 9312 1921
7060 5862 2084
7061 3108 4391
7062 7516 9323
7063 6435 6804
7064 7144 3871
7065 2922 7193
7066 4607 2669
7067 4540 8475
7068 6769 3226
7069 957  7227
7070 5839 6198
7071 437  1206
7072 8581 5127
7073 5944 9968
7074 5571 5995
7075 156  8163
7076 8994 5600
7077 217  2516
7078 75   4782
7079 942  1269
7080 8457 5798
7081 8260 7041
7082 1587 8360
7083 1037 9249
7084 8387 5849
7085 8923 2584
7086 2447 6986
7087 4176 4250
7088 7429 9504
7089 6779 2248
7090 3561 4729
7091 5875 5576
7092 1435 2426
7093 3046 5406
7094 1471 2829
7095 879  797 
7096 5959 176 
7097 4487 9637
7098 3245 6483
7099 6457 7176
7100 4849 7854
7101 9400 2410
7102 6914 6193
7103 7775 5756
7104 137  1370
7105 2223 4729
7106 4330 8729
7107 7098 546 
7108 3081 2192
7109 9544 3581
7110 2372 2360
7111 177  7822
7112 9216 7772
7113 3289 1213
7114 4264 737 
7115 5071 8355
7116 6021 3064
7117 8116 2214
7118 874  8791
7119 6742 2539
7120 1806 5858
7121 7571 5552
7122 8548 1381
7123 2929 4032
7124 3083 5193
7125 6620 9979
7126 4224 2241
7127 8627 659 
7128 1249 8889
7129 2630 6588
7130 8690 8686
7131 3574 3215
7132 1721 9433
7133 2275 7656
7134 5263 4572
7135 1741 8636
7136 2714 6590
7137 566  2323
7138 1541 1205
7139 5826 2841
7140 9834 8988
7141 7925 5678
7142 7579 9716
7143 2416 8553
7144 5075 8679
7145 7036 924 
7146 9580 6693
7147 761  8717
7148 4601 6702
7149 4899 6055
7150 6198 4380
7151 1521 5128
7152 349  1063
7153 8724 3276
7154 924  779 
7155 9287 699 
7156 486  8639
7157 767  7249
7158 6017 1839
7159 2716 9154
7160 6379 2261
7161 4746 4602
7162 7896 2314
7163 8741 1224
7164 2041 6807
7165 7607 6948
7166 6910 58  
7167 3090 1529
7168 6922 2054
7169 7376 4257
7170 6536 7165
7171 6401 289 
7172 4942 3964
7173 4012 623 
7174 8227 9753
7175 9877 9525
7176 7239 666 
7177 8843 4357
7178 6313 5813
7179 1658 3491
7180 5779 2395
7181 4692 4875
7182 1200 7158
7183 203  9241
7184 9655 6919
7185 9123 6542
7186 5140 6233
7187 7645 5629
7188 3805 5598
7189 7604 7499
7190 3582 5366
7191 3668 4487
7192 5339 3242
7193 8220 8666
7194 885  7116
7195 7521 7712
7196 8494 2888
7197 3738 2393
7198 5512 6116
7199 5798 274 
7200 5610 2955
7201 7378 9228
7202 6192 4351
7203 7346 6914
7204 3381 2095
7205 4461 1337
7206 2224 6888
7207 4743 2061
7208 2786 5675
7209 9607 5971
7210 4123 1508
7211 2726 8152
7212 7933 7651
7213 8675 9105
7214 929  3871
7215 8512 2454
7216 2352 4720
7217 1598 271 
7218 1012 8767
7219 9821 960 
7220 1169 9144
7221 1854 7472
7222 8464 8180
7223 5920 6462
7224 2697 504 
7225 3508 9777
7226 9815 6803
7227 1407 2630
7228 6783 6045
7229 1269 4949
7230 5233 1976
7231 9669 8384
7232 7139 2257
7233 4635 9897
7234 8241 4879
7235 6137 4874
7236 2229 4244
7237 6954 2278
7238 463  2335
7239 1309 4288
7240 1259 5524
7241 3568 6745
7242 6903 1350
7243 5086 1426
7244 3291 6972
7245 9798 7024
7246 5464 5674
7247 6934 5502
7248 2496 4859
7249 5434 1562
7250 2962 5445
7251 4432 4611
7252 6308 7025
7253 3960 8814
7254 3773 3756
7255 1326 3220
7256 3918 3038
7257 8452 7546
7258 59   4382
7259 7759 1712
7260 9597 6791
7261 4581 6250
7262 4704 9497
7263 5341 1048
7264 9282 9753
7265 510  4164
7266 4189 3717
7267 519  9199
7268 9966 8062
7269 5183 6825
7270 3391 4302
7271 9398 1713
7272 6162 4186
7273 4982 425 
7274 969  8272
7275 2933 5549
7276 6041 7721
7277 8118 9913
7278 4758 2626
7279 8363 4913
7280 1008 68  
7281 9937 6826
7282 1303 9206
7283 1013 9858
7284 9538 7338
7285 5648 2305
7286 4628 9703
7287 7337 6852
7288 1244 1179
7289 4097 3146
7290 7864 9633
7291 3386 5389
7292 992  3356
7293 6920 1784
7294 5595 3725
7295 7490 6614
7296 9063 1546
7297 7676 44  
7298 3130 5113
7299 7335 899 
7300 7750 8449
7301 4880 7368
7302 4285 8779
7303 6161 6146
7304 8088 9358
7305 7091 3319
7306 9122 3662
7307 9368 5386
7308 7550 1115
7309 5521 7045
7310 6357 7054
7311 3529 4302
7312 75   1220
7313 9129 8463
7314 2560 6937
7315 3874 5153
7316 5244 2325
7317 2811 7047
7318 1218 1873
7319 2940 9860
7320 609  7350
7321 599  3562
7322 324  488 
7323 956  5469
7324 2171 5420
7325 8131 5739
7326 3941 3252
7327 4953 6702
7328 7909 5051
7329 9203 4864
7330 3468 5980
7331 3216 2957
7332 5395 2539
7333 3215 4901
7334 5406 50  
7335 2905 7307
7336 7986 3172
7337 4785 1941
7338 4547 1638
7339 7242 3607
7340 4828 4632
7341 9106 7370
7342 4120 6376
7343 7911 411 
7344 812  5381
7345 8497 437 
7346 9178 8197
7347 6876 6644
7348 2221 5852
7349 1441 5226
7350 8254 8312
7351 6596 5242
7352 1932 5118
7353 9550 66  
7354 9082 5779
7355 7475 4245
7356 7571 3026
7357 2672 1808
7358 2294 9448
7359 4123 6748
7360 6127 5615
7361 2738 2934
7362 5255 6337
7363 5178 1338
7364 9707 8828
7365 8837 32  
7366 8596 8517
7367 8726 2593
7368 2996 1585
7369 9526 9721
7370 6595 7609
7371 8530 5858
7372 1127 9031
7373 7300 5883
7374 4466 518 
7375 3468 5598
7376 9815 2459
7377 152  3958
7378 4387 5521
7379 2491 3836
7380 4363 9139
7381 2904 831 
7382 5744 9821
7383 8978 3923
7384 1772 7454
7385 9821 9976
7386 6592 2175
7387 9061 4573
7388 7500 245 
7389 2101 2683
7390 9939 7153
7391 7463 7480
7392 4270 8410
7393 3176 9448
7394 7006 9904
7395 1760 9950
7396 6327 7995
7397 5592 5110
7398 5042 4587
7399 2626 9478
7400 8159 8487
7401 7487 5842
7402 1005 5454
7403 1381 9356
7404 4990 9026
7405 8823 573 
7406 7237 3124
7407 1669 8527
7408 4730 1226
7409 2299 480 
7410 6788 6025
7411 2671 9271
7412 5677 3544
7413 976  8925
7414 5323 8963
7415 9082 6748
7416 3499 4989
7417 6432 2380
7418 5895 94  
7419 5613 7655
7420 3889 5590
7421 3923 1398
7422 1257 3576
7423 9909 8724
7424 7889 3896
7425 7006 8351
7426 666  1284
7427 9926 7931
7428 618  8256
7429 9443 7812
7430 3193 8055
7431 7756 680 
7432 8523 3665
7433 8649 750 
7434 2664 8514
7435 8278 5846
7436 2980 5192
7437 6293 2760
7438 7167 5228
7439 4614 4310
7440 8766 638 
7441 6888 3641
7442 8660 1113
7443 6055 3692
7444 4110 9337
7445 1922 4341
7446 5625 5036
7447 4488 4852
7448 5950 118 
7449 2436 4279
7450 7089 2659
7451 7811 1564
7452 8347 7965
7453 8824 553 
7454 4102 4388
7455 9880 5257
7456 6193 3155
7457 4365 7895
7458 7372 4577
7459 6663 2337
7460 2517 2940
7461 6648 6468
7462 3114 6638
7463 5673 5425
7464 2710 9151
7465 8593 2579
7466 4461 8162
7467 2682 9684
7468 8839 9557
7469 7443 6651
7470 9620 7901
7471 8033 9106
7472 8329 4829
7473 1227 6935
7474 9093 1851
7475 6781 4750
7476 2007 8635
7477 7234 1892
7478 2562 3674
7479 8099 312 
7480 7522 4263
7481 9723 5358
7482 5053 6440
7483 2111 83  
7484 535  2365
7485 5979 5043
7486 3364 603 
7487 1412 5197
7488 4868 3415
7489 7075 8752
7490 1605 3644
7491 7014 3570
7492 7984 1506
7493 2128 4060
7494 5619 7736
7495 59   7275
7496 5533 8324
7497 938  9867
7498 9131 836 
7499 4771 4951
7500 9991 7399
7501 4056 1700
7502 3160 1433
7503 9554 592 
7504 4259 5682
7505 7075 3228
7506 982  4679
7507 4053 4369
7508 980  708 
7509 1534 103 
7510 5035 9747
7511 5339 7900
7512 955  5078
7513 9833 9869
7514 2090 9579
7515 4763 2032
7516 3951 4939
7517 7186 957 
7518 771  8104
7519 7163 7716
7520 7300 4021
7521 5509 259 
7522 9501 6278
7523 5307 5044
7524 6188 2881
7525 7720 7468
7526 385  590 
7527 993  1297
7528 4648 8052
7529 179  2434
7530 2584 9517
7531 626  6633
7532 2475 3411
7533 3235 1925
7534 1338 278 
7535 3637 1826
7536 9143 8599
7537 8408 7620
7538 30   8281
7539 2121 8819
7540 8387 1870
7541 4661 3833
7542 445  8168
7543 4756 2763
7544 8988 3560
7545 7550 7135
7546 5455 6323
7547 2079 0   
7548 2535 706 
7549 3002 2969
7550 6785 7906
7551 2967 7065
7552 5088 5274
7553 1684 4547
7554 4217 8703
7555 8731 2491
7556 9181 2666
7557 8804 7578
7558 1963 6657
7559 3226 132 
7560 2697 3206
7561 7347 4276
7562 3343 6424
7563 7017 8885
7564 5505 3867
7565 6667 7811
7566 4242 6458
7567 9782 8935
7568 6268 5883
7569 8617 3462
7570 5687 664 
7571 9418 4837
7572 260  742 
7573 9665 5713
7574 7127 1731
7575 779  5850
7576 7151 8210
7577 4976 627 
7578 1511 9661
7579 9943 5267
7580 9256 2261
7581 1591 3253
7582 1903 5767
7583 7742 9573
7584 8198 1338
7585 541  8005
7586 7231 1616
7587 1213 4000
7588 8050 3591
7589 2515 5654
7590 1021 67  
7591 4195 592 
7592 6869 8848
7593 7625 1177
7594 6277 1930
7595 7814 5384
7596 7787 1061
7597 7566 3006
7598 9992 6678
7599 8880 2979
7600 2285 260 
7601 5348 3375
7602 2831 5866
7603 8171 5558
7604 7120 7003
7605 7448 1837
7606 5145 847 
7607 4132 8693
7608 9915 1814
7609 3090 4714
7610 8752 4364
7611 9594 3087
7612 6696 8930
7613 7857 1372
7614 1663 6608
7615 4103 656 
7616 7128 9037
7617 3382 6566
7618 8051 4331
7619 412  8562
7620 2946 8486
7621 3166 4928
7622 1619 9565
7623 9927 3041
7624 3547 6290
7625 7247 8341
7626 5026 8363
7627 3528 8522
7628 8456 1203
7629 2049 6794
7630 7524 2792
7631 642  8008
7632 1712 5301
7633 3171 9604
7634 2495 8370
7635 7800 6929
7636 2247 8653
7637 7939 6827
7638 2115 4040
7639 5293 5585
7640 2491 388 
7641 4639 4544
7642 3400 5391
7643 9456 1062
7644 5506 885 
7645 9804 1651
7646 5293 539 
7647 3241 4029
7648 7258 9419
7649 1108 2067
7650 1999 2864
7651 8091 854 
7652 5769 954 
7653 755  4210
7654 3653 2349
7655 5269 579 
7656 4707 5823
7657 3911 6174
7658 1565 5388
7659 1012 7462
7660 4187 1963
7661 255  5591
7662 2618 6534
7663 9030 7342
7664 4329 186 
7665 5161 8576
7666 3846 2023
7667 595  7315
7668 204  6350
7669 9557 7488
7670 7635 1328
7671 1891 5014
7672 2742 2095
7673 5461 8168
7674 4154 7211
7675 9748 9416
7676 7755 8595
7677 297  885 
7678 7360 6631
7679 9422 5741
7680 8242 5982
7681 7848 4549
7682 2854 3918
7683 2012 6032
7684 5210 1405
7685 7120 7080
7686 154  8009
7687 8357 5721
7688 657  7771
7689 1161 947 
7690 7871 353 
7691 5561 170 
7692 9033 3392
7693 792  7133
7694 9466 5110
7695 4437 7398
7696 3682 1304
7697 7427 8783
7698 5197 7929
7699 2563 971 
7700 7112 6260
7701 1287 2750
7702 1682 5053
7703 8384 9431
7704 9328 8364
7705 351  9168
7706 9293 2150
7707 3046 6964
7708 8940 4438
7709 7026 1652
7710 1371 443 
7711 3944 1143
7712 7965 9675
7713 1100 3966
7714 6125 5480
7715 6841 2134
7716 4106 8540
7717 4720 2481
7718 2904 1139
7719 2634 7685
7720 8655 8962
7721 2961 2676
7722 8931 2152
7723 1979 6762
7724 2138 7979
7725 9452 6539
7726 5361 1772
7727 3126 861 
7728 9099 2768
7729 6794 2335
7730 7099 4087
7731 7694 4490
7732 598  5986
7733 7381 6369
7734 6363 9999
7735 9626 6454
7736 9072 6273
7737 8374 3583
7738 5539 7013
7739 8651 8007
7740 9905 8925
7741 3076 4548
7742 7745 9839
7743 6286 6028
7744 1040 9312
7745 8570 6349
7746 3292 4329
7747 6354 8026
7748 6660 9783
7749 2859 2298
7750 8775 5407
7751 8396 6155
7752 4616 6798
7753 3914 1259
7754 1040 7519
7755 5892 9381
7756 4427 8195
7757 5127 3833
7758 3200 5420
7759 2410 5461
7760 9952 5456
7761 7061 2309
7762 7014 7384
7763 8194 2360
7764 7503 7461
7765 9220 9116
7766 960  4800
7767 9553 1724
7768 193  4634
7769 5638 8639
7770 9085 887 
7771 5581 4691
7772 3093 4524
7773 5046 5642
7774 5791 4832
7775 9171 786 
7776 713  661 
7777 6043 4595
7778 1725 6848
7779 8424 7433
7780 3115 626 
7781 3398 4623
7782 4592 1965
7783 7470 8830
7784 8550 2923
7785 4249 2949
7786 6563 5109
7787 1836 421 
7788 9077 3390
7789 3790 5985
7790 48   4123
7791 3856 5774
7792 4405 1778
7793 3243 3251
7794 7695 8432
7795 8557 4522
7796 1502 1344
7797 9602 6281
7798 9281 3258
7799 4766 2441
7800 6111 4728
7801 6058 3444
7802 7587 3707
7803 1091 6885
7804 4605 5524
7805 6645 7671
7806 1685 8130
7807 365  623 
7808 5110 3763
7809 2310 7319
7810 5723 1445
7811 3891 6922
7812 7699 7883
7813 4163 8462
7814 3915 9837
7815 922  9656
7816 6710 4084
7817 4450 1333
7818 12   1593
7819 3141 9331
7820 2358 6227
7821 9553 8322
7822 2777 9832
7823 8961 2668
7824 2048 2616
7825 1135 3263
7826 7556 885 
7827 9596 7340
7828 1442 9220
7829 2426 9458
7830 6668 9748
7831 4280 3058
7832 5119 556 
7833 377  9069
7834 9046 3655
7835 7484 4558
7836 6837 4019
7837 9490 5495
7838 9318 1043
7839 7148 5263
7840 1992 8227
7841 7775 4358
7842 8961 6316
7843 3791 2878
7844 305  6238
7845 1181 2474
7846 690  7696
7847 5793 5704
7848 1901 2463
7849 1095 2536
7850 3916 3337
7851 2996 7660
7852 3787 2020
7853 7382 7032
7854 2633 8386
7855 745  2409
7856 8998 7203
7857 191  5499
7858 2785 7464
7859 3453 1037
7860 827  2463
7861 7843 8891
7862 584  452 
7863 4463 524 
7864 5413 2698
7865 7130 9972
7866 3545 8504
7867 2561 6267
7868 4728 4123
7869 2640 9846
7870 4608 5514
7871 5021 9336
7872 5868 7408
7873 9787 5000
7874 4655 1395
7875 9586 5451
7876 1635 3663
7877 6794 3249
7878 4504 1095
7879 3170 1951
7880 2417 1323
7881 5953 5582
7882 2552 5153
7883 6259 3361
7884 7612 2776
7885 6308 9181
7886 136  7011
7887 233  3074
7888 9275 2607
7889 1065 1571
7890 2496 3276
7891 704  1605
7892 8245 3568
7893 5072 8941
7894 8694 5241
7895 7415 4926
7896 2588 1151
7897 1108 8355
7898 3466 3441
7899 155  5256
7900 5625 5461
7901 2254 2210
7902 6547 8862
7903 975  4855
7904 8318 7331
7905 2527 595 
7906 9429 1789
7907 8539 5799
7908 1203 9135
7909 6978 844 
7910 9330 82  
7911 8844 3421
7912 2567 8918
7913 7076 3521
7914 6614 1583
7915 5605 7346
7916 6783 880 
7917 9093 3827
7918 29   4374
7919 5195 954 
7920 5164 8036
7921 2885 7866
7922 2954 6740
7923 6957 9864
7924 5731 8585
7925 7844 9278
7926 5434 4377
7927 1877 2574
7928 7    5443
7929 5496 7987
7930 8600 2451
7931 822  5176
7932 2191 8714
7933 9287 5630
7934 4768 8746
7935 9412 1269
7936 6827 7247
7937 7999 7029
7938 2792 2583
7939 6227 7248
7940 3797 5436
7941 1388 6668
7942 5286 6307
7943 3904 4038
7944 739  4937
7945 618  3899
7946 6339 1255
7947 4655 1235
7948 288  3963
7949 431  1059
7950 8013 2438
7951 6784 7774
7952 490  9053
7953 4427 1657
7954 8453 4194
7955 6540 8821
7956 454  4134
7957 2244 3515
7958 8958 6891
7959 8417 2835
7960 7922 2259
7961 3656 6043
7962 3759 2096
7963 7074 8211
7964 4205 5293
7965 5010 6863
7966 6606 5124
7967 6822 7135
7968 414  3319
7969 4500 3104
7970 6368 2385
7971 4873 9437
7972 8076 2629
7973 4737 4755
7974 1687 9923
7975 3606 4637
7976 5559 4090
7977 7399 5962
7978 4541 2852
7979 1392 1220
7980 3252 3540
7981 4773 8787
7982 6367 859 
7983 7516 6464
7984 5827 2151
7985 4689 6843
7986 8762 9817
7987 6868 5804
7988 3988 1027
7989 321  4559
7990 2631 8700
7991 1730 4677
7992 1518 9442
7993 9365 1703
7994 1736 4634
7995 3895 4825
7996 9929 5659
7997 2771 316 
7998 4779 4235
7999 6250 2513
8000 4146 236 
8001 4552 9110
8002 9539 5301
8003 5187 9362
8004 3370 8052
8005 3172 4628
8006 6230 6457
8007 3207 7116
8008 7544 7418
8009 8180 2059
8010 3228 4296
8011 132  6381
8012 1929 7211
8013 3960 162 
8014 6533 6646
8015 4381 1798
8016 1853 3804
8017 9154 1683
8018 7869 4274
8019 7492 8211
8020 5905 9780
8021 8944 4795
8022 6098 316 
8023 5557 8404
8024 8447 2429
8025 2905 6782
8026 8458 9319
8027 6545 5471
8028 403  2264
8029 2795 4727
8030 4190 7952
8031 9981 1069
8032 1971 407 
8033 8728 7817
8034 3485 9362
8035 3284 3444
8036 371  3286
8037 7146 9623
8038 9811 3179
8039 1920 7874
8040 3946 9894
8041 5634 4845
8042 1133 8872
8043 89   2018
8044 2665 2579
8045 9215 576 
8046 4561 9231
8047 7053 5571
8048 9669 171 
8049 2360 9606
8050 4462 2520
8051 3224 4600
8052 495  1607
8053 4561 4826
8054 7715 9264
8055 4764 9670
8056 4939 3536
8057 7350 6978
8058 3071 7688
8059 7638 7714
8060 379  4622
8061 8012 2395
8062 6224 8317
8063 6062 775 
8064 3951 6250
8065 7499 7549
8066 6035 8101
8067 5054 298 
8068 8534 7784
8069 9710 5315
8070 8988 6938
8071 5739 4370
8072 4048 7000
8073 7350 344 
8074 1159 9946
8075 5069 6723
8076 4090 9789
8077 4701 8299
8078 5112 4601
8079 5829 9755
8080 562  3199
8081 3489 2368
8082 2868 5796
8083 8387 8027
8084 7211 6692
8085 5878 5509
8086 9185 3951
8087 7249 885 
8088 3305 5457
8089 926  3538
8090 5618 3070
8091 7508 2766
8092 3267 6244
8093 9288 4900
8094 4564 5198
8095 7975 3194
8096 1372 2941
8097 4221 6826
8098 2325 9413
8099 938  1431
8100 2482 9310
8101 3551 2869
8102 2419 8168
8103 9160 7629
8104 1653 5121
8105 5740 5671
8106 7952 6888
8107 5998 2631
8108 886  7155
8109 5485 8049
8110 4472 7619
8111 2048 8619
8112 9862 9218
8113 3379 3053
8114 5892 9044
8115 3517 5978
8116 2210 1360
8117 3204 572 
8118 1332 921 
8119 3248 7876
8120 795  4725
8121 4750 8742
8122 4129 271 
8123 243  1944
8124 9669 1722
8125 4258 7052
8126 376  8940
8127 5109 1094
8128 8775 299 
8129 8549 7785
8130 2508 2164
8131 7574 1176
8132 7810 9899
8133 8132 2382
8134 321  5391
8135 7963 2160
8136 1197 7   
8137 1160 6011
8138 5171 9694
8139 9617 2149
8140 9036 1487
8141 6819 8281
8142 8313 7583
8143 5273 7192
8144 6913 6862
8145 4411 1456
8146 5507 6183
8147 9561 6632
8148 5124 628 
8149 1194 6292
8150 9864 9906
8151 6743 1409
8152 270  9717
8153 5700 4542
8154 7805 6246
8155 9957 3460
8156 3033 9067
8157 8637 711 
8158 540  9730
8159 8952 1454
8160 1665 8519
8161 5053 2393
8162 4826 7661
8163 6374 9647
8164 5062 4837
8165 2567 756 
8166 481  2531
8167 7282 3075
8168 6782 3811
8169 7553 4718
8170 3639 4553
8171 5130 5973
8172 5224 4924
8173 133  8220
8174 7671 8921
8175 3261 9190
8176 5613 8011
8177 7395 5954
8178 4738 3302
8179 2619 6446
8180 937  9492
8181 1398 1584
8182 9122 3137
8183 5745 4984
8184 7317 7903
8185 6966 7655
8186 3758 7956
8187 1168 5747
8188 5887 4902
8189 6882 9619
8190 6788 6758
8191 2965 1600
8192 6207 105 
8193 6728 6764
8194 1768 1451
8195 5539 2122
8196 2491 9612
8197 1282 8654
8198 8398 4226
8199 539  3648
8200 7901 6278
8201 8017 2441
8202 1897 6383
8203 843  5346
8204 9178 546 
8205 2770 6970
8206 914  9309
8207 1185 5894
8208 9658 5700
8209 9218 4825
8210 842  2011
8211 4825 7945
8212 1866 3714
8213 1027 120 
8214 9958 8142
8215 9157 1476
8216 7436 5684
8217 1746 1196
8218 9716 8566
8219 2494 9454
8220 5304 998 
8221 9785 8569
8222 4409 3994
8223 4451 7007
8224 9448 4862
8225 2249 3530
8226 4854 7132
8227 4033 4628
8228 3286 1819
8229 937  8707
8230 1861 5248
8231 387  5968
8232 6031 1978
8233 9382 5924
8234 2666 8734
8235 6901 9686
8236 5015 875 
8237 125  8949
8238 8763 173 
8239 9863 1124
8240 4592 7233
8241 7221 6026
8242 3192 4375
8243 1067 4920
8244 7650 5147
8245 1394 490 
8246 4057 1802
8247 3063 5145
8248 834  5990
8249 3569 6855
8250 3967 7792
8251 2248 3658
8252 5515 8314
8253 9580 6839
8254 3980 4483
8255 9414 9587
8256 3074 5535
8257 5781 407 
8258 4505 6414
8259 3181 6109
8260 7057 1165
8261 3539 234 
8262 7536 2040
8263 1365 2130
8264 1931 2994
8265 2321 6480
8266 3114 9035
8267 7599 6005
8268 8254 5064
8269 4577 4904
8270 3726 5408
8271 4562 6219
8272 7125 4539
8273 246  9777
8274 3392 9287
8275 2569 669 
8276 3779 7218
8277 3253 2527
8278 2863 3111
8279 8886 1310
8280 3781 8714
8281 3650 8137
8282 2801 7484
8283 509  1875
8284 9476 5115
8285 6998 392 
8286 565  6534
8287 6144 2761
8288 4410 7501
8289 8885 4562
8290 4628 1271
8291 251  3105
8292 6963 6332
8293 3347 3568
8294 9904 413 
8295 7410 8548
8296 3808 9516
8297 4409 2048
8298 8754 3026
8299 8827 5084
8300 2914 2042
8301 5691 445 
8302 8593 5001
8303 5734 8198
8304 6991 9972
8305 2755 7607
8306 1448 1931
8307 4021 5826
8308 5865 5322
8309 1476 5850
8310 2719 3404
8311 5692 961 
8312 8218 8913
8313 2103 4570
8314 6759 2812
8315 2157 8800
8316 8426 7621
8317 1901 7652
8318 375  6518
8319 3696 6429
8320 9281 7986
8321 879  359 
8322 5076 9830
8323 965  4929
8324 5370 4262
8325 7896 1854
8326 4618 100 
8327 2368 3886
8328 1933 9402
8329 9025 8932
8330 8600 7235
8331 2346 5525
8332 103  682 
8333 6050 8152
8334 7302 3569
8335 4665 1884
8336 5149 5905
8337 8443 2721
8338 41   7086
8339 7642 2868
8340 2816 3865
8341 4904 3424
8342 5186 1982
8343 9999 7624
8344 8319 6051
8345 1393 1742
8346 4449 8162
8347 7925 820 
8348 3060 2713
8349 4003 1037
8350 9508 5960
8351 9084 2077
8352 6847 1390
8353 7456 2931
8354 9956 5681
8355 7764 5693
8356 2248 7325
8357 7969 8660
8358 4981 9503
8359 5245 7597
8360 197  5538
8361 6587 6710
8362 9773 3531
8363 295  9332
8364 3476 524 
8365 6591 19  
8366 6594 4652
8367 5600 1535
8368 7519 4500
8369 5699 2225
8370 4501 8152
8371 6012 6296
8372 9446 3347
8373 4668 7295
8374 8560 2565
8375 6968 2781
8376 6294 1229
8377 5524 3015
8378 4316 7297
8379 2862 9230
8380 8758 2976
8381 9049 220 
8382 4646 4297
8383 2169 3659
8384 8241 5395
8385 6042 7776
8386 7500 2778
8387 9491 5297
8388 9949 9781
8389 1123 5525
8390 1839 1799
8391 7196 8243
8392 427  1226
8393 2924 3220
8394 906  3985
8395 5019 655 
8396 9611 2562
8397 7822 4658
8398 2158 4728
8399 4928 4075
8400 6437 7343
8401 6706 585 
8402 7260 1440
8403 5257 6235
8404 193  954 
8405 1211 428 
8406 8293 5870
8407 5475 4415
8408 6654 8287
8409 5892 9411
8410 6367 7170
8411 6459 8287
8412 3441 3825
8413 5947 6102
8414 7002 7410
8415 5612 6042
8416 1522 4293
8417 6116 2939
8418 798  5983
8419 1433 8513
8420 1986 8697
8421 6239 7381
8422 9139 3989
8423 3380 5626
8424 7756 9346
8425 4178 8537
8426 7757 6052
8427 3841 1232
8428 1655 5685
8429 828  5728
8430 7906 9816
8431 9631 5184
8432 9441 4899
8433 3831 4016
8434 2661 4426
8435 70   1419
8436 9836 8703
8437 3296 7088
8438 8674 9807
8439 6960 366 
8440 3415 2674
8441 9781 2702
8442 4678 8233
8443 9878 4697
8444 4005 6865
8445 3212 4780
8446 1638 2102
8447 5032 6694
8448 2713 4643
8449 7740 5561
8450 7413 7719
8451 5719 9177
8452 5439 732 
8453 9403 9280
8454 2760 6039
8455 2749 2857
8456 4533 1501
8457 3168 8364
8458 3345 3319
8459 662  9148
8460 4797 7716
8461 3919 1873
8462 9774 5514
8463 3559 2662
8464 874  5453
8465 3579 3884
8466 9927 2456
8467 6504 2346
8468 5952 6700
8469 5904 7363
8470 9932 7891
8471 7023 7078
8472 1258 6188
8473 2967 6817
8474 8395 1753
8475 4653 7562
8476 1293 5248
8477 8993 7839
8478 7467 1866
8479 2431 4477
8480 9434 6971
8481 9011 2483
8482 7610 1506
8483 7483 7721
8484 5870 6935
8485 9817 4380
8486 7921 8367
8487 3093 3896
8488 8342 2050
8489 276  9621
8490 8493 1690
8491 5613 4411
8492 2612 5533
8493 2727 115 
8494 8666 7422
8495 5350 6679
8496 3659 2580
8497 1234 713 
8498 568  6828
8499 2386 991 
8500 9538 7793
8501 601  8887
8502 3001 3658
8503 1604 4298
8504 2730 7120
8505 2699 3263
8506 5347 2640
8507 156  5594
8508 6882 5038
8509 6692 3307
8510 8779 1352
8511 5609 6882
8512 6531 5675
8513 5378 611 
8514 5096 5362
8515 7935 2327
8516 4525 1462
8517 8233 673 
8518 5565 660 
8519 5607 997 
8520 5241 4308
8521 8199 7484
8522 6493 399 
8523 151  8109
8524 5555 4267
8525 9964 6710
8526 3648 5274
8527 2677 4643
8528 1629 2146
8529 4881 4601
8530 6763 3847
8531 4135 8207
8532 765  6548
8533 6033 1921
8534 3279 5350
8535 8760 2274
8536 3404 4061
8537 2559 9379
8538 356  2303
8539 6330 3750
8540 140  1980
8541 6061 2783
8542 8079 6874
8543 4487 1730
8544 9427 658 
8545 2478 990 
8546 9486 1049
8547 6986 5388
8548 1698 3466
8549 5613 829 
8550 2840 3159
8551 1747 4951
8552 9440 3166
8553 9012 8496
8554 9810 448 
8555 5526 5464
8556 7588 9350
8557 9771 5410
8558 534  4517
8559 7677 2795
8560 5574 7779
8561 1099 8152
8562 8501 5300
8563 7685 7167
8564 370  7942
8565 7581 162 
8566 2937 4417
8567 62   5901
8568 6438 7652
8569 2207 713 
8570 5932 2855
8571 5271 4727
8572 7548 6902
8573 237  8709
8574 4367 5697
8575 2162 9863
8576 7257 2292
8577 8562 2807
8578 527  4311
8579 757  7549
8580 5584 3511
8581 9439 8086
8582 1676 2047
8583 7613 2168
8584 4135 2536
8585 317  1424
8586 8922 3122
8587 5189 9348
8588 4594 9155
8589 4458 4081
8590 3774 9846
8591 3561 972 
8592 1223 6409
8593 5167 2715
8594 152  7859
8595 5060 7497
8596 2795 3112
8597 9415 3067
8598 6274 7001
8599 7784 3098
8600 5776 6641
8601 1242 4760
8602 62   6714
8603 2725 7114
8604 6810 7924
8605 5530 6049
8606 944  2046
8607 7365 8370
8608 3579 9919
8609 8999 6211
8610 8743 9466
8611 6003 1818
8612 8382 439 
8613 1111 1908
8614 2584 1923
8615 4632 2861
8616 6682 3684
8617 6881 3964
8618 5133 7603
8619 648  2556
8620 8640 6210
8621 5371 3741
8622 9565 2823
8623 2333 9927
8624 488  9420
8625 8058 3101
8626 1638 4761
8627 8286 5809
8628 2314 5914
8629 4822 1322
8630 7549 7706
8631 8269 3541
8632 5556 272 
8633 8972 1262
8634 1572 2607
8635 4904 5139
8636 2106 4676
8637 2670 1556
8638 9241 5352
8639 9693 8816
8640 9051 480 
8641 6067 8680
8642 2032 5547
8643 8942 6623
8644 460  1102
8645 3194 2362
8646 1317 5233
8647 6417 4450
8648 6340 7607
8649 1406 6407
8650 1170 2508
8651 4204 2861
8652 1661 1280
8653 6405 1550
8654 4836 9305
8655 3705 6280
8656 5303 2278
8657 3967 3296
8658 9882 5817
8659 9591 9074
8660 8562 1312
8661 4271 6198
8662 3188 917 
8663 1380 6326
8664 4314 1639
8665 5792 8675
8666 9766 4026
8667 3040 7996
8668 5721 6410
8669 9618 4854
8670 5580 8986
8671 6017 8755
8672 4078 20  
8673 9401 3164
8674 977  5551
8675 1810 2368
8676 5797 1515
8677 7972 7464
8678 4221 7851
8679 8173 3686
8680 3188 1353
8681 5774 6857
8682 1197 2187
8683 4805 4479
8684 8413 7176
8685 2335 5134
8686 3519 1648
8687 8286 3446
8688 1757 8107
8689 8495 1166
8690 1813 7694
8691 659  3654
8692 4811 3427
8693 7267 3410
8694 1900 7920
8695 622  1003
8696 657  1317
8697 5561 3088
8698 2544 976 
8699 5754 4660
8700 6480 7524
8701 507  5784
8702 7455 5235
8703 9487 6430
8704 6406 2911
8705 5267 8078
8706 965  3507
8707 3368 8756
8708 9709 3643
8709 6715 1993
8710 1853 2417
8711 3944 9944
8712 2654 623 
8713 5140 5443
8714 6826 4593
8715 1270 753 
8716 4003 788 
8717 411  1648
8718 5226 9441
8719 8642 9634
8720 3130 9166
8721 3552 9976
8722 3473 2815
8723 59   9130
8724 6562 7621
8725 6608 376 
8726 1576 3440
8727 7791 7692
8728 4685 5804
8729 7286 1848
8730 3001 5170
8731 4829 8756
8732 5319 8223
8733 2877 9965
8734 2903 5295
8735 1807 7315
8736 7546 7149
8737 1825 657 
8738 7107 4021
8739 1342 4860
8740 6921 496 
8741 8556 2070
8742 4586 9449
8743 1736 6594
8744 2821 6795
8745 2836 1973
8746 3602 9339
8747 664  9573
8748 9885 704 
8749 777  9226
8750 8704 5926
8751 146  3389
8752 6700 1323
8753 6292 6021
8754 7584 8739
8755 6003 5761
8756 4898 390 
8757 6402 201 
8758 4714 5482
8759 8441 9247
8760 8938 2604
8761 9288 3935
8762 10   4847
8763 9289 5610
8764 8574 2896
8765 8036 6850
8766 3171 3857
8767 5917 730 
8768 3983 2808
8769 4183 2698
8770 3231 915 
8771 7485 148 
8772 6430 3298
8773 3125 8306
8774 9389 5270
8775 8841 7040
8776 5917 508 
8777 8514 3773
8778 7677 8360
8779 6160 6692
8780 3515 8185
8781 5914 5891
8782 5156 3918
8783 2921 1660
8784 8582 7427
8785 5349 9884
8786 6808 4395
8787 5437 264 
8788 3333 3270
8789 2438 6122
8790 2117 7028
8791 6258 6822
8792 7560 1085
8793 7854 7138
8794 9761 4318
8795 7991 8985
8796 2688 5077
8797 4631 9846
8798 7290 2367
8799 8297 9162
8800 140  1791
8801 4560 9487
8802 4950 8358
8803 4930 5415
8804 6759 1589
8805 6307 3552
8806 2008 2129
8807 6349 6980
8808 9862 2306
8809 3572 9353
8810 6959 9609
8811 3896 842 
8812 329  2540
8813 9483 1427
8814 7179 209 
8815 3592 695 
8816 3699 3559
8817 942  4978
8818 3083 8643
8819 2990 1306
8820 6898 7580
8821 3179 7768
8822 4535 8571
8823 2370 3419
8824 3258 5714
8825 4782 3717
8826 1805 7075
8827 2259 6554
8828 3236 6276
8829 1064 9577
8830 9009 4726
8831 6497 7593
8832 4874 4790
8833 7813 3697
8834 7400 1844
8835 5812 7443
8836 859  7624
8837 4353 4925
8838 8142 8681
8839 8512 6824
8840 4942 2588
8841 9484 7266
8842 4855 2501
8843 729  8753
8844 3252 5656
8845 9523 4679
8846 1351 6043
8847 9891 9333
8848 8093 8364
8849 8766 7082
8850 2801 2678
8851 1223 8938
8852 5053 1550
8853 2278 4346
8854 9969 4452
8855 4088 6900
8856 9061 6473
8857 4360 3245
8858 8069 4907
8859 8032 5838
8860 4694 6319
8861 7500 3588
8862 3181 8573
8863 3952 8367
8864 8611 5028
8865 6279 791 
8866 641  8021
8867 8599 5054
8868 8633 2992
8869 1375 1192
8870 1493 6464
8871 6605 6532
8872 9754 2825
8873 2117 2542
8874 1208 9102
8875 5940 871 
8876 9549 8167
8877 1957 4374
8878 6649 2485
8879 3411 1408
8880 7945 1651
8881 6872 4352
8882 8695 2087
8883 6115 475 
8884 9896 366 
8885 9279 9604
8886 5570 5684
8887 8227 3058
8888 2366 4517
8889 5595 6088
8890 8883 5866
8891 5041 1563
8892 223  3712
8893 8724 4761
8894 2372 9833
8895 3672 4797
8896 3535 2329
8897 3791 6111
8898 5953 5298
8899 8400 2721
8900 8100 2594
8901 9781 5708
8902 9170 6600
8903 4479 3840
8904 479  5472
8905 1849 181 
8906 8590 406 
8907 3818 706 
8908 172  6145
8909 2615 1788
8910 9331 3303
8911 3737 8595
8912 8128 5106
8913 9951 9755
8914 4431 6   
8915 7649 3465
8916 9300 3846
8917 9560 6284
8918 7143 4502
8919 2281 902 
8920 6411 670 
8921 8406 4561
8922 2220 9734
8923 8292 8315
8924 119  1443
8925 1755 2321
8926 7700 1833
8927 2175 1271
8928 2985 657 
8929 3701 2117
8930 5534 8638
8931 2575 3079
8932 2528 936 
8933 7206 4553
8934 9478 5801
8935 4972 5659
8936 1973 2427
8937 6272 5550
8938 3269 3346
8939 9104 7287
8940 4617 882 
8941 820  1252
8942 3738 2195
8943 1778 6516
8944 5020 7449
8945 8712 163 
8946 5117 103 
8947 6602 8907
8948 545  8570
8949 1754 7040
8950 5895 1446
8951 1590 1115
8952 6456 5829
8953 3575 6359
8954 5211 1703
8955 994  9187
8956 9525 6891
8957 52   4709
8958 175  6084
8959 6730 4931
8960 5702 9264
8961 2743 8594
8962 8626 768 
8963 2870 4109
8964 792  7034
8965 7101 384 
8966 154  2824
8967 5825 2440
8968 6389 9599
8969 4354 8896
8970 3502 8916
8971 6904 6954
8972 262  8613
8973 8496 9676
8974 5382 9779
8975 7127 7537
8976 1875 154 
8977 7605 2397
8978 6738 8317
8979 8476 8897
8980 8321 9472
8981 2056 1712
8982 6922 6979
8983 972  854 
8984 4060 3705
8985 323  5625
8986 1193 9091
8987 523  3836
8988 2320 1757
8989 5613 2992
8990 5980 8962
8991 5269 9439
8992 29   7351
8993 2416 4442
8994 7915 3660
8995 7017 8141
8996 8855 3326
8997 5832 3083
8998 3580 6236
8999 4877 6236
9000 955  3307
9001 1509 2688
9002 4620 4310
9003 3766 4276
9004 7370 7045
9005 6158 2925
9006 8719 2145
9007 5752 2509
9008 5967 4489
9009 4613 2139
9010 1208 7552
9011 1036 6465
9012 9735 1978
9013 4322 277 
9014 7267 2561
9015 5024 1357
9016 7864 4366
9017 7809 2300
9018 2312 4347
9019 5436 3334
9020 5505 9336
9021 7151 503 
9022 9919 3378
9023 4261 1291
9024 4256 5101
9025 5484 8025
9026 3891 940 
9027 8758 4166
9028 5392 4690
9029 5612 1505
9030 9333 3383
9031 1691 4614
9032 8753 2787
9033 6199 5973
9034 3621 5429
9035 710  6317
9036 4293 2716
9037 3075 8036
9038 2459 867 
9039 4327 6017
9040 1195 7400
9041 7757 14  
9042 8737 4539
9043 595  3044
9044 9674 5304
9045 4918 68  
9046 8169 8299
9047 5699 8508
9048 6539 7157
9049 937  7013
9050 8338 7605
9051 1516 6140
9052 4233 9043
9053 1572 5054
9054 9782 6014
9055 9435 4541
9056 9806 4188
9057 1336 4017
9058 544  3661
9059 4204 7933
9060 3226 3664
9061 1892 6849
9062 4059 4924
9063 3295 2561
9064 8703 423 
9065 8611 4894
9066 4410 1576
9067 1690 8453
9068 1297 2467
9069 4988 8730
9070 5969 1899
9071 4082 7118
9072 6983 7327
9073 679  125 
9074 7827 4469
9075 8693 6419
9076 4548 7719
9077 3882 8849
9078 4894 9206
9079 7646 8977
9080 635  8485
9081 3755 8344
9082 7696 2611
9083 5748 9036
9084 9740 5370
9085 9988 3249
9086 5950 1687
9087 7162 7496
9088 1448 7368
9089 9152 2629
9090 1414 4013
9091 8135 4209
9092 2429 5134
9093 8268 7797
9094 8495 9366
9095 7336 5567
9096 3660 6309
9097 6741 1029
9098 849  2711
9099 611  8465
9100 4044 7081
9101 2151 547 
9102 965  2121
9103 5550 2218
9104 8760 2408
9105 6577 7293
9106 978  4248
9107 3519 8261
9108 2895 1632
9109 3018 6854
9110 9459 2062
9111 2241 1615
9112 9369 9305
9113 280  9134
9114 6371 4936
9115 8643 8816
9116 3869 900 
9117 2089 8083
9118 6014 8391
9119 4125 9317
9120 4564 5284
9121 7997 7140
9122 5138 663 
9123 9483 1479
9124 445  7485
9125 9369 1792
9126 7590 8322
9127 7285 3327
9128 4773 1237
9129 5983 6883
9130 8023 2393
9131 6420 6467
9132 8938 6381
9133 1322 5394
9134 5828 1804
9135 3578 3302
9136 5206 4416
9137 7913 6637
9138 8991 491 
9139 5471 4900
9140 4739 4215
9141 7928 3323
9142 1211 6770
9143 2722 5694
9144 1971 8229
9145 9343 9974
9146 6311 1669
9147 4006 1943
9148 6031 6631
9149 3886 1141
9150 5407 6745
9151 1129 4370
9152 9008 3257
9153 7199 5694
9154 4667 6877
9155 9281 2200
9156 2637 3063
9157 9202 5942
9158 4194 4797
9159 3262 2   
9160 8910 6183
9161 3587 2709
9162 8994 7383
9163 7801 1185
9164 7788 317 
9165 9287 5923
9166 5412 3079
9167 4053 2618
9168 9327 4578
9169 3205 5478
9170 436  8617
9171 6161 3616
9172 356  9047
9173 412  20  
9174 5758 1322
9175 3259 2859
9176 4650 2388
9177 4176 431 
9178 4117 6769
9179 3239 4157
9180 545  7297
9181 8451 1496
9182 5306 6350
9183 7580 990 
9184 2247 1388
9185 8830 6178
9186 6754 3499
9187 755  8366
9188 5238 7470
9189 1310 1419
9190 6112 8780
9191 5462 3666
9192 933  5792
9193 9412 6979
9194 9385 2756
9195 6684 4026
9196 8567 3053
9197 8417 3604
9198 9709 7286
9199 2521 5003
9200 3218 1430
9201 6588 8777
9202 5139 5051
9203 2705 4213
9204 1220 2935
9205 8981 554 
9206 6002 649 
9207 6935 1880
9208 9094 3122
9209 7612 6211
9210 7122 3664
9211 9168 4057
9212 8372 6578
9213 8452 2978
9214 6579 1419
9215 2281 7257
9216 6938 1458
9217 7047 9897
9218 8228 7049
9219 984  381 
9220 822  621 
9221 7946 178 
9222 8234 1810
9223 8839 883 
9224 1346 7958
9225 2003 4963
9226 7565 840 
9227 6526 2674
9228 4779 2308
9229 1828 742 
9230 2829 7789
9231 215  7881
9232 7754 6674
9233 9674 5045
9234 4225 8875
9235 6557 7355
9236 2272 8891
9237 2080 5152
9238 609  419 
9239 6527 9874
9240 9078 6703
9241 4084 3584
9242 5804 5848
9243 5701 8878
9244 6017 6376
9245 7680 2475
9246 4015 1234
9247 8150 7563
9248 5392 2131
9249 5160 7034
9250 4148 7278
9251 8024 9673
9252 9347 2840
9253 304  8561
9254 7537 7429
9255 4937 5659
9256 336  3999
9257 1886 6165
9258 3265 9274
9259 5400 5158
9260 825  1464
9261 9061 6631
9262 8848 2369
9263 1697 6501
9264 9843 3458
9265 25   6113
9266 5900 9579
9267 5854 1145
9268 1294 5922
9269 1407 4351
9270 7095 9683
9271 8834 5491
9272 694  9430
9273 9342 2734
9274 4466 1848
9275 3565 5915
9276 1367 7925
9277 5662 8766
9278 8903 1335
9279 1720 4521
9280 7781 3081
9281 4816 4710
9282 9146 8853
9283 2052 5316
9284 2651 1433
9285 1045 6367
9286 9600 8165
9287 9859 4540
9288 6226 5151
9289 4819 767 
9290 9176 1246
9291 4149 3983
9292 3919 7811
9293 8240 7486
9294 6110 1399
9295 3047 408 
9296 870  8800
9297 9532 5442
9298 1069 4780
9299 8951 5855
9300 4971 3010
9301 4166 7543
9302 7237 8512
9303 2162 6386
9304 4592 9038
9305 9746 9357
9306 5917 7047
9307 235  9890
9308 4085 9634
9309 9463 2057
9310 3626 4261
9311 9366 962 
9312 1235 3635
9313 444  8873
9314 6516 3262
9315 4289 5774
9316 4934 4926
9317 3160 7438
9318 9559 4367
9319 3184 6009
9320 6713 98  
9321 4289 778 
9322 9965 9718
9323 7253 2996
9324 5246 6223
9325 1541 362 
9326 9907 4348
9327 3402 2507
9328 7131 3628
9329 1852 5449
9330 3442 1991
9331 6403 8434
9332 7840 1520
9333 4932 7766
9334 7637 1606
9335 2367 3326
9336 2641 9777
9337 8514 8575
9338 6008 2641
9339 4883 3514
9340 3519 9809
9341 8997 2553
9342 5174 2674
9343 4600 2306
9344 7006 7621
9345 9024 8004
9346 1907 2317
9347 7791 9230
9348 3211 7494
9349 6133 4467
9350 5541 8939
9351 9092 7729
9352 1908 6729
9353 4503 9696
9354 3875 3260
9355 8433 6075
9356 9443 5764
9357 3093 1255
9358 5974 995 
9359 8756 5782
9360 8703 9586
9361 1829 4491
9362 1811 5008
9363 8384 4954
9364 188  1207
9365 3741 5727
9366 2451 2426
9367 8148 6655
9368 5616 1379
9369 7407 4353
9370 4959 731 
9371 4844 4529
9372 9891 3965
9373 963  5735
9374 7742 2950
9375 8420 8231
9376 7521 7459
9377 2773 4949
9378 1527 4444
9379 8551 7960
9380 8595 4078
9381 5142 1043
9382 4281 1838
9383 8089 5710
9384 3655 6096
9385 6419 4180
9386 5056 5216
9387 4071 6200
9388 983  9410
9389 9698 1079
9390 7284 2141
9391 8223 4343
9392 3757 2409
9393 453  4257
9394 9574 7761
9395 9118 2380
9396 4042 3493
9397 2945 6680
9398 7851 1233
9399 9787 4827
9400 2447 2399
9401 9136 8610
9402 4837 4328
9403 9565 1063
9404 2294 4375
9405 7833 152 
9406 6357 3139
9407 5694 5374
9408 7941 9271
9409 6496 9999
9410 6719 210 
9411 2983 472 
9412 1236 2208
9413 3995 6448
9414 5241 2319
9415 9595 7039
9416 1169 77  
9417 835  3153
9418 8196 5963
9419 2862 1310
9420 9454 5907
9421 5321 6120
9422 5807 9056
9423 1440 4240
9424 183  26  
9425 8769 2780
9426 8401 6103
9427 4930 1049
9428 3389 3792
9429 837  1829
9430 5504 435 
9431 8949 247 
9432 7473 7009
9433 37   7482
9434 3652 1753
9435 2968 7543
9436 4055 1676
9437 7420 6349
9438 8939 5197
9439 9742 7312
9440 8239 8375
9441 9655 5140
9442 1643 9818
9443 9814 9810
9444 7423 3928
9445 7339 5203
9446 7866 8153
9447 4434 4559
9448 712  4722
9449 2866 9618
9450 8961 3370
9451 8764 2125
9452 2500 8254
9453 6119 8628
9454 9623 1477
9455 2889 5166
9456 8497 7142
9457 9568 6703
9458 9343 8019
9459 7038 3604
9460 8310 7695
9461 3664 2971
9462 7267 9550
9463 1607 5057
9464 8929 8270
9465 2854 2841
9466 1868 7267
9467 8517 5790
9468 4854 5940
9469 4641 6124
9470 2473 4591
9471 8077 782 
9472 2474 4144
9473 634  3171
9474 8095 6001
9475 4042 2741
9476 3292 8589
9477 2209 2013
9478 3596 9833
9479 749  6359
9480 3922 7203
9481 7998 9134
9482 5752 901 
9483 3718 9024
9484 6829 848 
9485 4887 84  
9486 6831 9533
9487 4335 5479
9488 9661 536 
9489 1534 6896
9490 9574 1243
9491 7201 7933
9492 3232 3902
9493 7149 2783
9494 294  6416
9495 3355 5440
9496 5081 4656
9497 4517 9386
9498 750  9023
9499 1626 4865
9500 1139 8061
9501 7223 305 
9502 10   5840
9503 7728 9628
9504 1209 3227
9505 8838 7607
9506 3659 4827
9507 2650 3082
9508 2418 8597
9509 6303 8448
9510 7870 8440
9511 7890 1997
9512 9961 4897
9513 5587 9882
9514 8697 2003
9515 2121 6825
9516 5604 7675
9517 2425 2727
9518 9346 7818
9519 5016 267 
9520 4279 3047
9521 2191 2010
9522 5683 6293
9523 6686 6235
9524 137  6029
9525 4305 1640
9526 5519 6767
9527 8967 1359
9528 2410 2032
9529 4986 4544
9530 2401 6415
9531 4981 606 
9532 7544 4259
9533 8100 6742
9534 9244 1895
9535 9441 6111
9536 2395 3069
9537 714  9640
9538 3202 3997
9539 5803 4554
9540 1181 777 
9541 710  4444
9542 8301 3044
9543 810  6425
9544 7510 2606
9545 9467 6800
9546 4368 4340
9547 1003 2896
9548 2660 5545
9549 1165 5701
9550 5535 9519
9551 296  4010
9552 4265 914 
9553 8485 9981
9554 5800 3598
9555 3171 4975
9556 4919 6611
9557 898  5842
9558 3540 9824
9559 1041 6617
9560 4183 8218
9561 5488 1241
9562 6678 7612
9563 5532 4973
9564 4319 3925
9565 9029 264 
9566 9225 4316
9567 3443 7501
9568 740  2741
9569 7174 1040
9570 2069 4819
9571 3763 71  
9572 9020 8950
9573 2155 9719
9574 8471 8910
9575 7742 4650
9576 8021 9407
9577 3183 9703
9578 3064 5068
9579 6845 2755
9580 4883 4458
9581 1103 8624
9582 7256 5098
9583 6563 578 
9584 968  3618
9585 9627 6491
9586 9807 2809
9587 3445 7070
9588 8695 7572
9589 419  9215
9590 2211 2800
9591 4267 2671
9592 1151 5276
9593 5651 255 
9594 4384 9690
9595 7333 4465
9596 6893 4410
9597 13   123 
9598 7131 9412
9599 9028 4195
9600 5985 458 
9601 4508 858 
9602 2824 2864
9603 306  2666
9604 3866 312 
9605 6312 2851
9606 5459 991 
9607 9620 7862
9608 5416 3458
9609 8373 9088
9610 7060 734 
9611 4398 4972
9612 8446 6474
9613 6649 6299
9614 5825 5598
9615 2972 8627
9616 8854 3413
9617 6107 4097
9618 7619 3894
9619 7050 1639
9620 1556 2466
9621 4622 8792
9622 350  8918
9623 213  4254
9624 9527 667 
9625 1803 6476
9626 2732 8200
9627 5282 6024
9628 7364 5965
9629 2802 8189
9630 3718 5529
9631 8204 7620
9632 860  4908
9633 4871 1634
9634 5670 7822
9635 8553 8378
9636 837  9022
9637 7214 4639
9638 7242 6980
9639 8913 9034
9640 7606 3633
9641 595  958 
9642 5896 1102
9643 2425 7005
9644 8293 9247
9645 74   6699
9646 9580 436 
9647 4067 6528
9648 4463 4511
9649 2258 740 
9650 7777 3215
9651 6855 4830
9652 6226 1589
9653 5490 3499
9654 133  8772
9655 5563 1781
9656 8420 7734
9657 6791 9916
9658 1352 2148
9659 9573 2436
9660 8120 6973
9661 9230 8164
9662 7505 6708
9663 6154 8850
9664 315  3851
9665 3576 2593
9666 7405 5726
9667 2909 4622
9668 9370 2278
9669 2509 2644
9670 1208 1682
9671 2405 3600
9672 8671 3634
9673 3044 9253
9674 3718 6229
9675 3842 8458
9676 6410 3919
9677 8269 8039
9678 6074 4523
9679 7205 8353
9680 8813 7349
9681 3946 2761
9682 9798 9541
9683 8270 3399
9684 6807 6324
9685 5911 9646
9686 8786 5045
9687 7961 7976
9688 4927 9365
9689 3242 9206
9690 8891 9856
9691 6898 2336
9692 8075 5543
9693 5450 5938
9694 1713 9432
9695 9181 1644
9696 7950 7124
9697 4620 3511
9698 63   3846
9699 3021 162 
9700 3510 4631
9701 1791 5426
9702 7819 2632
9703 7471 7008
9704 8402 548 
9705 5378 7905
9706 1379 5589
9707 2181 7892
9708 3955 8607
9709 6239 75  
9710 6681 6398
9711 9218 9554
9712 7112 9526
9713 8849 3673
9714 5499 2462
9715 8385 2368
9716 6668 1212
9717 678  7418
9718 7627 2385
9719 1889 5241
9720 8767 6000
9721 3084 9957
9722 5756 4686
9723 4353 1213
9724 5117 6617
9725 8057 2462
9726 3277 4557
9727 3417 18  
9728 2681 3570
9729 2295 630 
9730 4688 2747
9731 3375 9704
9732 5828 5345
9733 4792 7348
9734 3748 4188
9735 6729 130 
9736 2506 6374
9737 3541 1982
9738 3458 8355
9739 4943 999 
9740 6679 5345
9741 9725 7259
9742 717  2465
9743 8107 6225
9744 6165 9472
9745 2431 8334
9746 7262 7650
9747 4383 2321
9748 1027 6824
9749 5322 8408
9750 1037 1319
9751 5491 2804
9752 7691 3975
9753 5646 813 
9754 6465 9252
9755 4074 6159
9756 1183 4310
9757 2794 3733
9758 3371 7194
9759 2116 5238
9760 957  25  
9761 1298 2315
9762 1704 1306
9763 5198 2588
9764 4964 1130
9765 5572 1029
9766 8649 8885
9767 5867 7071
9768 7365 986 
9769 5702 8280
9770 9255 191 
9771 2464 5129
9772 2036 7314
9773 1028 6815
9774 4907 4358
9775 2374 3271
9776 6430 5120
9777 831  4371
9778 2968 80  
9779 3625 3222
9780 3515 5521
9781 7944 6429
9782 3903 579 
9783 4144 6552
9784 5201 5807
9785 6857 813 
9786 1316 5513
9787 8799 5170
9788 6456 7857
9789 3128 5712
9790 1374 1634
9791 51   7970
9792 1657 9339
9793 5319 528 
9794 8893 7194
9795 6237 6885
9796 7030 8672
9797 8017 7439
9798 9903 6235
9799 5283 9836
9800 4721 8897
9801 5187 2539
9802 6991 1244
9803 4337 2819
9804 5835 1179
9805 6592 7812
9806 5262 1795
9807 7992 4875
9808 749  4086
9809 3292 9298
9810 7906 9471
9811 3720 8170
9812 7279 2282
9813 5115 5770
9814 5305 5762
9815 3574 8447
9816 7666 576 
9817 4166 1380
9818 7333 3871
9819 7530 2507
9820 686  2308
9821 5175 3049
9822 8436 1735
9823 2271 5237
9824 7791 9584
9825 9171 2228
9826 9660 6872
9827 1583 1164
9828 3881 5979
9829 3965 3741
9830 9767 3897
9831 829  4246
9832 8352 1419
9833 7643 1150
9834 296  1936
9835 6138 2323
9836 9154 8401
9837 4167 9545
9838 5494 5071
9839 8539 3916
9840 4415 2906
9841 3456 8556
9842 4067 2687
9843 1594 229 
9844 6874 7019
9845 4887 8399
9846 7535 6514
9847 7268 1867
9848 2765 4705
9849 1837 7588
9850 6574 9325
9851 3132 7055
9852 50   5405
9853 7253 8869
9854 1506 359 
9855 1151 7090
9856 990  6051
9857 6284 5932
9858 8827 2668
9859 8566 3824
9860 9430 5584
9861 5708 6885
9862 3118 428 
9863 3601 6658
9864 6444 6175
9865 8625 7638
9866 8162 3833
9867 9499 6825
9868 3689 3033
9869 9573 5284
9870 8744 1527
9871 7357 8617
9872 9477 2449
9873 5755 9318
9874 5709 6962
9875 4021 583 
9876 8652 483 
9877 2205 91  
9878 8635 8032
9879 6310 1682
9880 9854 4073
9881 9098 4141
9882 2675 6353
9883 2330 3388
9884 2549 8419
9885 5164 8005
9886 1089 5478
9887 4046 85  
9888 7119 3145
9889 5617 4880
9890 7328 7990
9891 7089 4934
9892 2076 7358
9893 979  902 
9894 332  6496
9895 9823 7483
9896 5380 6412
9897 3072 5346
9898 6648 7496
9899 8051 1692
9900 8834 1628
9901 2765 4366
9902 943  9162
9903 4868 3290
9904 1272 1869
9905 379  7272
9906 7815 950 
9907 35   3141
9908 6359 4228
9909 1027 2767
9910 3356 7985
9911 9582 1808
9912 6411 9663
9913 662  3674
9914 8570 4163
9915 937  3273
9916 9880 1249
9917 8232 3727
9918 9236 4525
9919 2488 4115
9920 8784 4191
9921 5089 8781
9922 1688 5293
9923 9020 9998
9924 1690 3082
9925 6092 7933
9926 3725 3171
9927 7731 2331
9928 3746 8033
9929 353  4178
9930 7683 6812
9931 7896 949 
9932 3440 2502
9933 6751 3463
9934 4451 2090
9935 859  5004
9936 8418 8001
9937 4613 1976
9938 4189 6030
9939 2858 2780
9940 9505 821 
9941 490  2106
9942 1394 9141
9943 6179 7162
9944 7268 4276
9945 2413 7477
9946 1268 9744
9947 6890 6239
9948 2422 1401
9949 4258 9350
9950 7916 1248
9951 6570 141 
9952 462  3128
9953 9757 6389
9954 2695 9401
9955 5550 5952
9956 751  2674
9957 144  5455
9958 3258 70  
9959 1299 3380
9960 568  2858
9961 5605 3885
9962 6399 8122
9963 3125 6787
9964 7212 5029
9965 3984 1327
9966 5568 7838
9967 333  9652
9968 80   1299
9969 6400 738 
9970 7101 6661
9971 1316 2272
9972 82   193 
9973 9334 5525
9974 2963 252 
9975 750  5784
9976 7865 2382
9977 3993 6120
9978 3122 1182
9979 766  6866
9980 3100 1286
9981 7969 6947
9982 6801 3475
9983 835  3543
9984 2120 3894
9985 8393 8745
9986 3449 8556
9987 7650 7362
9988 1314 8312
9989 9786 9197
9990 9712 9132
9991 9970 6391
9992 174  4106
9993 8943 3417
9994 6335 4297
9995 5493 6843
9996 8189 1151
9997 2063 8255
9998 504  8602
9999 2966 6533
10000 8997 7534
10001 3970 8046
DEMAND_SECTION
1    0   
2    26  
3    14  
4    53  
5    34  
6    78  
7    80  
8    82  
9    72  
10   47  
11   23  
12   67  
13   48  
14   68  
15   81  
16   97  
17   77  
18   14  
19   9   
20   36  
21   3   
22   67  
23   47  
24   22  
25   99  
26   70  
27   28  
28   95  
29   21  
30   51  
31   29  
32   99  
33   40  
34   42  
35   14  
36   53  
37   49  
38   34  
39   50  
40   84  
41   49  
42   10  
43   28  
44   39  
45   69  
46   56  
47   97  
48   19  
49   68  
50   36  
51   38  
52   21  
53   40  
54   38  
55   73  
56   17  
57   6   
58   42  
59   82  
60   100 
61   79  
62   57  
63   46  
64   39  
65   72  
66   55  
67   2   
68   62  
69   30  
70   79  
71   64  
72   95  
73   91  
74   71  
75   33  
76   97  
77   16  
78   46  
79   1   
80   58  
81   27  
82   65  
83   29  
84   17  
85   98  
86   55  
87   83  
88   3   
89   8   
90   9   
91   71  
92   52  
93   27  
94   79  
95   31  
96   95  
97   21  
98   45  
99   29  
100  100 
101  66  
102  68  
103  55  
104  60  
105  72  
106  72  
107  63  
108  18  
109  21  
110  95  
111  60  
112  94  
113  4   
114  28  
115  54  
116  64  
117  64  
118  63  
119  23  
120  77  
121  47  
122  35  
123  81  
124  87  
125  66  
126  9   
127  93  
128  100 
129  2   
130  99  
131  66  
132  87  
133  50  
134  90  
135  51  
136  28  
137  72  
138  17  
139  73  
140  47  
141  60  
142  72  
143  23  
144  26  
145  91  
146  16  
147  66  
148  9   
149  9   
150  97  
151  23  
152  86  
153  14  
154  20  
155  66  
156  49  
157  56  
158  2   
159  57  
160  90  
161  45  
162  64  
163  29  
164  52  
165  26  
166  92  
167  30  
168  8   
169  59  
170  77  
171  1   
172  13  
173  9   
174  17  
175  5   
176  35  
177  66  
178  53  
179  37  
180  27  
181  22  
182  26  
183  64  
184  33  
185  91  
186  75  
187  45  
188  48  
189  58  
190  15  
191  8   
192  91  
193  98  
194  25  
195  83  
196  19  
197  64  
198  41  
199  18  
200  18  
201  84  
202  21  
203  27  
204  74  
205  95  
206  7   
207  21  
208  28  
209  17  
210  25  
211  55  
212  46  
213  39  
214  62  
215  88  
216  83  
217  58  
218  8   
219  78  
220  27  
221  47  
222  87  
223  92  
224  2   
225  79  
226  57  
227  34  
228  59  
229  9   
230  1   
231  39  
232  85  
233  12  
234  56  
235  39  
236  30  
237  65  
238  52  
239  71  
240  69  
241  78  
242  16  
243  19  
244  13  
245  18  
246  78  
247  91  
248  76  
249  87  
250  59  
251  70  
252  43  
253  41  
254  12  
255  87  
256  46  
257  22  
258  58  
259  68  
260  85  
261  5   
262  72  
263  31  
264  31  
265  14  
266  83  
267  11  
268  99  
269  79  
270  35  
271  70  
272  81  
273  23  
274  45  
275  52  
276  41  
277  36  
278  60  
279  12  
280  64  
281  96  
282  30  
283  4   
284  46  
285  51  
286  61  
287  34  
288  69  
289  98  
290  97  
291  23  
292  51  
293  64  
294  33  
295  86  
296  43  
297  11  
298  25  
299  81  
300  46  
301  27  
302  92  
303  10  
304  43  
305  56  
306  71  
307  47  
308  21  
309  81  
310  99  
311  52  
312  51  
313  31  
314  94  
315  44  
316  87  
317  87  
318  9   
319  100 
320  18  
321  79  
322  67  
323  83  
324  50  
325  74  
326  19  
327  81  
328  28  
329  99  
330  93  
331  63  
332  7   
333  5   
334  71  
335  38  
336  25  
337  38  
338  19  
339  47  
340  86  
341  76  
342  64  
343  89  
344  100 
345  12  
346  91  
347  65  
348  98  
349  95  
350  50  
351  24  
352  60  
353  35  
354  26  
355  81  
356  95  
357  5   
358  30  
359  64  
360  48  
361  56  
362  55  
363  65  
364  94  
365  89  
366  43  
367  58  
368  75  
369  17  
370  13  
371  76  
372  10  
373  58  
374  67  
375  46  
376  24  
377  64  
378  64  
379  23  
380  61  
381  69  
382  36  
383  34  
384  70  
385  5   
386  67  
387  59  
388  65  
389  96  
390  5   
391  16  
392  72  
393  2   
394  28  
395  58  
396  67  
397  29  
398  81  
399  32  
400  99  
401  44  
402  1   
403  36  
404  10  
405  40  
406  15  
407  4   
408  19  
409  87  
410  19  
411  6   
412  69  
413  17  
414  75  
415  85  
416  97  
417  55  
418  84  
419  45  
420  85  
421  28  
422  75  
423  26  
424  71  
425  43  
426  50  
427  85  
428  20  
429  3   
430  81  
431  7   
432  48  
433  54  
434  3   
435  100 
436  60  
437  35  
438  24  
439  81  
440  14  
441  69  
442  33  
443  60  
444  31  
445  13  
446  32  
447  2   
448  50  
449  87  
450  90  
451  20  
452  88  
453  79  
454  14  
455  47  
456  28  
457  2   
458  33  
459  17  
460  36  
461  40  
462  46  
463  50  
464  58  
465  75  
466  59  
467  33  
468  56  
469  23  
470  15  
471  82  
472  95  
473  39  
474  59  
475  39  
476  3   
477  15  
478  11  
479  94  
480  34  
481  66  
482  64  
483  67  
484  97  
485  36  
486  18  
487  51  
488  22  
489  98  
490  51  
491  18  
492  43  
493  57  
494  3   
495  36  
496  74  
497  81  
498  74  
499  16  
500  73  
501  94  
502  42  
503  12  
504  46  
505  46  
506  24  
507  81  
508  10  
509  5   
510  60  
511  22  
512  34  
513  14  
514  54  
515  1   
516  41  
517  55  
518  58  
519  7   
520  70  
521  56  
522  33  
523  60  
524  79  
525  58  
526  48  
527  97  
528  98  
529  34  
530  42  
531  39  
532  81  
533  45  
534  26  
535  19  
536  29  
537  93  
538  9   
539  96  
540  71  
541  80  
542  94  
543  27  
544  35  
545  34  
546  38  
547  60  
548  52  
549  61  
550  39  
551  9   
552  7   
553  60  
554  6   
555  80  
556  99  
557  17  
558  1   
559  48  
560  24  
561  87  
562  92  
563  27  
564  91  
565  72  
566  79  
567  3   
568  31  
569  86  
570  77  
571  41  
572  8   
573  48  
574  73  
575  63  
576  70  
577  43  
578  62  
579  32  
580  40  
581  71  
582  93  
583  31  
584  23  
585  84  
586  58  
587  56  
588  3   
589  13  
590  97  
591  44  
592  42  
593  21  
594  45  
595  19  
596  42  
597  94  
598  79  
599  15  
600  86  
601  64  
602  89  
603  79  
604  7   
605  65  
606  13  
607  77  
608  47  
609  97  
610  69  
611  33  
612  59  
613  85  
614  46  
615  26  
616  55  
617  10  
618  92  
619  22  
620  31  
621  11  
622  10  
623  88  
624  32  
625  65  
626  30  
627  8   
628  87  
629  95  
630  82  
631  59  
632  67  
633  58  
634  9   
635  22  
636  98  
637  20  
638  94  
639  54  
640  69  
641  100 
642  20  
643  42  
644  82  
645  70  
646  83  
647  73  
648  12  
649  69  
650  81  
651  93  
652  100 
653  58  
654  29  
655  19  
656  60  
657  30  
658  84  
659  43  
660  87  
661  3   
662  73  
663  36  
664  18  
665  34  
666  1   
667  14  
668  65  
669  91  
670  63  
671  88  
672  77  
673  89  
674  14  
675  28  
676  63  
677  12  
678  9   
679  4   
680  92  
681  97  
682  33  
683  52  
684  26  
685  75  
686  90  
687  41  
688  24  
689  68  
690  71  
691  31  
692  99  
693  47  
694  42  
695  69  
696  63  
697  83  
698  9   
699  62  
700  34  
701  5   
702  54  
703  53  
704  94  
705  60  
706  94  
707  99  
708  60  
709  23  
710  47  
711  84  
712  79  
713  69  
714  8   
715  55  
716  38  
717  39  
718  95  
719  58  
720  14  
721  92  
722  9   
723  96  
724  81  
725  89  
726  77  
727  90  
728  47  
729  88  
730  31  
731  80  
732  85  
733  48  
734  85  
735  16  
736  38  
737  65  
738  69  
739  61  
740  28  
741  59  
742  70  
743  64  
744  19  
745  36  
746  3   
747  20  
748  25  
749  43  
750  3   
751  42  
752  51  
753  76  
754  28  
755  20  
756  43  
757  47  
758  3   
759  71  
760  61  
761  64  
762  39  
763  27  
764  58  
765  18  
766  2   
767  2   
768  62  
769  48  
770  20  
771  33  
772  65  
773  9   
774  49  
775  57  
776  19  
777  52  
778  19  
779  64  
780  13  
781  45  
782  89  
783  50  
784  61  
785  69  
786  9   
787  26  
788  60  
789  29  
790  65  
791  16  
792  62  
793  23  
794  74  
795  86  
796  82  
797  41  
798  64  
799  44  
800  59  
801  6   
802  96  
803  6   
804  42  
805  53  
806  51  
807  20  
808  52  
809  26  
810  54  
811  16  
812  49  
813  44  
814  27  
815  92  
816  57  
817  32  
818  92  
819  14  
820  23  
821  36  
822  3   
823  98  
824  46  
825  2   
826  28  
827  59  
828  31  
829  1   
830  60  
831  92  
832  26  
833  12  
834  99  
835  85  
836  69  
837  49  
838  12  
839  8   
840  99  
841  3   
842  40  
843  91  
844  85  
845  92  
846  78  
847  28  
848  3   
849  64  
850  24  
851  37  
852  24  
853  69  
854  13  
855  38  
856  15  
857  87  
858  24  
859  34  
860  49  
861  18  
862  81  
863  46  
864  44  
865  77  
866  63  
867  100 
868  96  
869  76  
870  91  
871  33  
872  11  
873  93  
874  69  
875  96  
876  57  
877  51  
878  27  
879  15  
880  64  
881  77  
882  59  
883  28  
884  24  
885  53  
886  89  
887  71  
888  21  
889  50  
890  78  
891  39  
892  63  
893  14  
894  85  
895  88  
896  21  
897  6   
898  61  
899  62  
900  58  
901  33  
902  87  
903  39  
904  2   
905  13  
906  68  
907  81  
908  77  
909  25  
910  28  
911  62  
912  99  
913  65  
914  4   
915  2   
916  3   
917  72  
918  31  
919  32  
920  87  
921  45  
922  45  
923  85  
924  6   
925  3   
926  25  
927  66  
928  7   
929  63  
930  30  
931  94  
932  30  
933  18  
934  8   
935  76  
936  65  
937  88  
938  86  
939  59  
940  70  
941  59  
942  89  
943  87  
944  99  
945  81  
946  83  
947  7   
948  64  
949  12  
950  29  
951  69  
952  38  
953  26  
954  47  
955  3   
956  3   
957  1   
958  38  
959  31  
960  83  
961  71  
962  34  
963  15  
964  95  
965  57  
966  20  
967  77  
968  6   
969  4   
970  51  
971  93  
972  20  
973  78  
974  27  
975  76  
976  25  
977  45  
978  66  
979  61  
980  18  
981  88  
982  45  
983  62  
984  72  
985  38  
986  38  
987  63  
988  85  
989  68  
990  42  
991  45  
992  87  
993  32  
994  65  
995  40  
996  54  
997  51  
998  36  
999  82  
1000 2   
1001 48  
1002 20  
1003 4   
1004 83  
1005 69  
1006 78  
1007 32  
1008 75  
1009 78  
1010 2   
1011 16  
1012 22  
1013 94  
1014 69  
1015 14  
1016 36  
1017 21  
1018 51  
1019 11  
1020 95  
1021 96  
1022 47  
1023 53  
1024 71  
1025 46  
1026 23  
1027 78  
1028 43  
1029 3   
1030 25  
1031 11  
1032 56  
1033 29  
1034 90  
1035 50  
1036 10  
1037 92  
1038 68  
1039 100 
1040 86  
1041 96  
1042 16  
1043 2   
1044 54  
1045 5   
1046 61  
1047 5   
1048 38  
1049 45  
1050 22  
1051 16  
1052 90  
1053 33  
1054 8   
1055 73  
1056 11  
1057 49  
1058 97  
1059 99  
1060 37  
1061 68  
1062 4   
1063 49  
1064 85  
1065 52  
1066 3   
1067 35  
1068 47  
1069 74  
1070 97  
1071 13  
1072 17  
1073 89  
1074 98  
1075 42  
1076 4   
1077 25  
1078 20  
1079 20  
1080 64  
1081 35  
1082 39  
1083 73  
1084 70  
1085 9   
1086 96  
1087 63  
1088 77  
1089 34  
1090 92  
1091 16  
1092 92  
1093 40  
1094 33  
1095 26  
1096 75  
1097 24  
1098 85  
1099 24  
1100 3   
1101 51  
1102 14  
1103 20  
1104 59  
1105 40  
1106 88  
1107 84  
1108 72  
1109 2   
1110 81  
1111 57  
1112 3   
1113 7   
1114 43  
1115 39  
1116 94  
1117 80  
1118 61  
1119 22  
1120 27  
1121 41  
1122 49  
1123 42  
1124 8   
1125 84  
1126 91  
1127 46  
1128 78  
1129 77  
1130 33  
1131 14  
1132 13  
1133 80  
1134 16  
1135 16  
1136 5   
1137 66  
1138 42  
1139 4   
1140 86  
1141 3   
1142 67  
1143 31  
1144 75  
1145 87  
1146 60  
1147 19  
1148 26  
1149 29  
1150 42  
1151 19  
1152 18  
1153 22  
1154 22  
1155 72  
1156 87  
1157 96  
1158 53  
1159 22  
1160 98  
1161 37  
1162 50  
1163 4   
1164 1   
1165 48  
1166 7   
1167 86  
1168 21  
1169 20  
1170 70  
1171 25  
1172 34  
1173 83  
1174 65  
1175 85  
1176 28  
1177 93  
1178 63  
1179 8   
1180 90  
1181 44  
1182 77  
1183 75  
1184 20  
1185 43  
1186 73  
1187 55  
1188 6   
1189 31  
1190 83  
1191 93  
1192 65  
1193 93  
1194 96  
1195 80  
1196 87  
1197 44  
1198 71  
1199 9   
1200 48  
1201 95  
1202 88  
1203 45  
1204 95  
1205 36  
1206 98  
1207 94  
1208 56  
1209 17  
1210 61  
1211 30  
1212 5   
1213 24  
1214 45  
1215 32  
1216 27  
1217 17  
1218 81  
1219 95  
1220 75  
1221 22  
1222 9   
1223 77  
1224 14  
1225 79  
1226 28  
1227 41  
1228 93  
1229 32  
1230 53  
1231 49  
1232 75  
1233 85  
1234 56  
1235 45  
1236 28  
1237 43  
1238 87  
1239 18  
1240 62  
1241 75  
1242 29  
1243 88  
1244 36  
1245 70  
1246 4   
1247 57  
1248 90  
1249 79  
1250 11  
1251 20  
1252 42  
1253 11  
1254 77  
1255 27  
1256 3   
1257 92  
1258 83  
1259 26  
1260 86  
1261 25  
1262 62  
1263 89  
1264 9   
1265 40  
1266 81  
1267 51  
1268 49  
1269 51  
1270 60  
1271 25  
1272 99  
1273 86  
1274 9   
1275 46  
1276 22  
1277 57  
1278 6   
1279 55  
1280 52  
1281 32  
1282 77  
1283 78  
1284 44  
1285 100 
1286 6   
1287 78  
1288 100 
1289 29  
1290 14  
1291 64  
1292 77  
1293 3   
1294 15  
1295 25  
1296 100 
1297 18  
1298 35  
1299 71  
1300 23  
1301 86  
1302 46  
1303 83  
1304 84  
1305 17  
1306 41  
1307 5   
1308 99  
1309 22  
1310 23  
1311 34  
1312 31  
1313 47  
1314 7   
1315 100 
1316 84  
1317 48  
1318 67  
1319 87  
1320 98  
1321 94  
1322 39  
1323 53  
1324 79  
1325 44  
1326 51  
1327 62  
1328 48  
1329 17  
1330 57  
1331 85  
1332 75  
1333 11  
1334 57  
1335 95  
1336 33  
1337 69  
1338 42  
1339 39  
1340 60  
1341 47  
1342 75  
1343 3   
1344 19  
1345 37  
1346 95  
1347 48  
1348 70  
1349 84  
1350 4   
1351 20  
1352 50  
1353 15  
1354 96  
1355 12  
1356 59  
1357 41  
1358 62  
1359 41  
1360 1   
1361 30  
1362 94  
1363 6   
1364 23  
1365 95  
1366 99  
1367 45  
1368 25  
1369 77  
1370 100 
1371 4   
1372 75  
1373 83  
1374 74  
1375 18  
1376 8   
1377 26  
1378 24  
1379 38  
1380 23  
1381 22  
1382 33  
1383 78  
1384 76  
1385 18  
1386 80  
1387 7   
1388 3   
1389 70  
1390 64  
1391 41  
1392 12  
1393 68  
1394 32  
1395 52  
1396 57  
1397 78  
1398 49  
1399 4   
1400 1   
1401 47  
1402 5   
1403 47  
1404 93  
1405 47  
1406 94  
1407 3   
1408 26  
1409 32  
1410 55  
1411 100 
1412 54  
1413 21  
1414 9   
1415 22  
1416 52  
1417 51  
1418 90  
1419 26  
1420 13  
1421 75  
1422 73  
1423 15  
1424 19  
1425 49  
1426 8   
1427 52  
1428 56  
1429 99  
1430 9   
1431 2   
1432 14  
1433 26  
1434 50  
1435 90  
1436 88  
1437 96  
1438 22  
1439 20  
1440 28  
1441 99  
1442 9   
1443 60  
1444 92  
1445 37  
1446 99  
1447 31  
1448 93  
1449 4   
1450 55  
1451 74  
1452 94  
1453 39  
1454 39  
1455 88  
1456 10  
1457 93  
1458 67  
1459 97  
1460 93  
1461 97  
1462 98  
1463 12  
1464 49  
1465 96  
1466 7   
1467 58  
1468 7   
1469 8   
1470 86  
1471 25  
1472 15  
1473 31  
1474 47  
1475 8   
1476 53  
1477 82  
1478 12  
1479 54  
1480 51  
1481 62  
1482 32  
1483 62  
1484 84  
1485 43  
1486 17  
1487 94  
1488 48  
1489 55  
1490 68  
1491 44  
1492 6   
1493 30  
1494 43  
1495 11  
1496 30  
1497 86  
1498 39  
1499 58  
1500 26  
1501 2   
1502 47  
1503 46  
1504 47  
1505 79  
1506 76  
1507 81  
1508 33  
1509 64  
1510 45  
1511 71  
1512 68  
1513 41  
1514 42  
1515 16  
1516 77  
1517 25  
1518 35  
1519 36  
1520 81  
1521 99  
1522 32  
1523 98  
1524 12  
1525 67  
1526 31  
1527 1   
1528 74  
1529 9   
1530 83  
1531 23  
1532 47  
1533 48  
1534 42  
1535 82  
1536 19  
1537 33  
1538 56  
1539 73  
1540 10  
1541 33  
1542 11  
1543 67  
1544 95  
1545 30  
1546 93  
1547 50  
1548 3   
1549 87  
1550 80  
1551 12  
1552 10  
1553 72  
1554 95  
1555 27  
1556 30  
1557 28  
1558 46  
1559 92  
1560 59  
1561 55  
1562 89  
1563 85  
1564 84  
1565 95  
1566 87  
1567 87  
1568 18  
1569 68  
1570 22  
1571 18  
1572 32  
1573 16  
1574 69  
1575 13  
1576 68  
1577 53  
1578 38  
1579 47  
1580 14  
1581 43  
1582 80  
1583 32  
1584 83  
1585 40  
1586 43  
1587 2   
1588 92  
1589 58  
1590 48  
1591 46  
1592 4   
1593 95  
1594 96  
1595 99  
1596 83  
1597 81  
1598 32  
1599 20  
1600 62  
1601 99  
1602 40  
1603 96  
1604 74  
1605 73  
1606 74  
1607 37  
1608 26  
1609 65  
1610 63  
1611 64  
1612 93  
1613 78  
1614 48  
1615 5   
1616 15  
1617 38  
1618 14  
1619 80  
1620 12  
1621 65  
1622 24  
1623 28  
1624 91  
1625 95  
1626 50  
1627 37  
1628 86  
1629 98  
1630 21  
1631 14  
1632 5   
1633 67  
1634 44  
1635 39  
1636 55  
1637 69  
1638 13  
1639 72  
1640 96  
1641 56  
1642 91  
1643 42  
1644 25  
1645 53  
1646 69  
1647 37  
1648 31  
1649 45  
1650 49  
1651 43  
1652 1   
1653 64  
1654 69  
1655 39  
1656 77  
1657 88  
1658 88  
1659 2   
1660 100 
1661 30  
1662 17  
1663 45  
1664 25  
1665 12  
1666 28  
1667 47  
1668 78  
1669 40  
1670 36  
1671 39  
1672 98  
1673 76  
1674 60  
1675 5   
1676 43  
1677 75  
1678 14  
1679 34  
1680 30  
1681 86  
1682 56  
1683 85  
1684 5   
1685 20  
1686 67  
1687 18  
1688 45  
1689 12  
1690 85  
1691 83  
1692 3   
1693 35  
1694 38  
1695 18  
1696 16  
1697 49  
1698 4   
1699 7   
1700 42  
1701 24  
1702 9   
1703 53  
1704 39  
1705 12  
1706 76  
1707 32  
1708 14  
1709 45  
1710 95  
1711 45  
1712 52  
1713 10  
1714 49  
1715 64  
1716 29  
1717 23  
1718 45  
1719 44  
1720 26  
1721 7   
1722 71  
1723 88  
1724 12  
1725 91  
1726 25  
1727 88  
1728 63  
1729 23  
1730 35  
1731 41  
1732 44  
1733 97  
1734 81  
1735 90  
1736 25  
1737 50  
1738 39  
1739 69  
1740 88  
1741 22  
1742 11  
1743 5   
1744 16  
1745 63  
1746 84  
1747 30  
1748 34  
1749 45  
1750 11  
1751 29  
1752 70  
1753 19  
1754 1   
1755 20  
1756 48  
1757 82  
1758 45  
1759 14  
1760 32  
1761 81  
1762 42  
1763 31  
1764 47  
1765 41  
1766 10  
1767 71  
1768 5   
1769 88  
1770 87  
1771 44  
1772 73  
1773 3   
1774 74  
1775 57  
1776 95  
1777 15  
1778 81  
1779 73  
1780 42  
1781 59  
1782 16  
1783 26  
1784 27  
1785 1   
1786 20  
1787 34  
1788 68  
1789 55  
1790 5   
1791 84  
1792 46  
1793 81  
1794 54  
1795 49  
1796 12  
1797 99  
1798 94  
1799 94  
1800 22  
1801 50  
1802 73  
1803 25  
1804 99  
1805 25  
1806 13  
1807 14  
1808 85  
1809 39  
1810 100 
1811 37  
1812 73  
1813 76  
1814 90  
1815 56  
1816 10  
1817 7   
1818 11  
1819 88  
1820 42  
1821 17  
1822 14  
1823 3   
1824 10  
1825 99  
1826 4   
1827 1   
1828 9   
1829 22  
1830 73  
1831 16  
1832 36  
1833 69  
1834 79  
1835 72  
1836 20  
1837 70  
1838 100 
1839 31  
1840 11  
1841 50  
1842 73  
1843 42  
1844 35  
1845 59  
1846 73  
1847 58  
1848 49  
1849 42  
1850 62  
1851 47  
1852 8   
1853 58  
1854 29  
1855 32  
1856 29  
1857 22  
1858 13  
1859 55  
1860 36  
1861 67  
1862 24  
1863 99  
1864 43  
1865 48  
1866 69  
1867 22  
1868 77  
1869 62  
1870 93  
1871 20  
1872 67  
1873 26  
1874 44  
1875 98  
1876 99  
1877 56  
1878 49  
1879 31  
1880 28  
1881 92  
1882 1   
1883 88  
1884 55  
1885 9   
1886 54  
1887 31  
1888 95  
1889 89  
1890 64  
1891 85  
1892 17  
1893 6   
1894 25  
1895 35  
1896 62  
1897 35  
1898 77  
1899 29  
1900 78  
1901 81  
1902 5   
1903 69  
1904 52  
1905 43  
1906 26  
1907 37  
1908 1   
1909 33  
1910 81  
1911 55  
1912 42  
1913 100 
1914 54  
1915 40  
1916 77  
1917 45  
1918 38  
1919 42  
1920 72  
1921 69  
1922 26  
1923 89  
1924 37  
1925 98  
1926 17  
1927 43  
1928 74  
1929 86  
1930 11  
1931 81  
1932 58  
1933 88  
1934 7   
1935 23  
1936 96  
1937 15  
1938 85  
1939 25  
1940 13  
1941 23  
1942 45  
1943 9   
1944 20  
1945 39  
1946 6   
1947 6   
1948 19  
1949 76  
1950 79  
1951 63  
1952 26  
1953 17  
1954 71  
1955 65  
1956 34  
1957 7   
1958 9   
1959 84  
1960 48  
1961 100 
1962 48  
1963 39  
1964 16  
1965 41  
1966 8   
1967 21  
1968 32  
1969 83  
1970 71  
1971 18  
1972 5   
1973 1   
1974 18  
1975 6   
1976 82  
1977 28  
1978 33  
1979 15  
1980 24  
1981 5   
1982 100 
1983 31  
1984 86  
1985 80  
1986 16  
1987 44  
1988 68  
1989 64  
1990 41  
1991 53  
1992 10  
1993 9   
1994 48  
1995 13  
1996 8   
1997 27  
1998 97  
1999 89  
2000 83  
2001 87  
2002 19  
2003 93  
2004 78  
2005 26  
2006 38  
2007 20  
2008 23  
2009 76  
2010 43  
2011 37  
2012 33  
2013 22  
2014 13  
2015 49  
2016 9   
2017 45  
2018 96  
2019 66  
2020 43  
2021 100 
2022 92  
2023 6   
2024 91  
2025 84  
2026 90  
2027 18  
2028 41  
2029 17  
2030 45  
2031 13  
2032 40  
2033 50  
2034 47  
2035 36  
2036 2   
2037 91  
2038 47  
2039 3   
2040 49  
2041 95  
2042 92  
2043 79  
2044 98  
2045 25  
2046 30  
2047 57  
2048 51  
2049 89  
2050 2   
2051 36  
2052 28  
2053 49  
2054 28  
2055 97  
2056 15  
2057 3   
2058 83  
2059 74  
2060 1   
2061 45  
2062 36  
2063 37  
2064 33  
2065 70  
2066 35  
2067 39  
2068 22  
2069 17  
2070 74  
2071 99  
2072 51  
2073 97  
2074 47  
2075 49  
2076 80  
2077 46  
2078 63  
2079 42  
2080 10  
2081 88  
2082 92  
2083 82  
2084 100 
2085 74  
2086 43  
2087 78  
2088 80  
2089 24  
2090 63  
2091 9   
2092 33  
2093 50  
2094 91  
2095 73  
2096 30  
2097 50  
2098 75  
2099 86  
2100 18  
2101 97  
2102 80  
2103 40  
2104 46  
2105 12  
2106 40  
2107 31  
2108 2   
2109 62  
2110 57  
2111 43  
2112 95  
2113 18  
2114 92  
2115 32  
2116 82  
2117 86  
2118 11  
2119 36  
2120 69  
2121 63  
2122 95  
2123 9   
2124 84  
2125 52  
2126 98  
2127 3   
2128 36  
2129 48  
2130 78  
2131 40  
2132 2   
2133 10  
2134 47  
2135 34  
2136 37  
2137 31  
2138 2   
2139 59  
2140 78  
2141 15  
2142 95  
2143 93  
2144 58  
2145 28  
2146 99  
2147 53  
2148 70  
2149 70  
2150 8   
2151 89  
2152 63  
2153 68  
2154 13  
2155 6   
2156 28  
2157 56  
2158 88  
2159 51  
2160 6   
2161 50  
2162 94  
2163 46  
2164 26  
2165 28  
2166 2   
2167 90  
2168 73  
2169 97  
2170 95  
2171 74  
2172 10  
2173 100 
2174 58  
2175 16  
2176 53  
2177 40  
2178 44  
2179 8   
2180 7   
2181 41  
2182 34  
2183 89  
2184 24  
2185 54  
2186 86  
2187 36  
2188 22  
2189 45  
2190 53  
2191 97  
2192 49  
2193 25  
2194 69  
2195 10  
2196 90  
2197 77  
2198 58  
2199 53  
2200 7   
2201 44  
2202 2   
2203 70  
2204 94  
2205 24  
2206 73  
2207 82  
2208 22  
2209 47  
2210 7   
2211 76  
2212 92  
2213 9   
2214 74  
2215 42  
2216 2   
2217 90  
2218 57  
2219 68  
2220 8   
2221 14  
2222 97  
2223 40  
2224 94  
2225 92  
2226 100 
2227 56  
2228 81  
2229 31  
2230 76  
2231 46  
2232 67  
2233 46  
2234 73  
2235 72  
2236 6   
2237 55  
2238 16  
2239 65  
2240 36  
2241 7   
2242 48  
2243 23  
2244 46  
2245 53  
2246 48  
2247 5   
2248 54  
2249 43  
2250 10  
2251 3   
2252 72  
2253 5   
2254 86  
2255 71  
2256 40  
2257 66  
2258 77  
2259 36  
2260 44  
2261 97  
2262 41  
2263 33  
2264 48  
2265 7   
2266 2   
2267 72  
2268 56  
2269 4   
2270 55  
2271 35  
2272 31  
2273 96  
2274 45  
2275 25  
2276 37  
2277 41  
2278 15  
2279 5   
2280 89  
2281 44  
2282 15  
2283 65  
2284 16  
2285 51  
2286 29  
2287 75  
2288 70  
2289 79  
2290 30  
2291 31  
2292 34  
2293 7   
2294 57  
2295 15  
2296 82  
2297 69  
2298 42  
2299 58  
2300 67  
2301 15  
2302 42  
2303 91  
2304 10  
2305 76  
2306 43  
2307 50  
2308 60  
2309 12  
2310 60  
2311 72  
2312 9   
2313 28  
2314 37  
2315 39  
2316 98  
2317 20  
2318 69  
2319 22  
2320 66  
2321 53  
2322 98  
2323 77  
2324 19  
2325 39  
2326 86  
2327 13  
2328 39  
2329 10  
2330 54  
2331 99  
2332 95  
2333 66  
2334 4   
2335 97  
2336 97  
2337 70  
2338 86  
2339 14  
2340 28  
2341 90  
2342 15  
2343 20  
2344 61  
2345 47  
2346 47  
2347 29  
2348 80  
2349 17  
2350 47  
2351 88  
2352 94  
2353 41  
2354 54  
2355 40  
2356 95  
2357 62  
2358 88  
2359 55  
2360 41  
2361 58  
2362 23  
2363 61  
2364 5   
2365 84  
2366 78  
2367 40  
2368 59  
2369 36  
2370 68  
2371 80  
2372 30  
2373 18  
2374 74  
2375 72  
2376 52  
2377 97  
2378 86  
2379 97  
2380 89  
2381 17  
2382 20  
2383 94  
2384 89  
2385 19  
2386 6   
2387 79  
2388 83  
2389 90  
2390 76  
2391 6   
2392 63  
2393 35  
2394 22  
2395 81  
2396 70  
2397 51  
2398 91  
2399 28  
2400 27  
2401 59  
2402 5   
2403 11  
2404 95  
2405 77  
2406 74  
2407 91  
2408 79  
2409 79  
2410 50  
2411 87  
2412 77  
2413 72  
2414 77  
2415 81  
2416 1   
2417 27  
2418 7   
2419 43  
2420 86  
2421 13  
2422 78  
2423 69  
2424 44  
2425 65  
2426 3   
2427 20  
2428 85  
2429 72  
2430 23  
2431 49  
2432 19  
2433 73  
2434 18  
2435 69  
2436 92  
2437 31  
2438 48  
2439 37  
2440 40  
2441 85  
2442 59  
2443 17  
2444 24  
2445 82  
2446 41  
2447 9   
2448 38  
2449 37  
2450 63  
2451 95  
2452 26  
2453 78  
2454 49  
2455 28  
2456 47  
2457 36  
2458 94  
2459 27  
2460 80  
2461 6   
2462 21  
2463 33  
2464 5   
2465 46  
2466 88  
2467 42  
2468 40  
2469 38  
2470 73  
2471 38  
2472 64  
2473 69  
2474 20  
2475 54  
2476 67  
2477 31  
2478 50  
2479 6   
2480 84  
2481 52  
2482 51  
2483 39  
2484 79  
2485 29  
2486 66  
2487 4   
2488 67  
2489 44  
2490 100 
2491 42  
2492 20  
2493 79  
2494 24  
2495 76  
2496 94  
2497 49  
2498 79  
2499 9   
2500 93  
2501 98  
2502 20  
2503 91  
2504 88  
2505 34  
2506 30  
2507 83  
2508 36  
2509 27  
2510 67  
2511 70  
2512 95  
2513 6   
2514 26  
2515 79  
2516 3   
2517 3   
2518 52  
2519 14  
2520 86  
2521 48  
2522 18  
2523 1   
2524 12  
2525 35  
2526 54  
2527 64  
2528 45  
2529 80  
2530 89  
2531 25  
2532 26  
2533 70  
2534 70  
2535 27  
2536 28  
2537 1   
2538 9   
2539 100 
2540 49  
2541 73  
2542 31  
2543 43  
2544 18  
2545 43  
2546 77  
2547 26  
2548 19  
2549 1   
2550 35  
2551 27  
2552 49  
2553 32  
2554 64  
2555 29  
2556 91  
2557 94  
2558 11  
2559 81  
2560 15  
2561 18  
2562 47  
2563 47  
2564 80  
2565 45  
2566 23  
2567 47  
2568 59  
2569 62  
2570 88  
2571 14  
2572 93  
2573 77  
2574 75  
2575 17  
2576 36  
2577 64  
2578 35  
2579 66  
2580 17  
2581 100 
2582 20  
2583 95  
2584 42  
2585 64  
2586 95  
2587 2   
2588 20  
2589 25  
2590 62  
2591 53  
2592 72  
2593 64  
2594 42  
2595 34  
2596 25  
2597 91  
2598 61  
2599 100 
2600 50  
2601 51  
2602 2   
2603 24  
2604 46  
2605 72  
2606 84  
2607 63  
2608 31  
2609 43  
2610 34  
2611 4   
2612 7   
2613 87  
2614 65  
2615 57  
2616 45  
2617 27  
2618 53  
2619 88  
2620 10  
2621 87  
2622 40  
2623 40  
2624 10  
2625 100 
2626 63  
2627 71  
2628 30  
2629 80  
2630 30  
2631 47  
2632 65  
2633 23  
2634 40  
2635 54  
2636 96  
2637 46  
2638 77  
2639 9   
2640 79  
2641 31  
2642 13  
2643 53  
2644 44  
2645 81  
2646 34  
2647 13  
2648 45  
2649 29  
2650 79  
2651 54  
2652 53  
2653 98  
2654 59  
2655 61  
2656 66  
2657 11  
2658 47  
2659 48  
2660 14  
2661 21  
2662 22  
2663 34  
2664 86  
2665 11  
2666 71  
2667 85  
2668 74  
2669 40  
2670 79  
2671 87  
2672 3   
2673 83  
2674 3   
2675 23  
2676 68  
2677 26  
2678 16  
2679 49  
2680 8   
2681 24  
2682 83  
2683 94  
2684 32  
2685 87  
2686 80  
2687 56  
2688 92  
2689 74  
2690 79  
2691 4   
2692 27  
2693 88  
2694 14  
2695 94  
2696 81  
2697 44  
2698 30  
2699 75  
2700 18  
2701 44  
2702 1   
2703 34  
2704 63  
2705 46  
2706 25  
2707 49  
2708 3   
2709 92  
2710 71  
2711 67  
2712 67  
2713 45  
2714 87  
2715 32  
2716 50  
2717 89  
2718 5   
2719 36  
2720 87  
2721 72  
2722 58  
2723 70  
2724 12  
2725 73  
2726 73  
2727 45  
2728 51  
2729 96  
2730 25  
2731 54  
2732 12  
2733 57  
2734 35  
2735 2   
2736 27  
2737 48  
2738 91  
2739 20  
2740 18  
2741 60  
2742 25  
2743 89  
2744 39  
2745 19  
2746 53  
2747 4   
2748 18  
2749 30  
2750 55  
2751 42  
2752 3   
2753 96  
2754 78  
2755 32  
2756 21  
2757 31  
2758 37  
2759 95  
2760 36  
2761 16  
2762 85  
2763 55  
2764 82  
2765 64  
2766 74  
2767 10  
2768 59  
2769 47  
2770 61  
2771 17  
2772 25  
2773 4   
2774 48  
2775 10  
2776 11  
2777 30  
2778 17  
2779 81  
2780 93  
2781 73  
2782 99  
2783 98  
2784 11  
2785 30  
2786 99  
2787 16  
2788 97  
2789 55  
2790 58  
2791 98  
2792 42  
2793 10  
2794 15  
2795 37  
2796 66  
2797 39  
2798 77  
2799 42  
2800 67  
2801 90  
2802 49  
2803 82  
2804 39  
2805 55  
2806 55  
2807 26  
2808 57  
2809 96  
2810 18  
2811 95  
2812 14  
2813 64  
2814 38  
2815 88  
2816 57  
2817 77  
2818 81  
2819 100 
2820 81  
2821 56  
2822 83  
2823 46  
2824 80  
2825 9   
2826 71  
2827 62  
2828 50  
2829 52  
2830 3   
2831 1   
2832 19  
2833 4   
2834 93  
2835 70  
2836 5   
2837 67  
2838 15  
2839 84  
2840 60  
2841 91  
2842 71  
2843 80  
2844 65  
2845 97  
2846 19  
2847 19  
2848 63  
2849 85  
2850 29  
2851 19  
2852 82  
2853 26  
2854 1   
2855 95  
2856 29  
2857 89  
2858 99  
2859 12  
2860 10  
2861 65  
2862 44  
2863 83  
2864 56  
2865 22  
2866 85  
2867 37  
2868 41  
2869 80  
2870 31  
2871 60  
2872 97  
2873 20  
2874 32  
2875 2   
2876 7   
2877 22  
2878 67  
2879 1   
2880 54  
2881 54  
2882 10  
2883 63  
2884 62  
2885 62  
2886 61  
2887 64  
2888 6   
2889 16  
2890 76  
2891 9   
2892 100 
2893 91  
2894 5   
2895 31  
2896 8   
2897 2   
2898 37  
2899 62  
2900 59  
2901 77  
2902 88  
2903 18  
2904 57  
2905 27  
2906 36  
2907 43  
2908 7   
2909 51  
2910 98  
2911 90  
2912 20  
2913 78  
2914 35  
2915 33  
2916 75  
2917 33  
2918 38  
2919 70  
2920 62  
2921 69  
2922 62  
2923 69  
2924 88  
2925 67  
2926 93  
2927 15  
2928 43  
2929 69  
2930 72  
2931 65  
2932 71  
2933 95  
2934 18  
2935 5   
2936 95  
2937 54  
2938 64  
2939 21  
2940 28  
2941 16  
2942 43  
2943 61  
2944 47  
2945 1   
2946 91  
2947 100 
2948 74  
2949 28  
2950 24  
2951 71  
2952 35  
2953 44  
2954 32  
2955 81  
2956 56  
2957 8   
2958 6   
2959 96  
2960 82  
2961 23  
2962 26  
2963 100 
2964 100 
2965 60  
2966 91  
2967 5   
2968 49  
2969 9   
2970 45  
2971 30  
2972 100 
2973 85  
2974 25  
2975 80  
2976 51  
2977 13  
2978 21  
2979 85  
2980 61  
2981 29  
2982 96  
2983 17  
2984 28  
2985 81  
2986 76  
2987 100 
2988 80  
2989 44  
2990 67  
2991 70  
2992 55  
2993 46  
2994 94  
2995 40  
2996 57  
2997 56  
2998 72  
2999 90  
3000 41  
3001 43  
3002 85  
3003 87  
3004 57  
3005 42  
3006 21  
3007 86  
3008 28  
3009 31  
3010 27  
3011 27  
3012 7   
3013 70  
3014 71  
3015 4   
3016 25  
3017 94  
3018 24  
3019 45  
3020 44  
3021 98  
3022 94  
3023 73  
3024 11  
3025 6   
3026 74  
3027 11  
3028 53  
3029 83  
3030 4   
3031 94  
3032 31  
3033 52  
3034 90  
3035 40  
3036 100 
3037 40  
3038 100 
3039 51  
3040 35  
3041 34  
3042 25  
3043 7   
3044 97  
3045 4   
3046 24  
3047 29  
3048 49  
3049 36  
3050 48  
3051 92  
3052 25  
3053 40  
3054 62  
3055 26  
3056 94  
3057 30  
3058 82  
3059 49  
3060 50  
3061 81  
3062 86  
3063 75  
3064 82  
3065 20  
3066 70  
3067 87  
3068 4   
3069 11  
3070 66  
3071 83  
3072 62  
3073 13  
3074 89  
3075 86  
3076 89  
3077 96  
3078 78  
3079 49  
3080 82  
3081 26  
3082 7   
3083 93  
3084 1   
3085 75  
3086 70  
3087 6   
3088 17  
3089 80  
3090 91  
3091 6   
3092 100 
3093 98  
3094 8   
3095 59  
3096 3   
3097 98  
3098 37  
3099 90  
3100 17  
3101 78  
3102 83  
3103 99  
3104 43  
3105 94  
3106 80  
3107 71  
3108 88  
3109 33  
3110 93  
3111 22  
3112 18  
3113 20  
3114 14  
3115 90  
3116 11  
3117 55  
3118 65  
3119 97  
3120 99  
3121 5   
3122 38  
3123 37  
3124 15  
3125 74  
3126 75  
3127 48  
3128 56  
3129 39  
3130 42  
3131 54  
3132 71  
3133 83  
3134 8   
3135 44  
3136 78  
3137 23  
3138 26  
3139 30  
3140 36  
3141 34  
3142 85  
3143 43  
3144 71  
3145 17  
3146 97  
3147 57  
3148 20  
3149 76  
3150 74  
3151 36  
3152 98  
3153 80  
3154 45  
3155 56  
3156 36  
3157 71  
3158 79  
3159 80  
3160 78  
3161 24  
3162 60  
3163 51  
3164 71  
3165 30  
3166 2   
3167 91  
3168 26  
3169 63  
3170 32  
3171 45  
3172 12  
3173 74  
3174 70  
3175 66  
3176 63  
3177 45  
3178 4   
3179 76  
3180 27  
3181 87  
3182 54  
3183 46  
3184 92  
3185 92  
3186 59  
3187 60  
3188 46  
3189 46  
3190 34  
3191 68  
3192 95  
3193 61  
3194 52  
3195 39  
3196 48  
3197 82  
3198 32  
3199 72  
3200 20  
3201 9   
3202 57  
3203 10  
3204 65  
3205 84  
3206 52  
3207 96  
3208 49  
3209 62  
3210 58  
3211 62  
3212 20  
3213 67  
3214 85  
3215 1   
3216 36  
3217 31  
3218 38  
3219 43  
3220 20  
3221 24  
3222 85  
3223 90  
3224 93  
3225 23  
3226 32  
3227 49  
3228 81  
3229 38  
3230 54  
3231 56  
3232 82  
3233 50  
3234 77  
3235 35  
3236 38  
3237 68  
3238 2   
3239 9   
3240 29  
3241 19  
3242 64  
3243 12  
3244 100 
3245 3   
3246 39  
3247 21  
3248 60  
3249 11  
3250 36  
3251 54  
3252 26  
3253 34  
3254 39  
3255 40  
3256 94  
3257 1   
3258 47  
3259 88  
3260 7   
3261 58  
3262 80  
3263 50  
3264 41  
3265 9   
3266 43  
3267 19  
3268 83  
3269 39  
3270 70  
3271 48  
3272 68  
3273 36  
3274 29  
3275 76  
3276 19  
3277 28  
3278 30  
3279 69  
3280 70  
3281 91  
3282 51  
3283 81  
3284 22  
3285 5   
3286 91  
3287 58  
3288 54  
3289 42  
3290 1   
3291 69  
3292 17  
3293 12  
3294 93  
3295 52  
3296 95  
3297 96  
3298 82  
3299 83  
3300 45  
3301 25  
3302 1   
3303 36  
3304 14  
3305 51  
3306 64  
3307 97  
3308 28  
3309 61  
3310 87  
3311 55  
3312 71  
3313 99  
3314 68  
3315 87  
3316 54  
3317 28  
3318 5   
3319 22  
3320 73  
3321 24  
3322 12  
3323 61  
3324 92  
3325 4   
3326 70  
3327 10  
3328 17  
3329 81  
3330 78  
3331 6   
3332 100 
3333 84  
3334 31  
3335 8   
3336 25  
3337 61  
3338 24  
3339 34  
3340 40  
3341 43  
3342 50  
3343 24  
3344 53  
3345 45  
3346 97  
3347 42  
3348 82  
3349 79  
3350 9   
3351 92  
3352 39  
3353 9   
3354 25  
3355 15  
3356 53  
3357 45  
3358 69  
3359 14  
3360 48  
3361 82  
3362 16  
3363 37  
3364 66  
3365 5   
3366 84  
3367 14  
3368 84  
3369 32  
3370 46  
3371 76  
3372 99  
3373 76  
3374 33  
3375 55  
3376 75  
3377 72  
3378 1   
3379 46  
3380 95  
3381 95  
3382 80  
3383 88  
3384 84  
3385 2   
3386 57  
3387 83  
3388 31  
3389 51  
3390 65  
3391 75  
3392 63  
3393 87  
3394 49  
3395 89  
3396 80  
3397 41  
3398 76  
3399 51  
3400 7   
3401 53  
3402 61  
3403 67  
3404 9   
3405 82  
3406 41  
3407 51  
3408 75  
3409 16  
3410 93  
3411 98  
3412 78  
3413 16  
3414 25  
3415 83  
3416 71  
3417 41  
3418 64  
3419 27  
3420 96  
3421 34  
3422 90  
3423 67  
3424 31  
3425 31  
3426 16  
3427 94  
3428 52  
3429 27  
3430 44  
3431 50  
3432 67  
3433 30  
3434 29  
3435 31  
3436 13  
3437 72  
3438 71  
3439 86  
3440 30  
3441 33  
3442 55  
3443 67  
3444 74  
3445 41  
3446 76  
3447 24  
3448 81  
3449 57  
3450 23  
3451 82  
3452 3   
3453 60  
3454 97  
3455 74  
3456 71  
3457 8   
3458 39  
3459 100 
3460 72  
3461 33  
3462 37  
3463 12  
3464 8   
3465 47  
3466 43  
3467 88  
3468 78  
3469 41  
3470 45  
3471 41  
3472 47  
3473 2   
3474 30  
3475 49  
3476 65  
3477 28  
3478 100 
3479 66  
3480 52  
3481 68  
3482 55  
3483 86  
3484 32  
3485 2   
3486 94  
3487 65  
3488 44  
3489 33  
3490 24  
3491 61  
3492 71  
3493 72  
3494 29  
3495 65  
3496 65  
3497 11  
3498 98  
3499 12  
3500 100 
3501 28  
3502 73  
3503 53  
3504 45  
3505 64  
3506 10  
3507 96  
3508 44  
3509 39  
3510 64  
3511 21  
3512 92  
3513 100 
3514 51  
3515 87  
3516 98  
3517 29  
3518 88  
3519 30  
3520 65  
3521 16  
3522 88  
3523 30  
3524 75  
3525 100 
3526 76  
3527 67  
3528 20  
3529 42  
3530 48  
3531 37  
3532 86  
3533 16  
3534 100 
3535 59  
3536 79  
3537 75  
3538 26  
3539 26  
3540 37  
3541 8   
3542 52  
3543 11  
3544 7   
3545 43  
3546 51  
3547 11  
3548 66  
3549 61  
3550 49  
3551 82  
3552 34  
3553 90  
3554 68  
3555 41  
3556 25  
3557 69  
3558 100 
3559 54  
3560 68  
3561 25  
3562 50  
3563 84  
3564 88  
3565 96  
3566 8   
3567 72  
3568 48  
3569 9   
3570 28  
3571 24  
3572 32  
3573 78  
3574 14  
3575 31  
3576 46  
3577 1   
3578 28  
3579 98  
3580 7   
3581 37  
3582 48  
3583 69  
3584 6   
3585 97  
3586 5   
3587 7   
3588 72  
3589 31  
3590 40  
3591 80  
3592 78  
3593 96  
3594 63  
3595 43  
3596 34  
3597 40  
3598 18  
3599 48  
3600 6   
3601 36  
3602 86  
3603 20  
3604 24  
3605 32  
3606 24  
3607 14  
3608 59  
3609 86  
3610 32  
3611 27  
3612 52  
3613 50  
3614 54  
3615 3   
3616 64  
3617 36  
3618 64  
3619 25  
3620 38  
3621 11  
3622 76  
3623 76  
3624 5   
3625 40  
3626 87  
3627 36  
3628 96  
3629 30  
3630 60  
3631 53  
3632 83  
3633 35  
3634 5   
3635 40  
3636 77  
3637 22  
3638 8   
3639 91  
3640 4   
3641 87  
3642 74  
3643 30  
3644 32  
3645 97  
3646 4   
3647 24  
3648 77  
3649 92  
3650 16  
3651 93  
3652 65  
3653 59  
3654 66  
3655 39  
3656 40  
3657 83  
3658 71  
3659 71  
3660 49  
3661 30  
3662 4   
3663 10  
3664 41  
3665 53  
3666 24  
3667 49  
3668 57  
3669 48  
3670 86  
3671 66  
3672 87  
3673 70  
3674 97  
3675 34  
3676 25  
3677 13  
3678 46  
3679 80  
3680 100 
3681 100 
3682 53  
3683 76  
3684 7   
3685 92  
3686 44  
3687 61  
3688 3   
3689 86  
3690 90  
3691 71  
3692 84  
3693 44  
3694 73  
3695 59  
3696 32  
3697 71  
3698 8   
3699 28  
3700 19  
3701 80  
3702 28  
3703 56  
3704 47  
3705 66  
3706 31  
3707 3   
3708 80  
3709 19  
3710 55  
3711 61  
3712 64  
3713 20  
3714 34  
3715 88  
3716 54  
3717 37  
3718 54  
3719 34  
3720 77  
3721 71  
3722 78  
3723 49  
3724 88  
3725 13  
3726 24  
3727 16  
3728 21  
3729 92  
3730 4   
3731 39  
3732 47  
3733 62  
3734 63  
3735 12  
3736 11  
3737 91  
3738 51  
3739 5   
3740 29  
3741 6   
3742 60  
3743 7   
3744 59  
3745 71  
3746 21  
3747 27  
3748 12  
3749 71  
3750 31  
3751 72  
3752 43  
3753 52  
3754 66  
3755 90  
3756 12  
3757 60  
3758 65  
3759 55  
3760 81  
3761 42  
3762 84  
3763 67  
3764 86  
3765 99  
3766 6   
3767 53  
3768 5   
3769 10  
3770 72  
3771 39  
3772 12  
3773 84  
3774 59  
3775 97  
3776 13  
3777 28  
3778 81  
3779 13  
3780 37  
3781 89  
3782 41  
3783 25  
3784 7   
3785 27  
3786 31  
3787 67  
3788 12  
3789 48  
3790 17  
3791 76  
3792 81  
3793 97  
3794 66  
3795 17  
3796 75  
3797 45  
3798 87  
3799 1   
3800 39  
3801 11  
3802 9   
3803 35  
3804 44  
3805 4   
3806 88  
3807 43  
3808 69  
3809 8   
3810 24  
3811 85  
3812 73  
3813 20  
3814 46  
3815 3   
3816 87  
3817 58  
3818 17  
3819 39  
3820 74  
3821 56  
3822 84  
3823 30  
3824 30  
3825 56  
3826 25  
3827 86  
3828 28  
3829 34  
3830 43  
3831 48  
3832 81  
3833 34  
3834 97  
3835 18  
3836 60  
3837 67  
3838 99  
3839 11  
3840 44  
3841 20  
3842 20  
3843 55  
3844 2   
3845 1   
3846 94  
3847 93  
3848 67  
3849 71  
3850 96  
3851 85  
3852 76  
3853 79  
3854 36  
3855 25  
3856 64  
3857 23  
3858 81  
3859 37  
3860 25  
3861 64  
3862 39  
3863 6   
3864 80  
3865 87  
3866 39  
3867 61  
3868 7   
3869 24  
3870 92  
3871 93  
3872 40  
3873 55  
3874 22  
3875 53  
3876 52  
3877 50  
3878 7   
3879 48  
3880 45  
3881 11  
3882 62  
3883 29  
3884 71  
3885 91  
3886 74  
3887 82  
3888 63  
3889 67  
3890 56  
3891 48  
3892 56  
3893 4   
3894 68  
3895 23  
3896 17  
3897 56  
3898 26  
3899 7   
3900 63  
3901 37  
3902 32  
3903 45  
3904 31  
3905 40  
3906 5   
3907 34  
3908 66  
3909 23  
3910 38  
3911 29  
3912 44  
3913 35  
3914 8   
3915 92  
3916 10  
3917 22  
3918 90  
3919 73  
3920 72  
3921 15  
3922 41  
3923 19  
3924 99  
3925 11  
3926 25  
3927 72  
3928 23  
3929 66  
3930 95  
3931 56  
3932 78  
3933 2   
3934 18  
3935 99  
3936 83  
3937 47  
3938 48  
3939 18  
3940 94  
3941 91  
3942 85  
3943 52  
3944 83  
3945 46  
3946 72  
3947 83  
3948 61  
3949 31  
3950 78  
3951 58  
3952 7   
3953 29  
3954 70  
3955 26  
3956 73  
3957 22  
3958 60  
3959 5   
3960 42  
3961 9   
3962 60  
3963 100 
3964 91  
3965 42  
3966 20  
3967 33  
3968 53  
3969 42  
3970 40  
3971 6   
3972 29  
3973 29  
3974 38  
3975 40  
3976 75  
3977 21  
3978 94  
3979 95  
3980 38  
3981 33  
3982 75  
3983 32  
3984 88  
3985 72  
3986 81  
3987 40  
3988 63  
3989 20  
3990 10  
3991 61  
3992 69  
3993 39  
3994 48  
3995 54  
3996 26  
3997 22  
3998 62  
3999 46  
4000 43  
4001 77  
4002 51  
4003 95  
4004 81  
4005 15  
4006 72  
4007 9   
4008 51  
4009 27  
4010 5   
4011 46  
4012 58  
4013 51  
4014 84  
4015 8   
4016 1   
4017 35  
4018 67  
4019 42  
4020 78  
4021 86  
4022 88  
4023 54  
4024 33  
4025 84  
4026 20  
4027 92  
4028 18  
4029 93  
4030 25  
4031 56  
4032 10  
4033 3   
4034 20  
4035 36  
4036 96  
4037 100 
4038 12  
4039 59  
4040 9   
4041 32  
4042 12  
4043 68  
4044 36  
4045 52  
4046 75  
4047 95  
4048 65  
4049 79  
4050 32  
4051 70  
4052 24  
4053 92  
4054 5   
4055 41  
4056 28  
4057 38  
4058 16  
4059 14  
4060 20  
4061 62  
4062 70  
4063 87  
4064 88  
4065 38  
4066 50  
4067 15  
4068 77  
4069 86  
4070 4   
4071 76  
4072 24  
4073 63  
4074 41  
4075 83  
4076 17  
4077 76  
4078 76  
4079 26  
4080 83  
4081 5   
4082 89  
4083 87  
4084 85  
4085 31  
4086 17  
4087 50  
4088 51  
4089 16  
4090 66  
4091 10  
4092 70  
4093 15  
4094 35  
4095 88  
4096 47  
4097 70  
4098 10  
4099 20  
4100 85  
4101 20  
4102 54  
4103 35  
4104 60  
4105 36  
4106 19  
4107 60  
4108 81  
4109 83  
4110 46  
4111 21  
4112 60  
4113 49  
4114 32  
4115 80  
4116 30  
4117 62  
4118 89  
4119 42  
4120 47  
4121 45  
4122 90  
4123 25  
4124 4   
4125 64  
4126 78  
4127 48  
4128 22  
4129 61  
4130 88  
4131 21  
4132 3   
4133 19  
4134 12  
4135 51  
4136 12  
4137 87  
4138 28  
4139 25  
4140 75  
4141 26  
4142 55  
4143 96  
4144 19  
4145 43  
4146 20  
4147 25  
4148 9   
4149 36  
4150 4   
4151 78  
4152 35  
4153 10  
4154 67  
4155 34  
4156 95  
4157 82  
4158 35  
4159 5   
4160 74  
4161 58  
4162 36  
4163 13  
4164 65  
4165 61  
4166 75  
4167 4   
4168 62  
4169 52  
4170 29  
4171 60  
4172 5   
4173 23  
4174 12  
4175 86  
4176 74  
4177 96  
4178 35  
4179 70  
4180 91  
4181 36  
4182 41  
4183 37  
4184 74  
4185 86  
4186 79  
4187 60  
4188 34  
4189 77  
4190 43  
4191 44  
4192 81  
4193 44  
4194 38  
4195 32  
4196 88  
4197 16  
4198 44  
4199 14  
4200 26  
4201 55  
4202 30  
4203 3   
4204 84  
4205 81  
4206 40  
4207 19  
4208 23  
4209 67  
4210 52  
4211 19  
4212 80  
4213 56  
4214 31  
4215 59  
4216 53  
4217 82  
4218 95  
4219 82  
4220 59  
4221 34  
4222 24  
4223 65  
4224 38  
4225 96  
4226 63  
4227 63  
4228 100 
4229 35  
4230 97  
4231 24  
4232 32  
4233 69  
4234 95  
4235 77  
4236 47  
4237 13  
4238 30  
4239 75  
4240 66  
4241 22  
4242 82  
4243 11  
4244 54  
4245 18  
4246 97  
4247 13  
4248 4   
4249 43  
4250 94  
4251 44  
4252 82  
4253 83  
4254 49  
4255 94  
4256 4   
4257 70  
4258 95  
4259 90  
4260 98  
4261 68  
4262 24  
4263 59  
4264 16  
4265 91  
4266 14  
4267 8   
4268 97  
4269 2   
4270 66  
4271 59  
4272 87  
4273 53  
4274 94  
4275 4   
4276 32  
4277 46  
4278 51  
4279 23  
4280 4   
4281 21  
4282 62  
4283 32  
4284 49  
4285 35  
4286 74  
4287 11  
4288 40  
4289 57  
4290 92  
4291 71  
4292 19  
4293 53  
4294 17  
4295 31  
4296 88  
4297 25  
4298 27  
4299 90  
4300 30  
4301 7   
4302 57  
4303 18  
4304 99  
4305 45  
4306 40  
4307 74  
4308 17  
4309 20  
4310 83  
4311 8   
4312 18  
4313 43  
4314 90  
4315 68  
4316 44  
4317 62  
4318 24  
4319 6   
4320 30  
4321 21  
4322 25  
4323 88  
4324 38  
4325 40  
4326 1   
4327 100 
4328 45  
4329 55  
4330 28  
4331 3   
4332 16  
4333 66  
4334 74  
4335 28  
4336 3   
4337 66  
4338 30  
4339 25  
4340 50  
4341 24  
4342 32  
4343 82  
4344 13  
4345 23  
4346 3   
4347 74  
4348 95  
4349 60  
4350 80  
4351 81  
4352 43  
4353 70  
4354 88  
4355 79  
4356 40  
4357 64  
4358 30  
4359 36  
4360 10  
4361 18  
4362 81  
4363 26  
4364 46  
4365 58  
4366 83  
4367 40  
4368 14  
4369 27  
4370 95  
4371 45  
4372 72  
4373 13  
4374 15  
4375 74  
4376 20  
4377 18  
4378 6   
4379 85  
4380 91  
4381 68  
4382 65  
4383 73  
4384 7   
4385 38  
4386 94  
4387 7   
4388 23  
4389 93  
4390 70  
4391 96  
4392 47  
4393 7   
4394 47  
4395 91  
4396 100 
4397 80  
4398 94  
4399 16  
4400 37  
4401 42  
4402 35  
4403 18  
4404 61  
4405 75  
4406 90  
4407 76  
4408 47  
4409 20  
4410 22  
4411 1   
4412 91  
4413 60  
4414 64  
4415 83  
4416 25  
4417 43  
4418 7   
4419 95  
4420 8   
4421 32  
4422 96  
4423 83  
4424 54  
4425 75  
4426 19  
4427 61  
4428 76  
4429 28  
4430 14  
4431 35  
4432 80  
4433 52  
4434 48  
4435 49  
4436 5   
4437 73  
4438 56  
4439 80  
4440 98  
4441 11  
4442 50  
4443 88  
4444 63  
4445 93  
4446 33  
4447 30  
4448 61  
4449 26  
4450 65  
4451 43  
4452 95  
4453 52  
4454 62  
4455 7   
4456 93  
4457 28  
4458 51  
4459 21  
4460 70  
4461 35  
4462 40  
4463 97  
4464 67  
4465 28  
4466 42  
4467 28  
4468 15  
4469 83  
4470 1   
4471 68  
4472 99  
4473 54  
4474 85  
4475 18  
4476 18  
4477 43  
4478 95  
4479 74  
4480 49  
4481 37  
4482 91  
4483 88  
4484 11  
4485 94  
4486 80  
4487 100 
4488 100 
4489 65  
4490 58  
4491 94  
4492 7   
4493 85  
4494 34  
4495 13  
4496 18  
4497 35  
4498 22  
4499 40  
4500 65  
4501 80  
4502 64  
4503 50  
4504 28  
4505 84  
4506 9   
4507 4   
4508 96  
4509 33  
4510 64  
4511 92  
4512 69  
4513 50  
4514 76  
4515 8   
4516 59  
4517 86  
4518 50  
4519 38  
4520 93  
4521 100 
4522 91  
4523 64  
4524 14  
4525 36  
4526 38  
4527 29  
4528 36  
4529 45  
4530 19  
4531 16  
4532 59  
4533 57  
4534 32  
4535 86  
4536 100 
4537 26  
4538 76  
4539 97  
4540 76  
4541 41  
4542 92  
4543 80  
4544 31  
4545 28  
4546 7   
4547 4   
4548 5   
4549 78  
4550 92  
4551 10  
4552 31  
4553 94  
4554 1   
4555 60  
4556 97  
4557 43  
4558 57  
4559 32  
4560 90  
4561 81  
4562 96  
4563 83  
4564 62  
4565 59  
4566 38  
4567 100 
4568 99  
4569 93  
4570 35  
4571 75  
4572 99  
4573 13  
4574 67  
4575 53  
4576 6   
4577 54  
4578 92  
4579 2   
4580 71  
4581 93  
4582 20  
4583 26  
4584 55  
4585 59  
4586 21  
4587 37  
4588 43  
4589 86  
4590 34  
4591 55  
4592 65  
4593 53  
4594 5   
4595 99  
4596 59  
4597 39  
4598 5   
4599 10  
4600 72  
4601 59  
4602 51  
4603 96  
4604 40  
4605 27  
4606 45  
4607 28  
4608 51  
4609 52  
4610 3   
4611 91  
4612 37  
4613 9   
4614 76  
4615 34  
4616 52  
4617 38  
4618 50  
4619 48  
4620 47  
4621 71  
4622 83  
4623 78  
4624 67  
4625 45  
4626 24  
4627 37  
4628 28  
4629 32  
4630 32  
4631 32  
4632 16  
4633 79  
4634 99  
4635 37  
4636 3   
4637 73  
4638 62  
4639 84  
4640 69  
4641 92  
4642 35  
4643 55  
4644 92  
4645 77  
4646 53  
4647 22  
4648 84  
4649 47  
4650 42  
4651 41  
4652 31  
4653 14  
4654 32  
4655 81  
4656 23  
4657 82  
4658 58  
4659 81  
4660 41  
4661 58  
4662 86  
4663 78  
4664 43  
4665 69  
4666 49  
4667 81  
4668 10  
4669 23  
4670 72  
4671 82  
4672 95  
4673 45  
4674 50  
4675 100 
4676 75  
4677 54  
4678 91  
4679 42  
4680 21  
4681 10  
4682 28  
4683 9   
4684 40  
4685 31  
4686 66  
4687 73  
4688 46  
4689 65  
4690 60  
4691 93  
4692 5   
4693 83  
4694 42  
4695 35  
4696 91  
4697 13  
4698 55  
4699 69  
4700 77  
4701 12  
4702 34  
4703 33  
4704 10  
4705 94  
4706 17  
4707 57  
4708 78  
4709 56  
4710 88  
4711 85  
4712 67  
4713 86  
4714 52  
4715 21  
4716 21  
4717 78  
4718 47  
4719 11  
4720 54  
4721 90  
4722 64  
4723 43  
4724 68  
4725 10  
4726 72  
4727 93  
4728 48  
4729 72  
4730 11  
4731 80  
4732 64  
4733 19  
4734 88  
4735 4   
4736 98  
4737 82  
4738 92  
4739 10  
4740 16  
4741 20  
4742 3   
4743 45  
4744 91  
4745 5   
4746 68  
4747 62  
4748 7   
4749 18  
4750 25  
4751 65  
4752 64  
4753 16  
4754 57  
4755 30  
4756 6   
4757 25  
4758 61  
4759 13  
4760 9   
4761 13  
4762 45  
4763 79  
4764 73  
4765 35  
4766 80  
4767 48  
4768 59  
4769 15  
4770 41  
4771 71  
4772 53  
4773 58  
4774 99  
4775 2   
4776 53  
4777 39  
4778 10  
4779 9   
4780 33  
4781 94  
4782 1   
4783 13  
4784 89  
4785 15  
4786 59  
4787 54  
4788 53  
4789 31  
4790 9   
4791 37  
4792 11  
4793 26  
4794 2   
4795 30  
4796 59  
4797 20  
4798 37  
4799 68  
4800 45  
4801 51  
4802 75  
4803 45  
4804 99  
4805 33  
4806 38  
4807 40  
4808 71  
4809 46  
4810 76  
4811 79  
4812 28  
4813 61  
4814 38  
4815 83  
4816 12  
4817 52  
4818 79  
4819 43  
4820 78  
4821 73  
4822 82  
4823 29  
4824 26  
4825 72  
4826 24  
4827 69  
4828 4   
4829 23  
4830 61  
4831 62  
4832 48  
4833 39  
4834 80  
4835 65  
4836 4   
4837 89  
4838 51  
4839 50  
4840 63  
4841 97  
4842 15  
4843 86  
4844 66  
4845 68  
4846 69  
4847 55  
4848 63  
4849 96  
4850 32  
4851 68  
4852 72  
4853 19  
4854 43  
4855 29  
4856 36  
4857 45  
4858 26  
4859 42  
4860 82  
4861 54  
4862 85  
4863 28  
4864 16  
4865 96  
4866 11  
4867 30  
4868 20  
4869 10  
4870 88  
4871 39  
4872 49  
4873 20  
4874 74  
4875 86  
4876 98  
4877 21  
4878 22  
4879 9   
4880 84  
4881 5   
4882 70  
4883 57  
4884 95  
4885 28  
4886 12  
4887 1   
4888 21  
4889 98  
4890 35  
4891 62  
4892 27  
4893 47  
4894 72  
4895 45  
4896 37  
4897 98  
4898 100 
4899 40  
4900 35  
4901 65  
4902 52  
4903 44  
4904 2   
4905 11  
4906 92  
4907 45  
4908 12  
4909 66  
4910 83  
4911 16  
4912 24  
4913 98  
4914 27  
4915 77  
4916 86  
4917 65  
4918 9   
4919 30  
4920 60  
4921 33  
4922 90  
4923 57  
4924 98  
4925 35  
4926 41  
4927 59  
4928 63  
4929 88  
4930 2   
4931 44  
4932 26  
4933 80  
4934 52  
4935 33  
4936 67  
4937 27  
4938 73  
4939 39  
4940 81  
4941 35  
4942 22  
4943 44  
4944 76  
4945 90  
4946 90  
4947 47  
4948 60  
4949 49  
4950 40  
4951 73  
4952 91  
4953 42  
4954 57  
4955 93  
4956 93  
4957 17  
4958 60  
4959 18  
4960 55  
4961 55  
4962 1   
4963 73  
4964 8   
4965 90  
4966 41  
4967 53  
4968 3   
4969 13  
4970 48  
4971 66  
4972 21  
4973 13  
4974 17  
4975 27  
4976 91  
4977 37  
4978 29  
4979 92  
4980 55  
4981 10  
4982 97  
4983 5   
4984 35  
4985 63  
4986 13  
4987 36  
4988 6   
4989 47  
4990 57  
4991 69  
4992 90  
4993 56  
4994 24  
4995 95  
4996 90  
4997 85  
4998 21  
4999 89  
5000 90  
5001 16  
5002 87  
5003 65  
5004 54  
5005 78  
5006 48  
5007 3   
5008 37  
5009 25  
5010 81  
5011 4   
5012 82  
5013 37  
5014 2   
5015 28  
5016 30  
5017 18  
5018 53  
5019 10  
5020 66  
5021 17  
5022 94  
5023 14  
5024 93  
5025 71  
5026 44  
5027 22  
5028 12  
5029 6   
5030 87  
5031 78  
5032 58  
5033 36  
5034 28  
5035 97  
5036 6   
5037 64  
5038 64  
5039 79  
5040 78  
5041 64  
5042 94  
5043 31  
5044 100 
5045 77  
5046 99  
5047 8   
5048 98  
5049 17  
5050 7   
5051 98  
5052 5   
5053 11  
5054 7   
5055 58  
5056 23  
5057 34  
5058 55  
5059 82  
5060 54  
5061 85  
5062 38  
5063 51  
5064 79  
5065 86  
5066 82  
5067 88  
5068 1   
5069 15  
5070 62  
5071 98  
5072 67  
5073 8   
5074 41  
5075 78  
5076 39  
5077 87  
5078 19  
5079 30  
5080 53  
5081 10  
5082 51  
5083 85  
5084 58  
5085 38  
5086 27  
5087 72  
5088 74  
5089 70  
5090 100 
5091 14  
5092 20  
5093 49  
5094 78  
5095 56  
5096 11  
5097 12  
5098 13  
5099 32  
5100 81  
5101 81  
5102 47  
5103 20  
5104 81  
5105 60  
5106 34  
5107 28  
5108 20  
5109 9   
5110 84  
5111 16  
5112 95  
5113 54  
5114 81  
5115 79  
5116 22  
5117 4   
5118 15  
5119 85  
5120 18  
5121 14  
5122 10  
5123 83  
5124 1   
5125 25  
5126 3   
5127 57  
5128 98  
5129 30  
5130 84  
5131 22  
5132 93  
5133 6   
5134 86  
5135 18  
5136 74  
5137 64  
5138 56  
5139 39  
5140 45  
5141 34  
5142 47  
5143 12  
5144 51  
5145 97  
5146 50  
5147 3   
5148 38  
5149 33  
5150 51  
5151 96  
5152 16  
5153 56  
5154 53  
5155 66  
5156 41  
5157 26  
5158 9   
5159 47  
5160 19  
5161 2   
5162 40  
5163 100 
5164 65  
5165 78  
5166 1   
5167 81  
5168 93  
5169 9   
5170 98  
5171 8   
5172 25  
5173 49  
5174 36  
5175 90  
5176 20  
5177 83  
5178 92  
5179 55  
5180 15  
5181 2   
5182 24  
5183 45  
5184 51  
5185 61  
5186 16  
5187 76  
5188 43  
5189 20  
5190 72  
5191 42  
5192 77  
5193 93  
5194 66  
5195 14  
5196 94  
5197 45  
5198 67  
5199 29  
5200 100 
5201 2   
5202 99  
5203 46  
5204 7   
5205 76  
5206 36  
5207 73  
5208 91  
5209 5   
5210 14  
5211 76  
5212 21  
5213 51  
5214 56  
5215 67  
5216 12  
5217 81  
5218 95  
5219 21  
5220 37  
5221 65  
5222 13  
5223 39  
5224 56  
5225 45  
5226 34  
5227 10  
5228 58  
5229 62  
5230 1   
5231 87  
5232 53  
5233 29  
5234 40  
5235 3   
5236 46  
5237 46  
5238 22  
5239 94  
5240 97  
5241 15  
5242 54  
5243 44  
5244 15  
5245 78  
5246 66  
5247 70  
5248 3   
5249 58  
5250 8   
5251 95  
5252 2   
5253 19  
5254 59  
5255 10  
5256 90  
5257 88  
5258 56  
5259 25  
5260 11  
5261 63  
5262 2   
5263 61  
5264 75  
5265 61  
5266 27  
5267 33  
5268 61  
5269 37  
5270 91  
5271 33  
5272 83  
5273 100 
5274 15  
5275 46  
5276 23  
5277 2   
5278 97  
5279 93  
5280 25  
5281 23  
5282 66  
5283 50  
5284 73  
5285 83  
5286 13  
5287 82  
5288 17  
5289 16  
5290 72  
5291 69  
5292 83  
5293 87  
5294 80  
5295 48  
5296 71  
5297 44  
5298 16  
5299 11  
5300 73  
5301 97  
5302 50  
5303 28  
5304 21  
5305 74  
5306 71  
5307 65  
5308 95  
5309 92  
5310 10  
5311 51  
5312 62  
5313 54  
5314 8   
5315 79  
5316 80  
5317 43  
5318 38  
5319 49  
5320 1   
5321 60  
5322 88  
5323 48  
5324 47  
5325 70  
5326 49  
5327 31  
5328 59  
5329 62  
5330 32  
5331 52  
5332 57  
5333 67  
5334 23  
5335 4   
5336 95  
5337 64  
5338 32  
5339 30  
5340 49  
5341 15  
5342 63  
5343 18  
5344 73  
5345 80  
5346 76  
5347 45  
5348 21  
5349 95  
5350 20  
5351 63  
5352 79  
5353 14  
5354 17  
5355 32  
5356 79  
5357 35  
5358 3   
5359 2   
5360 78  
5361 49  
5362 50  
5363 3   
5364 98  
5365 91  
5366 15  
5367 58  
5368 21  
5369 43  
5370 2   
5371 96  
5372 34  
5373 9   
5374 4   
5375 78  
5376 17  
5377 5   
5378 17  
5379 48  
5380 60  
5381 56  
5382 13  
5383 31  
5384 45  
5385 12  
5386 78  
5387 78  
5388 75  
5389 64  
5390 90  
5391 91  
5392 47  
5393 72  
5394 43  
5395 49  
5396 13  
5397 28  
5398 95  
5399 5   
5400 54  
5401 61  
5402 67  
5403 81  
5404 31  
5405 3   
5406 50  
5407 54  
5408 53  
5409 76  
5410 3   
5411 74  
5412 81  
5413 61  
5414 71  
5415 86  
5416 96  
5417 100 
5418 62  
5419 33  
5420 85  
5421 64  
5422 54  
5423 34  
5424 72  
5425 16  
5426 5   
5427 71  
5428 88  
5429 87  
5430 82  
5431 31  
5432 88  
5433 73  
5434 38  
5435 79  
5436 38  
5437 98  
5438 93  
5439 71  
5440 90  
5441 11  
5442 27  
5443 75  
5444 74  
5445 12  
5446 76  
5447 80  
5448 16  
5449 19  
5450 26  
5451 78  
5452 44  
5453 83  
5454 51  
5455 63  
5456 60  
5457 16  
5458 37  
5459 63  
5460 46  
5461 94  
5462 32  
5463 2   
5464 84  
5465 64  
5466 36  
5467 76  
5468 1   
5469 6   
5470 25  
5471 30  
5472 88  
5473 19  
5474 34  
5475 98  
5476 20  
5477 25  
5478 89  
5479 48  
5480 16  
5481 64  
5482 52  
5483 82  
5484 98  
5485 97  
5486 85  
5487 100 
5488 77  
5489 22  
5490 15  
5491 18  
5492 68  
5493 88  
5494 11  
5495 79  
5496 19  
5497 18  
5498 77  
5499 92  
5500 79  
5501 17  
5502 52  
5503 2   
5504 10  
5505 81  
5506 32  
5507 77  
5508 23  
5509 68  
5510 32  
5511 19  
5512 42  
5513 74  
5514 99  
5515 48  
5516 58  
5517 87  
5518 31  
5519 81  
5520 24  
5521 75  
5522 56  
5523 16  
5524 99  
5525 86  
5526 50  
5527 76  
5528 77  
5529 85  
5530 99  
5531 88  
5532 29  
5533 82  
5534 38  
5535 53  
5536 86  
5537 59  
5538 37  
5539 51  
5540 81  
5541 89  
5542 12  
5543 45  
5544 61  
5545 47  
5546 45  
5547 21  
5548 43  
5549 79  
5550 33  
5551 39  
5552 84  
5553 21  
5554 37  
5555 13  
5556 8   
5557 94  
5558 84  
5559 64  
5560 20  
5561 3   
5562 22  
5563 37  
5564 3   
5565 77  
5566 34  
5567 65  
5568 6   
5569 84  
5570 4   
5571 2   
5572 86  
5573 19  
5574 65  
5575 93  
5576 75  
5577 34  
5578 43  
5579 26  
5580 4   
5581 70  
5582 33  
5583 73  
5584 78  
5585 78  
5586 53  
5587 91  
5588 63  
5589 20  
5590 17  
5591 46  
5592 56  
5593 40  
5594 71  
5595 21  
5596 40  
5597 83  
5598 27  
5599 61  
5600 25  
5601 2   
5602 87  
5603 30  
5604 81  
5605 87  
5606 57  
5607 28  
5608 79  
5609 100 
5610 39  
5611 91  
5612 54  
5613 86  
5614 17  
5615 8   
5616 81  
5617 12  
5618 17  
5619 64  
5620 32  
5621 45  
5622 11  
5623 73  
5624 93  
5625 64  
5626 47  
5627 65  
5628 9   
5629 82  
5630 49  
5631 69  
5632 93  
5633 25  
5634 2   
5635 28  
5636 61  
5637 61  
5638 76  
5639 26  
5640 51  
5641 40  
5642 91  
5643 63  
5644 6   
5645 65  
5646 79  
5647 89  
5648 71  
5649 15  
5650 12  
5651 35  
5652 49  
5653 52  
5654 92  
5655 61  
5656 48  
5657 53  
5658 99  
5659 39  
5660 62  
5661 79  
5662 2   
5663 52  
5664 65  
5665 41  
5666 76  
5667 30  
5668 91  
5669 16  
5670 57  
5671 45  
5672 56  
5673 22  
5674 8   
5675 65  
5676 86  
5677 59  
5678 76  
5679 51  
5680 75  
5681 26  
5682 60  
5683 85  
5684 94  
5685 32  
5686 11  
5687 36  
5688 30  
5689 77  
5690 100 
5691 71  
5692 44  
5693 51  
5694 4   
5695 69  
5696 2   
5697 54  
5698 85  
5699 10  
5700 42  
5701 11  
5702 83  
5703 28  
5704 49  
5705 50  
5706 62  
5707 13  
5708 83  
5709 93  
5710 15  
5711 92  
5712 39  
5713 6   
5714 1   
5715 6   
5716 79  
5717 9   
5718 99  
5719 94  
5720 40  
5721 57  
5722 30  
5723 29  
5724 68  
5725 14  
5726 1   
5727 44  
5728 26  
5729 8   
5730 35  
5731 6   
5732 28  
5733 21  
5734 36  
5735 22  
5736 77  
5737 46  
5738 37  
5739 76  
5740 48  
5741 28  
5742 72  
5743 57  
5744 42  
5745 45  
5746 36  
5747 24  
5748 24  
5749 34  
5750 98  
5751 46  
5752 40  
5753 75  
5754 54  
5755 51  
5756 40  
5757 50  
5758 8   
5759 39  
5760 9   
5761 49  
5762 10  
5763 3   
5764 72  
5765 69  
5766 21  
5767 95  
5768 95  
5769 54  
5770 34  
5771 15  
5772 64  
5773 45  
5774 73  
5775 10  
5776 39  
5777 65  
5778 25  
5779 7   
5780 57  
5781 47  
5782 86  
5783 90  
5784 43  
5785 63  
5786 75  
5787 86  
5788 47  
5789 57  
5790 6   
5791 69  
5792 16  
5793 60  
5794 88  
5795 9   
5796 33  
5797 10  
5798 14  
5799 53  
5800 52  
5801 58  
5802 94  
5803 45  
5804 25  
5805 5   
5806 31  
5807 41  
5808 1   
5809 60  
5810 13  
5811 28  
5812 11  
5813 92  
5814 63  
5815 8   
5816 68  
5817 68  
5818 32  
5819 35  
5820 2   
5821 26  
5822 78  
5823 75  
5824 57  
5825 40  
5826 29  
5827 18  
5828 49  
5829 4   
5830 7   
5831 30  
5832 85  
5833 4   
5834 71  
5835 89  
5836 67  
5837 70  
5838 82  
5839 58  
5840 18  
5841 75  
5842 29  
5843 63  
5844 81  
5845 57  
5846 35  
5847 81  
5848 87  
5849 97  
5850 55  
5851 37  
5852 75  
5853 96  
5854 68  
5855 65  
5856 71  
5857 19  
5858 69  
5859 66  
5860 55  
5861 24  
5862 37  
5863 53  
5864 19  
5865 34  
5866 64  
5867 90  
5868 19  
5869 52  
5870 98  
5871 47  
5872 27  
5873 97  
5874 3   
5875 75  
5876 8   
5877 36  
5878 65  
5879 5   
5880 35  
5881 32  
5882 87  
5883 33  
5884 47  
5885 16  
5886 47  
5887 10  
5888 32  
5889 14  
5890 83  
5891 43  
5892 80  
5893 36  
5894 64  
5895 90  
5896 23  
5897 17  
5898 36  
5899 88  
5900 30  
5901 1   
5902 29  
5903 79  
5904 74  
5905 59  
5906 3   
5907 22  
5908 45  
5909 92  
5910 76  
5911 86  
5912 95  
5913 28  
5914 65  
5915 84  
5916 81  
5917 41  
5918 99  
5919 94  
5920 95  
5921 69  
5922 9   
5923 86  
5924 91  
5925 44  
5926 8   
5927 30  
5928 78  
5929 1   
5930 25  
5931 24  
5932 55  
5933 4   
5934 80  
5935 48  
5936 50  
5937 8   
5938 37  
5939 97  
5940 88  
5941 100 
5942 16  
5943 14  
5944 47  
5945 2   
5946 4   
5947 66  
5948 51  
5949 57  
5950 25  
5951 17  
5952 24  
5953 32  
5954 77  
5955 51  
5956 34  
5957 2   
5958 86  
5959 51  
5960 12  
5961 94  
5962 64  
5963 84  
5964 61  
5965 69  
5966 93  
5967 29  
5968 50  
5969 17  
5970 43  
5971 27  
5972 98  
5973 82  
5974 17  
5975 39  
5976 67  
5977 9   
5978 49  
5979 56  
5980 37  
5981 56  
5982 91  
5983 5   
5984 70  
5985 32  
5986 23  
5987 71  
5988 56  
5989 18  
5990 41  
5991 81  
5992 52  
5993 59  
5994 33  
5995 97  
5996 61  
5997 26  
5998 94  
5999 25  
6000 63  
6001 69  
6002 75  
6003 76  
6004 47  
6005 3   
6006 30  
6007 80  
6008 58  
6009 66  
6010 16  
6011 70  
6012 22  
6013 80  
6014 13  
6015 47  
6016 90  
6017 20  
6018 94  
6019 3   
6020 92  
6021 85  
6022 86  
6023 60  
6024 63  
6025 55  
6026 43  
6027 93  
6028 24  
6029 46  
6030 99  
6031 88  
6032 53  
6033 32  
6034 80  
6035 24  
6036 62  
6037 53  
6038 13  
6039 16  
6040 91  
6041 17  
6042 75  
6043 19  
6044 21  
6045 74  
6046 77  
6047 36  
6048 56  
6049 38  
6050 95  
6051 55  
6052 23  
6053 98  
6054 81  
6055 52  
6056 4   
6057 8   
6058 40  
6059 18  
6060 57  
6061 21  
6062 53  
6063 2   
6064 83  
6065 20  
6066 46  
6067 18  
6068 56  
6069 100 
6070 48  
6071 36  
6072 19  
6073 9   
6074 59  
6075 17  
6076 13  
6077 49  
6078 52  
6079 38  
6080 82  
6081 70  
6082 66  
6083 70  
6084 61  
6085 90  
6086 11  
6087 53  
6088 7   
6089 66  
6090 66  
6091 97  
6092 30  
6093 21  
6094 49  
6095 50  
6096 3   
6097 68  
6098 30  
6099 40  
6100 95  
6101 34  
6102 10  
6103 24  
6104 74  
6105 25  
6106 84  
6107 78  
6108 71  
6109 69  
6110 65  
6111 75  
6112 95  
6113 84  
6114 1   
6115 66  
6116 74  
6117 26  
6118 17  
6119 53  
6120 56  
6121 10  
6122 54  
6123 67  
6124 24  
6125 91  
6126 23  
6127 32  
6128 60  
6129 53  
6130 23  
6131 89  
6132 77  
6133 40  
6134 60  
6135 17  
6136 60  
6137 49  
6138 79  
6139 15  
6140 34  
6141 69  
6142 58  
6143 29  
6144 5   
6145 73  
6146 53  
6147 16  
6148 29  
6149 44  
6150 55  
6151 92  
6152 27  
6153 97  
6154 21  
6155 58  
6156 36  
6157 4   
6158 40  
6159 23  
6160 21  
6161 64  
6162 70  
6163 42  
6164 68  
6165 20  
6166 23  
6167 42  
6168 10  
6169 11  
6170 30  
6171 17  
6172 42  
6173 21  
6174 64  
6175 76  
6176 2   
6177 97  
6178 38  
6179 54  
6180 45  
6181 63  
6182 10  
6183 20  
6184 9   
6185 41  
6186 7   
6187 15  
6188 40  
6189 83  
6190 60  
6191 55  
6192 63  
6193 38  
6194 45  
6195 50  
6196 9   
6197 99  
6198 32  
6199 8   
6200 7   
6201 38  
6202 60  
6203 16  
6204 72  
6205 1   
6206 32  
6207 65  
6208 52  
6209 55  
6210 68  
6211 79  
6212 1   
6213 62  
6214 9   
6215 6   
6216 16  
6217 89  
6218 19  
6219 22  
6220 79  
6221 51  
6222 86  
6223 56  
6224 67  
6225 1   
6226 55  
6227 61  
6228 70  
6229 1   
6230 98  
6231 93  
6232 40  
6233 51  
6234 34  
6235 99  
6236 84  
6237 87  
6238 58  
6239 69  
6240 32  
6241 48  
6242 55  
6243 1   
6244 2   
6245 87  
6246 52  
6247 12  
6248 99  
6249 91  
6250 98  
6251 10  
6252 40  
6253 1   
6254 54  
6255 41  
6256 3   
6257 78  
6258 23  
6259 96  
6260 100 
6261 46  
6262 52  
6263 18  
6264 18  
6265 30  
6266 21  
6267 77  
6268 62  
6269 23  
6270 3   
6271 1   
6272 30  
6273 42  
6274 11  
6275 62  
6276 77  
6277 77  
6278 32  
6279 68  
6280 84  
6281 58  
6282 16  
6283 8   
6284 34  
6285 85  
6286 21  
6287 54  
6288 18  
6289 84  
6290 50  
6291 22  
6292 25  
6293 79  
6294 87  
6295 29  
6296 87  
6297 75  
6298 51  
6299 34  
6300 50  
6301 60  
6302 26  
6303 73  
6304 94  
6305 61  
6306 12  
6307 49  
6308 36  
6309 63  
6310 47  
6311 20  
6312 100 
6313 84  
6314 76  
6315 32  
6316 43  
6317 88  
6318 58  
6319 68  
6320 36  
6321 56  
6322 84  
6323 46  
6324 40  
6325 76  
6326 83  
6327 74  
6328 60  
6329 69  
6330 24  
6331 19  
6332 86  
6333 63  
6334 66  
6335 10  
6336 48  
6337 20  
6338 66  
6339 14  
6340 80  
6341 23  
6342 40  
6343 25  
6344 36  
6345 95  
6346 53  
6347 1   
6348 61  
6349 12  
6350 87  
6351 17  
6352 72  
6353 14  
6354 84  
6355 26  
6356 99  
6357 23  
6358 8   
6359 93  
6360 43  
6361 10  
6362 81  
6363 13  
6364 59  
6365 70  
6366 90  
6367 79  
6368 44  
6369 71  
6370 44  
6371 42  
6372 22  
6373 13  
6374 51  
6375 50  
6376 3   
6377 40  
6378 81  
6379 75  
6380 88  
6381 70  
6382 56  
6383 76  
6384 81  
6385 97  
6386 99  
6387 100 
6388 14  
6389 70  
6390 13  
6391 48  
6392 38  
6393 59  
6394 84  
6395 48  
6396 25  
6397 76  
6398 26  
6399 42  
6400 8   
6401 21  
6402 12  
6403 75  
6404 70  
6405 83  
6406 52  
6407 29  
6408 75  
6409 36  
6410 29  
6411 23  
6412 27  
6413 32  
6414 22  
6415 20  
6416 83  
6417 14  
6418 43  
6419 43  
6420 65  
6421 95  
6422 68  
6423 86  
6424 78  
6425 57  
6426 65  
6427 14  
6428 32  
6429 22  
6430 60  
6431 44  
6432 91  
6433 66  
6434 29  
6435 66  
6436 66  
6437 72  
6438 98  
6439 18  
6440 39  
6441 69  
6442 21  
6443 75  
6444 41  
6445 10  
6446 62  
6447 26  
6448 82  
6449 91  
6450 79  
6451 75  
6452 46  
6453 32  
6454 4   
6455 46  
6456 8   
6457 98  
6458 80  
6459 42  
6460 19  
6461 25  
6462 7   
6463 16  
6464 17  
6465 80  
6466 32  
6467 98  
6468 90  
6469 56  
6470 42  
6471 10  
6472 59  
6473 88  
6474 24  
6475 5   
6476 69  
6477 18  
6478 96  
6479 77  
6480 67  
6481 87  
6482 7   
6483 10  
6484 82  
6485 21  
6486 56  
6487 88  
6488 22  
6489 94  
6490 6   
6491 46  
6492 24  
6493 19  
6494 81  
6495 79  
6496 89  
6497 96  
6498 74  
6499 58  
6500 71  
6501 40  
6502 17  
6503 50  
6504 44  
6505 24  
6506 96  
6507 2   
6508 35  
6509 89  
6510 57  
6511 20  
6512 87  
6513 54  
6514 76  
6515 16  
6516 28  
6517 9   
6518 99  
6519 89  
6520 33  
6521 34  
6522 92  
6523 56  
6524 15  
6525 93  
6526 22  
6527 10  
6528 75  
6529 85  
6530 15  
6531 30  
6532 22  
6533 7   
6534 94  
6535 44  
6536 98  
6537 65  
6538 78  
6539 15  
6540 35  
6541 99  
6542 64  
6543 12  
6544 98  
6545 46  
6546 27  
6547 3   
6548 96  
6549 99  
6550 57  
6551 33  
6552 69  
6553 7   
6554 41  
6555 73  
6556 62  
6557 56  
6558 32  
6559 42  
6560 61  
6561 52  
6562 15  
6563 25  
6564 96  
6565 38  
6566 70  
6567 6   
6568 14  
6569 58  
6570 10  
6571 50  
6572 73  
6573 54  
6574 72  
6575 7   
6576 78  
6577 21  
6578 43  
6579 98  
6580 55  
6581 73  
6582 14  
6583 22  
6584 7   
6585 18  
6586 75  
6587 74  
6588 40  
6589 56  
6590 93  
6591 23  
6592 31  
6593 16  
6594 12  
6595 34  
6596 8   
6597 64  
6598 98  
6599 14  
6600 11  
6601 6   
6602 49  
6603 96  
6604 38  
6605 61  
6606 87  
6607 23  
6608 58  
6609 63  
6610 75  
6611 100 
6612 63  
6613 10  
6614 43  
6615 9   
6616 9   
6617 90  
6618 16  
6619 97  
6620 28  
6621 76  
6622 17  
6623 60  
6624 94  
6625 96  
6626 15  
6627 10  
6628 98  
6629 51  
6630 78  
6631 10  
6632 75  
6633 70  
6634 84  
6635 55  
6636 80  
6637 8   
6638 87  
6639 46  
6640 19  
6641 94  
6642 47  
6643 35  
6644 4   
6645 71  
6646 82  
6647 36  
6648 16  
6649 100 
6650 92  
6651 59  
6652 38  
6653 82  
6654 24  
6655 54  
6656 18  
6657 93  
6658 67  
6659 19  
6660 33  
6661 3   
6662 2   
6663 92  
6664 45  
6665 31  
6666 1   
6667 5   
6668 5   
6669 67  
6670 79  
6671 12  
6672 1   
6673 87  
6674 8   
6675 80  
6676 35  
6677 18  
6678 43  
6679 1   
6680 83  
6681 52  
6682 18  
6683 14  
6684 34  
6685 89  
6686 27  
6687 92  
6688 41  
6689 87  
6690 88  
6691 71  
6692 66  
6693 51  
6694 89  
6695 31  
6696 95  
6697 6   
6698 43  
6699 45  
6700 84  
6701 38  
6702 16  
6703 38  
6704 7   
6705 75  
6706 5   
6707 78  
6708 31  
6709 6   
6710 17  
6711 4   
6712 11  
6713 82  
6714 74  
6715 52  
6716 90  
6717 62  
6718 23  
6719 59  
6720 75  
6721 43  
6722 25  
6723 73  
6724 84  
6725 46  
6726 38  
6727 3   
6728 3   
6729 55  
6730 96  
6731 63  
6732 95  
6733 18  
6734 98  
6735 48  
6736 20  
6737 35  
6738 35  
6739 55  
6740 66  
6741 58  
6742 54  
6743 2   
6744 27  
6745 75  
6746 59  
6747 23  
6748 27  
6749 29  
6750 1   
6751 59  
6752 24  
6753 16  
6754 77  
6755 6   
6756 82  
6757 55  
6758 21  
6759 3   
6760 92  
6761 22  
6762 46  
6763 31  
6764 25  
6765 85  
6766 77  
6767 30  
6768 27  
6769 22  
6770 27  
6771 87  
6772 89  
6773 42  
6774 1   
6775 48  
6776 56  
6777 27  
6778 3   
6779 37  
6780 14  
6781 35  
6782 38  
6783 22  
6784 28  
6785 9   
6786 27  
6787 37  
6788 24  
6789 69  
6790 18  
6791 32  
6792 91  
6793 4   
6794 63  
6795 48  
6796 65  
6797 58  
6798 11  
6799 27  
6800 51  
6801 27  
6802 39  
6803 65  
6804 9   
6805 67  
6806 43  
6807 85  
6808 80  
6809 51  
6810 25  
6811 40  
6812 25  
6813 99  
6814 33  
6815 91  
6816 96  
6817 99  
6818 26  
6819 89  
6820 61  
6821 69  
6822 93  
6823 56  
6824 84  
6825 55  
6826 100 
6827 96  
6828 6   
6829 45  
6830 62  
6831 2   
6832 56  
6833 75  
6834 68  
6835 41  
6836 100 
6837 22  
6838 35  
6839 44  
6840 17  
6841 27  
6842 60  
6843 9   
6844 1   
6845 88  
6846 16  
6847 1   
6848 85  
6849 33  
6850 46  
6851 22  
6852 80  
6853 19  
6854 20  
6855 12  
6856 35  
6857 59  
6858 91  
6859 55  
6860 49  
6861 23  
6862 94  
6863 14  
6864 94  
6865 42  
6866 21  
6867 58  
6868 65  
6869 82  
6870 17  
6871 1   
6872 48  
6873 76  
6874 41  
6875 97  
6876 24  
6877 13  
6878 91  
6879 58  
6880 34  
6881 94  
6882 78  
6883 57  
6884 58  
6885 90  
6886 16  
6887 43  
6888 85  
6889 86  
6890 36  
6891 83  
6892 59  
6893 100 
6894 53  
6895 58  
6896 85  
6897 31  
6898 42  
6899 3   
6900 98  
6901 64  
6902 59  
6903 90  
6904 9   
6905 57  
6906 39  
6907 98  
6908 23  
6909 67  
6910 92  
6911 14  
6912 45  
6913 84  
6914 44  
6915 84  
6916 74  
6917 76  
6918 48  
6919 39  
6920 54  
6921 90  
6922 9   
6923 19  
6924 40  
6925 32  
6926 70  
6927 93  
6928 43  
6929 64  
6930 72  
6931 35  
6932 1   
6933 18  
6934 68  
6935 12  
6936 35  
6937 76  
6938 92  
6939 100 
6940 59  
6941 86  
6942 41  
6943 22  
6944 95  
6945 77  
6946 10  
6947 72  
6948 24  
6949 99  
6950 14  
6951 44  
6952 22  
6953 52  
6954 11  
6955 86  
6956 64  
6957 22  
6958 33  
6959 28  
6960 78  
6961 47  
6962 45  
6963 57  
6964 67  
6965 40  
6966 35  
6967 75  
6968 30  
6969 71  
6970 4   
6971 93  
6972 71  
6973 80  
6974 26  
6975 26  
6976 1   
6977 61  
6978 92  
6979 15  
6980 53  
6981 6   
6982 10  
6983 24  
6984 52  
6985 95  
6986 31  
6987 8   
6988 15  
6989 75  
6990 11  
6991 75  
6992 24  
6993 29  
6994 70  
6995 62  
6996 23  
6997 43  
6998 54  
6999 95  
7000 10  
7001 83  
7002 90  
7003 41  
7004 62  
7005 73  
7006 50  
7007 66  
7008 38  
7009 73  
7010 27  
7011 92  
7012 71  
7013 26  
7014 25  
7015 47  
7016 50  
7017 98  
7018 99  
7019 73  
7020 68  
7021 86  
7022 87  
7023 45  
7024 20  
7025 82  
7026 27  
7027 83  
7028 67  
7029 25  
7030 59  
7031 16  
7032 99  
7033 24  
7034 62  
7035 69  
7036 37  
7037 91  
7038 84  
7039 98  
7040 70  
7041 45  
7042 42  
7043 93  
7044 21  
7045 23  
7046 85  
7047 39  
7048 25  
7049 4   
7050 4   
7051 15  
7052 43  
7053 60  
7054 55  
7055 48  
7056 57  
7057 56  
7058 89  
7059 25  
7060 93  
7061 94  
7062 49  
7063 74  
7064 74  
7065 29  
7066 35  
7067 23  
7068 28  
7069 55  
7070 92  
7071 12  
7072 25  
7073 21  
7074 40  
7075 24  
7076 4   
7077 99  
7078 62  
7079 57  
7080 30  
7081 53  
7082 43  
7083 72  
7084 15  
7085 98  
7086 74  
7087 73  
7088 85  
7089 52  
7090 83  
7091 95  
7092 55  
7093 94  
7094 5   
7095 100 
7096 52  
7097 86  
7098 26  
7099 63  
7100 33  
7101 20  
7102 15  
7103 72  
7104 66  
7105 5   
7106 96  
7107 31  
7108 12  
7109 81  
7110 50  
7111 32  
7112 93  
7113 25  
7114 31  
7115 11  
7116 97  
7117 28  
7118 6   
7119 68  
7120 99  
7121 57  
7122 5   
7123 37  
7124 32  
7125 96  
7126 78  
7127 41  
7128 4   
7129 60  
7130 95  
7131 77  
7132 30  
7133 64  
7134 74  
7135 97  
7136 93  
7137 72  
7138 95  
7139 12  
7140 3   
7141 5   
7142 37  
7143 83  
7144 75  
7145 98  
7146 85  
7147 73  
7148 43  
7149 96  
7150 22  
7151 6   
7152 71  
7153 94  
7154 14  
7155 10  
7156 98  
7157 11  
7158 100 
7159 36  
7160 58  
7161 5   
7162 36  
7163 54  
7164 99  
7165 26  
7166 83  
7167 55  
7168 53  
7169 48  
7170 45  
7171 43  
7172 69  
7173 20  
7174 45  
7175 85  
7176 47  
7177 30  
7178 77  
7179 21  
7180 40  
7181 86  
7182 44  
7183 98  
7184 47  
7185 27  
7186 65  
7187 41  
7188 21  
7189 90  
7190 81  
7191 17  
7192 64  
7193 15  
7194 24  
7195 75  
7196 77  
7197 87  
7198 86  
7199 49  
7200 22  
7201 16  
7202 33  
7203 56  
7204 30  
7205 7   
7206 64  
7207 60  
7208 42  
7209 80  
7210 4   
7211 82  
7212 50  
7213 52  
7214 43  
7215 64  
7216 27  
7217 68  
7218 28  
7219 72  
7220 30  
7221 45  
7222 11  
7223 76  
7224 78  
7225 95  
7226 20  
7227 17  
7228 74  
7229 65  
7230 6   
7231 79  
7232 86  
7233 17  
7234 13  
7235 78  
7236 58  
7237 46  
7238 53  
7239 30  
7240 26  
7241 41  
7242 80  
7243 2   
7244 58  
7245 15  
7246 60  
7247 49  
7248 24  
7249 39  
7250 95  
7251 97  
7252 68  
7253 67  
7254 48  
7255 30  
7256 21  
7257 50  
7258 62  
7259 66  
7260 20  
7261 5   
7262 64  
7263 65  
7264 16  
7265 61  
7266 4   
7267 22  
7268 60  
7269 12  
7270 47  
7271 100 
7272 64  
7273 49  
7274 1   
7275 84  
7276 62  
7277 84  
7278 71  
7279 70  
7280 54  
7281 70  
7282 94  
7283 50  
7284 86  
7285 75  
7286 47  
7287 47  
7288 70  
7289 80  
7290 80  
7291 37  
7292 36  
7293 89  
7294 70  
7295 72  
7296 36  
7297 95  
7298 29  
7299 16  
7300 83  
7301 53  
7302 99  
7303 89  
7304 62  
7305 67  
7306 20  
7307 11  
7308 84  
7309 19  
7310 58  
7311 33  
7312 73  
7313 62  
7314 66  
7315 41  
7316 74  
7317 20  
7318 70  
7319 10  
7320 65  
7321 76  
7322 6   
7323 53  
7324 96  
7325 39  
7326 48  
7327 82  
7328 23  
7329 4   
7330 45  
7331 96  
7332 63  
7333 34  
7334 70  
7335 92  
7336 98  
7337 15  
7338 97  
7339 81  
7340 6   
7341 31  
7342 22  
7343 61  
7344 32  
7345 24  
7346 93  
7347 47  
7348 72  
7349 86  
7350 27  
7351 83  
7352 90  
7353 32  
7354 61  
7355 38  
7356 76  
7357 82  
7358 41  
7359 12  
7360 73  
7361 93  
7362 71  
7363 1   
7364 47  
7365 4   
7366 12  
7367 27  
7368 51  
7369 7   
7370 1   
7371 97  
7372 52  
7373 34  
7374 5   
7375 94  
7376 84  
7377 69  
7378 66  
7379 49  
7380 49  
7381 95  
7382 62  
7383 26  
7384 50  
7385 82  
7386 33  
7387 74  
7388 20  
7389 99  
7390 6   
7391 25  
7392 60  
7393 18  
7394 64  
7395 7   
7396 87  
7397 29  
7398 22  
7399 86  
7400 13  
7401 77  
7402 52  
7403 93  
7404 48  
7405 76  
7406 81  
7407 66  
7408 60  
7409 77  
7410 11  
7411 31  
7412 20  
7413 13  
7414 86  
7415 92  
7416 52  
7417 25  
7418 34  
7419 28  
7420 75  
7421 58  
7422 51  
7423 28  
7424 67  
7425 22  
7426 14  
7427 21  
7428 3   
7429 15  
7430 16  
7431 46  
7432 1   
7433 89  
7434 42  
7435 88  
7436 18  
7437 71  
7438 84  
7439 43  
7440 10  
7441 44  
7442 36  
7443 68  
7444 26  
7445 53  
7446 33  
7447 58  
7448 35  
7449 78  
7450 62  
7451 15  
7452 34  
7453 66  
7454 18  
7455 32  
7456 1   
7457 21  
7458 28  
7459 81  
7460 6   
7461 87  
7462 32  
7463 61  
7464 14  
7465 60  
7466 26  
7467 40  
7468 32  
7469 40  
7470 92  
7471 38  
7472 66  
7473 33  
7474 72  
7475 60  
7476 71  
7477 68  
7478 48  
7479 9   
7480 26  
7481 57  
7482 43  
7483 98  
7484 71  
7485 80  
7486 98  
7487 91  
7488 5   
7489 26  
7490 73  
7491 68  
7492 74  
7493 76  
7494 35  
7495 25  
7496 24  
7497 53  
7498 64  
7499 73  
7500 47  
7501 35  
7502 14  
7503 25  
7504 32  
7505 35  
7506 56  
7507 49  
7508 86  
7509 24  
7510 63  
7511 22  
7512 11  
7513 64  
7514 52  
7515 42  
7516 95  
7517 7   
7518 26  
7519 38  
7520 82  
7521 61  
7522 91  
7523 8   
7524 43  
7525 4   
7526 76  
7527 63  
7528 19  
7529 86  
7530 42  
7531 39  
7532 42  
7533 13  
7534 61  
7535 22  
7536 6   
7537 60  
7538 84  
7539 62  
7540 68  
7541 36  
7542 51  
7543 54  
7544 96  
7545 24  
7546 98  
7547 93  
7548 3   
7549 48  
7550 94  
7551 33  
7552 9   
7553 42  
7554 88  
7555 89  
7556 83  
7557 6   
7558 48  
7559 1   
7560 28  
7561 42  
7562 8   
7563 26  
7564 53  
7565 36  
7566 49  
7567 10  
7568 22  
7569 59  
7570 65  
7571 42  
7572 7   
7573 13  
7574 71  
7575 24  
7576 35  
7577 16  
7578 50  
7579 82  
7580 90  
7581 51  
7582 26  
7583 3   
7584 14  
7585 74  
7586 66  
7587 46  
7588 85  
7589 92  
7590 76  
7591 44  
7592 53  
7593 25  
7594 29  
7595 52  
7596 22  
7597 82  
7598 2   
7599 66  
7600 9   
7601 84  
7602 99  
7603 97  
7604 47  
7605 4   
7606 63  
7607 96  
7608 78  
7609 84  
7610 80  
7611 50  
7612 86  
7613 92  
7614 73  
7615 35  
7616 7   
7617 1   
7618 100 
7619 28  
7620 35  
7621 10  
7622 55  
7623 79  
7624 94  
7625 57  
7626 86  
7627 46  
7628 73  
7629 3   
7630 84  
7631 17  
7632 90  
7633 73  
7634 19  
7635 2   
7636 100 
7637 93  
7638 6   
7639 84  
7640 67  
7641 52  
7642 25  
7643 42  
7644 4   
7645 69  
7646 67  
7647 67  
7648 77  
7649 36  
7650 78  
7651 44  
7652 54  
7653 83  
7654 51  
7655 74  
7656 19  
7657 74  
7658 3   
7659 90  
7660 58  
7661 34  
7662 4   
7663 19  
7664 97  
7665 33  
7666 86  
7667 94  
7668 36  
7669 44  
7670 34  
7671 65  
7672 22  
7673 43  
7674 55  
7675 20  
7676 4   
7677 86  
7678 89  
7679 8   
7680 56  
7681 80  
7682 23  
7683 91  
7684 13  
7685 10  
7686 62  
7687 87  
7688 90  
7689 93  
7690 23  
7691 75  
7692 74  
7693 11  
7694 69  
7695 74  
7696 14  
7697 13  
7698 48  
7699 18  
7700 7   
7701 76  
7702 87  
7703 57  
7704 93  
7705 18  
7706 72  
7707 39  
7708 99  
7709 35  
7710 11  
7711 23  
7712 83  
7713 52  
7714 97  
7715 44  
7716 63  
7717 18  
7718 66  
7719 32  
7720 53  
7721 83  
7722 19  
7723 66  
7724 19  
7725 100 
7726 100 
7727 69  
7728 99  
7729 50  
7730 48  
7731 53  
7732 42  
7733 28  
7734 91  
7735 42  
7736 19  
7737 64  
7738 6   
7739 13  
7740 4   
7741 18  
7742 63  
7743 86  
7744 5   
7745 24  
7746 89  
7747 46  
7748 85  
7749 80  
7750 87  
7751 36  
7752 5   
7753 58  
7754 88  
7755 42  
7756 100 
7757 52  
7758 27  
7759 98  
7760 11  
7761 17  
7762 77  
7763 10  
7764 38  
7765 83  
7766 96  
7767 66  
7768 100 
7769 38  
7770 27  
7771 83  
7772 76  
7773 5   
7774 48  
7775 33  
7776 72  
7777 86  
7778 8   
7779 65  
7780 34  
7781 58  
7782 20  
7783 55  
7784 29  
7785 49  
7786 44  
7787 81  
7788 6   
7789 59  
7790 70  
7791 68  
7792 34  
7793 10  
7794 28  
7795 71  
7796 51  
7797 39  
7798 40  
7799 99  
7800 84  
7801 11  
7802 29  
7803 40  
7804 35  
7805 72  
7806 98  
7807 90  
7808 29  
7809 38  
7810 69  
7811 75  
7812 14  
7813 29  
7814 85  
7815 7   
7816 27  
7817 3   
7818 60  
7819 68  
7820 2   
7821 58  
7822 91  
7823 38  
7824 37  
7825 11  
7826 95  
7827 100 
7828 82  
7829 89  
7830 93  
7831 40  
7832 20  
7833 4   
7834 58  
7835 66  
7836 35  
7837 34  
7838 7   
7839 37  
7840 100 
7841 27  
7842 1   
7843 7   
7844 21  
7845 5   
7846 20  
7847 69  
7848 51  
7849 91  
7850 35  
7851 67  
7852 56  
7853 60  
7854 36  
7855 19  
7856 4   
7857 57  
7858 32  
7859 12  
7860 22  
7861 20  
7862 64  
7863 15  
7864 1   
7865 28  
7866 90  
7867 75  
7868 35  
7869 91  
7870 93  
7871 84  
7872 30  
7873 10  
7874 7   
7875 54  
7876 27  
7877 65  
7878 12  
7879 11  
7880 28  
7881 34  
7882 32  
7883 65  
7884 75  
7885 12  
7886 33  
7887 72  
7888 77  
7889 22  
7890 29  
7891 79  
7892 29  
7893 93  
7894 11  
7895 74  
7896 10  
7897 17  
7898 24  
7899 47  
7900 78  
7901 18  
7902 5   
7903 96  
7904 66  
7905 44  
7906 33  
7907 34  
7908 60  
7909 82  
7910 4   
7911 44  
7912 40  
7913 12  
7914 15  
7915 64  
7916 21  
7917 67  
7918 34  
7919 75  
7920 73  
7921 42  
7922 93  
7923 44  
7924 63  
7925 89  
7926 33  
7927 12  
7928 59  
7929 46  
7930 86  
7931 2   
7932 52  
7933 4   
7934 46  
7935 74  
7936 77  
7937 42  
7938 52  
7939 62  
7940 87  
7941 72  
7942 69  
7943 63  
7944 4   
7945 56  
7946 23  
7947 16  
7948 92  
7949 14  
7950 49  
7951 19  
7952 45  
7953 5   
7954 9   
7955 97  
7956 48  
7957 3   
7958 4   
7959 23  
7960 86  
7961 79  
7962 44  
7963 9   
7964 5   
7965 56  
7966 49  
7967 68  
7968 55  
7969 49  
7970 91  
7971 36  
7972 50  
7973 96  
7974 76  
7975 76  
7976 39  
7977 32  
7978 94  
7979 41  
7980 32  
7981 34  
7982 65  
7983 27  
7984 96  
7985 46  
7986 66  
7987 83  
7988 95  
7989 90  
7990 39  
7991 87  
7992 18  
7993 47  
7994 72  
7995 27  
7996 29  
7997 58  
7998 93  
7999 60  
8000 25  
8001 6   
8002 31  
8003 19  
8004 85  
8005 74  
8006 45  
8007 80  
8008 42  
8009 100 
8010 16  
8011 25  
8012 7   
8013 80  
8014 75  
8015 17  
8016 24  
8017 48  
8018 31  
8019 16  
8020 59  
8021 47  
8022 59  
8023 82  
8024 48  
8025 75  
8026 49  
8027 61  
8028 43  
8029 59  
8030 89  
8031 1   
8032 7   
8033 31  
8034 14  
8035 2   
8036 61  
8037 65  
8038 62  
8039 17  
8040 54  
8041 46  
8042 55  
8043 7   
8044 60  
8045 17  
8046 66  
8047 11  
8048 62  
8049 82  
8050 4   
8051 37  
8052 29  
8053 37  
8054 39  
8055 22  
8056 92  
8057 63  
8058 27  
8059 27  
8060 83  
8061 96  
8062 57  
8063 82  
8064 37  
8065 44  
8066 29  
8067 63  
8068 27  
8069 70  
8070 24  
8071 52  
8072 75  
8073 95  
8074 54  
8075 26  
8076 54  
8077 97  
8078 72  
8079 24  
8080 41  
8081 21  
8082 37  
8083 63  
8084 37  
8085 97  
8086 19  
8087 94  
8088 67  
8089 65  
8090 64  
8091 10  
8092 8   
8093 29  
8094 8   
8095 39  
8096 80  
8097 44  
8098 61  
8099 31  
8100 12  
8101 28  
8102 57  
8103 17  
8104 79  
8105 4   
8106 90  
8107 54  
8108 58  
8109 61  
8110 17  
8111 20  
8112 14  
8113 1   
8114 96  
8115 29  
8116 50  
8117 68  
8118 41  
8119 24  
8120 59  
8121 29  
8122 16  
8123 2   
8124 13  
8125 33  
8126 92  
8127 100 
8128 59  
8129 38  
8130 24  
8131 98  
8132 45  
8133 37  
8134 89  
8135 69  
8136 8   
8137 72  
8138 54  
8139 29  
8140 88  
8141 23  
8142 18  
8143 68  
8144 9   
8145 35  
8146 36  
8147 31  
8148 44  
8149 61  
8150 94  
8151 98  
8152 7   
8153 57  
8154 1   
8155 62  
8156 65  
8157 58  
8158 26  
8159 15  
8160 76  
8161 86  
8162 26  
8163 97  
8164 33  
8165 79  
8166 90  
8167 18  
8168 78  
8169 80  
8170 14  
8171 21  
8172 71  
8173 89  
8174 63  
8175 16  
8176 1   
8177 8   
8178 81  
8179 78  
8180 28  
8181 7   
8182 18  
8183 87  
8184 96  
8185 93  
8186 68  
8187 91  
8188 5   
8189 29  
8190 37  
8191 59  
8192 17  
8193 85  
8194 24  
8195 38  
8196 62  
8197 73  
8198 67  
8199 75  
8200 85  
8201 97  
8202 13  
8203 2   
8204 69  
8205 71  
8206 96  
8207 91  
8208 39  
8209 78  
8210 4   
8211 46  
8212 36  
8213 61  
8214 96  
8215 33  
8216 16  
8217 82  
8218 56  
8219 50  
8220 26  
8221 66  
8222 33  
8223 85  
8224 72  
8225 14  
8226 6   
8227 6   
8228 48  
8229 100 
8230 15  
8231 71  
8232 86  
8233 20  
8234 3   
8235 66  
8236 89  
8237 59  
8238 15  
8239 62  
8240 32  
8241 11  
8242 19  
8243 39  
8244 85  
8245 21  
8246 80  
8247 1   
8248 1   
8249 72  
8250 20  
8251 40  
8252 92  
8253 99  
8254 100 
8255 78  
8256 82  
8257 83  
8258 51  
8259 55  
8260 86  
8261 29  
8262 86  
8263 70  
8264 90  
8265 44  
8266 36  
8267 31  
8268 63  
8269 76  
8270 72  
8271 20  
8272 43  
8273 6   
8274 27  
8275 18  
8276 65  
8277 12  
8278 94  
8279 70  
8280 40  
8281 62  
8282 12  
8283 37  
8284 47  
8285 97  
8286 66  
8287 88  
8288 87  
8289 84  
8290 4   
8291 42  
8292 82  
8293 21  
8294 48  
8295 62  
8296 23  
8297 90  
8298 22  
8299 16  
8300 64  
8301 20  
8302 28  
8303 85  
8304 15  
8305 36  
8306 55  
8307 68  
8308 60  
8309 39  
8310 15  
8311 49  
8312 51  
8313 37  
8314 41  
8315 43  
8316 77  
8317 80  
8318 70  
8319 75  
8320 73  
8321 46  
8322 79  
8323 4   
8324 21  
8325 97  
8326 76  
8327 36  
8328 12  
8329 72  
8330 1   
8331 46  
8332 94  
8333 53  
8334 46  
8335 15  
8336 48  
8337 67  
8338 43  
8339 46  
8340 19  
8341 95  
8342 79  
8343 99  
8344 13  
8345 49  
8346 60  
8347 47  
8348 81  
8349 71  
8350 48  
8351 70  
8352 63  
8353 74  
8354 17  
8355 17  
8356 20  
8357 44  
8358 51  
8359 94  
8360 61  
8361 11  
8362 16  
8363 68  
8364 64  
8365 2   
8366 76  
8367 100 
8368 42  
8369 91  
8370 54  
8371 15  
8372 10  
8373 94  
8374 91  
8375 29  
8376 33  
8377 2   
8378 13  
8379 45  
8380 86  
8381 95  
8382 96  
8383 35  
8384 77  
8385 8   
8386 26  
8387 11  
8388 7   
8389 49  
8390 98  
8391 53  
8392 61  
8393 23  
8394 27  
8395 60  
8396 21  
8397 35  
8398 36  
8399 77  
8400 91  
8401 38  
8402 64  
8403 51  
8404 57  
8405 78  
8406 24  
8407 49  
8408 69  
8409 91  
8410 53  
8411 43  
8412 83  
8413 14  
8414 66  
8415 85  
8416 6   
8417 69  
8418 4   
8419 20  
8420 94  
8421 80  
8422 50  
8423 12  
8424 88  
8425 29  
8426 4   
8427 35  
8428 87  
8429 47  
8430 5   
8431 30  
8432 48  
8433 81  
8434 60  
8435 16  
8436 27  
8437 74  
8438 47  
8439 58  
8440 88  
8441 12  
8442 82  
8443 47  
8444 29  
8445 7   
8446 40  
8447 7   
8448 19  
8449 62  
8450 5   
8451 52  
8452 55  
8453 77  
8454 45  
8455 18  
8456 6   
8457 41  
8458 20  
8459 50  
8460 44  
8461 80  
8462 70  
8463 39  
8464 35  
8465 20  
8466 34  
8467 85  
8468 50  
8469 92  
8470 16  
8471 61  
8472 84  
8473 49  
8474 55  
8475 84  
8476 73  
8477 3   
8478 44  
8479 64  
8480 33  
8481 8   
8482 65  
8483 54  
8484 24  
8485 27  
8486 58  
8487 24  
8488 27  
8489 38  
8490 87  
8491 91  
8492 74  
8493 92  
8494 50  
8495 14  
8496 99  
8497 73  
8498 71  
8499 27  
8500 53  
8501 72  
8502 76  
8503 28  
8504 19  
8505 78  
8506 4   
8507 30  
8508 1   
8509 88  
8510 66  
8511 9   
8512 47  
8513 19  
8514 11  
8515 20  
8516 26  
8517 64  
8518 1   
8519 89  
8520 78  
8521 5   
8522 22  
8523 79  
8524 50  
8525 70  
8526 51  
8527 61  
8528 37  
8529 94  
8530 23  
8531 85  
8532 11  
8533 53  
8534 63  
8535 99  
8536 29  
8537 8   
8538 46  
8539 32  
8540 59  
8541 1   
8542 70  
8543 84  
8544 42  
8545 36  
8546 10  
8547 100 
8548 23  
8549 75  
8550 87  
8551 41  
8552 39  
8553 50  
8554 19  
8555 98  
8556 71  
8557 23  
8558 68  
8559 27  
8560 80  
8561 43  
8562 40  
8563 82  
8564 39  
8565 61  
8566 51  
8567 58  
8568 18  
8569 41  
8570 97  
8571 34  
8572 17  
8573 90  
8574 34  
8575 21  
8576 20  
8577 58  
8578 25  
8579 30  
8580 92  
8581 96  
8582 83  
8583 28  
8584 59  
8585 22  
8586 40  
8587 36  
8588 100 
8589 86  
8590 82  
8591 16  
8592 20  
8593 68  
8594 22  
8595 91  
8596 11  
8597 32  
8598 58  
8599 5   
8600 47  
8601 51  
8602 34  
8603 26  
8604 90  
8605 73  
8606 87  
8607 71  
8608 1   
8609 88  
8610 79  
8611 95  
8612 1   
8613 41  
8614 91  
8615 76  
8616 31  
8617 56  
8618 33  
8619 48  
8620 77  
8621 25  
8622 44  
8623 26  
8624 82  
8625 58  
8626 83  
8627 29  
8628 21  
8629 93  
8630 45  
8631 32  
8632 10  
8633 76  
8634 68  
8635 78  
8636 41  
8637 98  
8638 53  
8639 64  
8640 5   
8641 76  
8642 97  
8643 56  
8644 47  
8645 16  
8646 45  
8647 53  
8648 90  
8649 100 
8650 70  
8651 46  
8652 18  
8653 94  
8654 85  
8655 26  
8656 14  
8657 50  
8658 69  
8659 53  
8660 48  
8661 27  
8662 6   
8663 42  
8664 94  
8665 50  
8666 99  
8667 5   
8668 40  
8669 1   
8670 74  
8671 14  
8672 40  
8673 38  
8674 23  
8675 20  
8676 33  
8677 2   
8678 33  
8679 52  
8680 38  
8681 86  
8682 35  
8683 9   
8684 47  
8685 93  
8686 89  
8687 87  
8688 51  
8689 78  
8690 64  
8691 30  
8692 37  
8693 44  
8694 83  
8695 93  
8696 27  
8697 20  
8698 10  
8699 30  
8700 76  
8701 74  
8702 32  
8703 96  
8704 64  
8705 56  
8706 3   
8707 4   
8708 78  
8709 3   
8710 91  
8711 48  
8712 76  
8713 58  
8714 9   
8715 46  
8716 89  
8717 2   
8718 51  
8719 84  
8720 10  
8721 41  
8722 69  
8723 100 
8724 64  
8725 65  
8726 57  
8727 47  
8728 28  
8729 67  
8730 61  
8731 34  
8732 23  
8733 31  
8734 16  
8735 70  
8736 1   
8737 99  
8738 53  
8739 93  
8740 1   
8741 33  
8742 44  
8743 1   
8744 26  
8745 82  
8746 100 
8747 76  
8748 80  
8749 16  
8750 68  
8751 42  
8752 19  
8753 96  
8754 42  
8755 80  
8756 57  
8757 92  
8758 38  
8759 65  
8760 25  
8761 61  
8762 38  
8763 22  
8764 2   
8765 15  
8766 71  
8767 90  
8768 44  
8769 98  
8770 94  
8771 13  
8772 70  
8773 44  
8774 64  
8775 14  
8776 79  
8777 8   
8778 10  
8779 21  
8780 7   
8781 93  
8782 24  
8783 16  
8784 95  
8785 6   
8786 34  
8787 83  
8788 68  
8789 58  
8790 70  
8791 97  
8792 27  
8793 77  
8794 69  
8795 24  
8796 78  
8797 34  
8798 58  
8799 91  
8800 29  
8801 13  
8802 42  
8803 57  
8804 100 
8805 31  
8806 80  
8807 79  
8808 9   
8809 39  
8810 90  
8811 62  
8812 33  
8813 50  
8814 5   
8815 66  
8816 78  
8817 8   
8818 4   
8819 91  
8820 95  
8821 62  
8822 41  
8823 91  
8824 60  
8825 56  
8826 21  
8827 34  
8828 74  
8829 24  
8830 30  
8831 13  
8832 34  
8833 76  
8834 83  
8835 48  
8836 3   
8837 86  
8838 4   
8839 67  
8840 53  
8841 47  
8842 97  
8843 78  
8844 16  
8845 40  
8846 9   
8847 86  
8848 27  
8849 3   
8850 3   
8851 54  
8852 90  
8853 40  
8854 7   
8855 10  
8856 69  
8857 56  
8858 50  
8859 81  
8860 69  
8861 69  
8862 63  
8863 35  
8864 2   
8865 32  
8866 29  
8867 49  
8868 65  
8869 13  
8870 81  
8871 41  
8872 88  
8873 25  
8874 95  
8875 47  
8876 59  
8877 73  
8878 66  
8879 86  
8880 45  
8881 64  
8882 14  
8883 17  
8884 51  
8885 100 
8886 8   
8887 1   
8888 6   
8889 49  
8890 84  
8891 18  
8892 19  
8893 22  
8894 53  
8895 74  
8896 59  
8897 7   
8898 97  
8899 33  
8900 94  
8901 26  
8902 98  
8903 75  
8904 26  
8905 64  
8906 55  
8907 79  
8908 99  
8909 77  
8910 78  
8911 52  
8912 54  
8913 72  
8914 65  
8915 76  
8916 87  
8917 39  
8918 4   
8919 22  
8920 15  
8921 84  
8922 15  
8923 78  
8924 84  
8925 66  
8926 2   
8927 43  
8928 1   
8929 1   
8930 32  
8931 3   
8932 6   
8933 70  
8934 15  
8935 90  
8936 18  
8937 35  
8938 66  
8939 24  
8940 7   
8941 40  
8942 51  
8943 92  
8944 41  
8945 11  
8946 84  
8947 51  
8948 95  
8949 36  
8950 65  
8951 32  
8952 7   
8953 47  
8954 74  
8955 68  
8956 51  
8957 23  
8958 46  
8959 33  
8960 36  
8961 66  
8962 33  
8963 76  
8964 73  
8965 81  
8966 94  
8967 27  
8968 65  
8969 52  
8970 87  
8971 77  
8972 73  
8973 6   
8974 23  
8975 67  
8976 48  
8977 91  
8978 97  
8979 9   
8980 88  
8981 98  
8982 44  
8983 51  
8984 93  
8985 12  
8986 89  
8987 82  
8988 55  
8989 11  
8990 30  
8991 52  
8992 95  
8993 89  
8994 63  
8995 80  
8996 18  
8997 87  
8998 46  
8999 8   
9000 74  
9001 46  
9002 91  
9003 66  
9004 45  
9005 70  
9006 34  
9007 27  
9008 23  
9009 37  
9010 58  
9011 66  
9012 36  
9013 13  
9014 9   
9015 52  
9016 50  
9017 74  
9018 71  
9019 92  
9020 23  
9021 29  
9022 65  
9023 68  
9024 16  
9025 58  
9026 96  
9027 3   
9028 13  
9029 96  
9030 41  
9031 95  
9032 29  
9033 81  
9034 40  
9035 19  
9036 83  
9037 99  
9038 65  
9039 47  
9040 33  
9041 26  
9042 5   
9043 51  
9044 71  
9045 45  
9046 26  
9047 85  
9048 95  
9049 41  
9050 20  
9051 67  
9052 92  
9053 40  
9054 77  
9055 1   
9056 60  
9057 30  
9058 84  
9059 39  
9060 4   
9061 22  
9062 28  
9063 78  
9064 98  
9065 45  
9066 73  
9067 65  
9068 56  
9069 100 
9070 18  
9071 81  
9072 11  
9073 73  
9074 88  
9075 75  
9076 77  
9077 67  
9078 48  
9079 21  
9080 5   
9081 15  
9082 49  
9083 10  
9084 10  
9085 26  
9086 3   
9087 78  
9088 40  
9089 18  
9090 15  
9091 43  
9092 79  
9093 56  
9094 6   
9095 20  
9096 49  
9097 70  
9098 36  
9099 71  
9100 44  
9101 53  
9102 26  
9103 27  
9104 34  
9105 98  
9106 50  
9107 78  
9108 73  
9109 74  
9110 87  
9111 96  
9112 26  
9113 64  
9114 12  
9115 36  
9116 78  
9117 38  
9118 86  
9119 12  
9120 22  
9121 21  
9122 15  
9123 13  
9124 25  
9125 45  
9126 69  
9127 5   
9128 49  
9129 94  
9130 59  
9131 61  
9132 19  
9133 91  
9134 93  
9135 86  
9136 12  
9137 31  
9138 49  
9139 35  
9140 80  
9141 31  
9142 73  
9143 79  
9144 27  
9145 17  
9146 31  
9147 7   
9148 14  
9149 97  
9150 63  
9151 43  
9152 54  
9153 42  
9154 48  
9155 40  
9156 33  
9157 66  
9158 59  
9159 55  
9160 45  
9161 10  
9162 31  
9163 2   
9164 89  
9165 11  
9166 87  
9167 93  
9168 31  
9169 50  
9170 33  
9171 94  
9172 12  
9173 83  
9174 33  
9175 23  
9176 30  
9177 99  
9178 40  
9179 80  
9180 97  
9181 73  
9182 96  
9183 35  
9184 58  
9185 25  
9186 45  
9187 58  
9188 14  
9189 60  
9190 13  
9191 90  
9192 54  
9193 63  
9194 73  
9195 72  
9196 90  
9197 61  
9198 30  
9199 31  
9200 2   
9201 23  
9202 31  
9203 57  
9204 76  
9205 92  
9206 35  
9207 33  
9208 53  
9209 66  
9210 92  
9211 44  
9212 72  
9213 88  
9214 95  
9215 33  
9216 52  
9217 44  
9218 15  
9219 92  
9220 35  
9221 13  
9222 80  
9223 15  
9224 72  
9225 93  
9226 84  
9227 85  
9228 61  
9229 60  
9230 66  
9231 23  
9232 37  
9233 62  
9234 42  
9235 80  
9236 82  
9237 84  
9238 10  
9239 57  
9240 69  
9241 85  
9242 58  
9243 8   
9244 53  
9245 59  
9246 1   
9247 28  
9248 82  
9249 26  
9250 76  
9251 43  
9252 60  
9253 5   
9254 14  
9255 7   
9256 46  
9257 69  
9258 26  
9259 45  
9260 66  
9261 69  
9262 68  
9263 98  
9264 65  
9265 45  
9266 79  
9267 31  
9268 68  
9269 79  
9270 99  
9271 5   
9272 93  
9273 11  
9274 27  
9275 95  
9276 95  
9277 23  
9278 44  
9279 47  
9280 91  
9281 56  
9282 3   
9283 81  
9284 67  
9285 78  
9286 97  
9287 89  
9288 61  
9289 53  
9290 40  
9291 75  
9292 70  
9293 89  
9294 80  
9295 85  
9296 41  
9297 57  
9298 86  
9299 18  
9300 12  
9301 69  
9302 76  
9303 59  
9304 9   
9305 27  
9306 33  
9307 100 
9308 72  
9309 55  
9310 68  
9311 11  
9312 26  
9313 59  
9314 50  
9315 37  
9316 4   
9317 76  
9318 30  
9319 66  
9320 79  
9321 29  
9322 81  
9323 99  
9324 96  
9325 98  
9326 51  
9327 69  
9328 26  
9329 29  
9330 38  
9331 44  
9332 37  
9333 26  
9334 87  
9335 45  
9336 73  
9337 25  
9338 6   
9339 12  
9340 77  
9341 9   
9342 61  
9343 19  
9344 65  
9345 28  
9346 70  
9347 9   
9348 64  
9349 19  
9350 38  
9351 77  
9352 51  
9353 74  
9354 65  
9355 47  
9356 71  
9357 87  
9358 37  
9359 96  
9360 72  
9361 22  
9362 42  
9363 50  
9364 69  
9365 12  
9366 53  
9367 56  
9368 87  
9369 46  
9370 71  
9371 4   
9372 55  
9373 50  
9374 92  
9375 22  
9376 63  
9377 35  
9378 80  
9379 62  
9380 98  
9381 70  
9382 89  
9383 92  
9384 66  
9385 54  
9386 13  
9387 81  
9388 34  
9389 68  
9390 59  
9391 3   
9392 34  
9393 73  
9394 46  
9395 62  
9396 15  
9397 31  
9398 78  
9399 23  
9400 65  
9401 31  
9402 86  
9403 89  
9404 99  
9405 78  
9406 15  
9407 88  
9408 34  
9409 53  
9410 78  
9411 78  
9412 51  
9413 18  
9414 22  
9415 100 
9416 5   
9417 14  
9418 99  
9419 51  
9420 80  
9421 18  
9422 23  
9423 28  
9424 49  
9425 47  
9426 13  
9427 99  
9428 29  
9429 8   
9430 63  
9431 18  
9432 86  
9433 50  
9434 91  
9435 37  
9436 6   
9437 4   
9438 66  
9439 16  
9440 32  
9441 91  
9442 14  
9443 14  
9444 79  
9445 75  
9446 17  
9447 98  
9448 58  
9449 71  
9450 1   
9451 75  
9452 98  
9453 80  
9454 88  
9455 47  
9456 38  
9457 29  
9458 27  
9459 88  
9460 16  
9461 10  
9462 72  
9463 26  
9464 91  
9465 18  
9466 20  
9467 67  
9468 96  
9469 83  
9470 96  
9471 56  
9472 60  
9473 68  
9474 47  
9475 34  
9476 14  
9477 22  
9478 74  
9479 12  
9480 81  
9481 14  
9482 22  
9483 38  
9484 44  
9485 77  
9486 15  
9487 28  
9488 50  
9489 23  
9490 80  
9491 25  
9492 59  
9493 50  
9494 14  
9495 61  
9496 84  
9497 65  
9498 40  
9499 11  
9500 49  
9501 39  
9502 98  
9503 52  
9504 29  
9505 83  
9506 49  
9507 33  
9508 35  
9509 60  
9510 22  
9511 33  
9512 4   
9513 95  
9514 20  
9515 45  
9516 55  
9517 57  
9518 77  
9519 55  
9520 91  
9521 74  
9522 57  
9523 21  
9524 100 
9525 21  
9526 9   
9527 76  
9528 65  
9529 12  
9530 10  
9531 4   
9532 40  
9533 80  
9534 64  
9535 99  
9536 8   
9537 24  
9538 42  
9539 71  
9540 75  
9541 88  
9542 75  
9543 89  
9544 73  
9545 20  
9546 77  
9547 5   
9548 27  
9549 21  
9550 82  
9551 4   
9552 81  
9553 36  
9554 71  
9555 2   
9556 23  
9557 65  
9558 15  
9559 8   
9560 24  
9561 56  
9562 93  
9563 36  
9564 99  
9565 69  
9566 97  
9567 18  
9568 68  
9569 17  
9570 70  
9571 88  
9572 65  
9573 99  
9574 18  
9575 75  
9576 40  
9577 37  
9578 29  
9579 27  
9580 85  
9581 95  
9582 85  
9583 22  
9584 68  
9585 9   
9586 48  
9587 38  
9588 4   
9589 77  
9590 11  
9591 76  
9592 62  
9593 81  
9594 15  
9595 92  
9596 8   
9597 82  
9598 45  
9599 70  
9600 68  
9601 93  
9602 36  
9603 81  
9604 56  
9605 40  
9606 87  
9607 90  
9608 28  
9609 97  
9610 70  
9611 19  
9612 96  
9613 71  
9614 12  
9615 41  
9616 37  
9617 64  
9618 23  
9619 98  
9620 19  
9621 28  
9622 29  
9623 68  
9624 11  
9625 72  
9626 34  
9627 45  
9628 57  
9629 85  
9630 5   
9631 71  
9632 98  
9633 20  
9634 77  
9635 43  
9636 57  
9637 32  
9638 26  
9639 15  
9640 34  
9641 9   
9642 37  
9643 49  
9644 3   
9645 28  
9646 74  
9647 91  
9648 77  
9649 12  
9650 75  
9651 40  
9652 59  
9653 8   
9654 39  
9655 65  
9656 79  
9657 4   
9658 97  
9659 3   
9660 36  
9661 5   
9662 11  
9663 30  
9664 34  
9665 85  
9666 6   
9667 50  
9668 46  
9669 59  
9670 9   
9671 83  
9672 20  
9673 83  
9674 57  
9675 33  
9676 34  
9677 48  
9678 15  
9679 47  
9680 19  
9681 7   
9682 23  
9683 53  
9684 54  
9685 46  
9686 69  
9687 84  
9688 15  
9689 18  
9690 46  
9691 56  
9692 7   
9693 9   
9694 24  
9695 24  
9696 76  
9697 39  
9698 63  
9699 8   
9700 78  
9701 15  
9702 22  
9703 41  
9704 44  
9705 5   
9706 1   
9707 74  
9708 88  
9709 68  
9710 82  
9711 89  
9712 10  
9713 44  
9714 15  
9715 23  
9716 42  
9717 86  
9718 61  
9719 74  
9720 99  
9721 20  
9722 18  
9723 72  
9724 61  
9725 62  
9726 4   
9727 46  
9728 84  
9729 85  
9730 38  
9731 26  
9732 18  
9733 67  
9734 88  
9735 34  
9736 55  
9737 80  
9738 3   
9739 99  
9740 93  
9741 29  
9742 99  
9743 60  
9744 92  
9745 2   
9746 53  
9747 19  
9748 61  
9749 84  
9750 29  
9751 30  
9752 48  
9753 20  
9754 47  
9755 33  
9756 43  
9757 42  
9758 48  
9759 39  
9760 32  
9761 18  
9762 54  
9763 90  
9764 28  
9765 4   
9766 15  
9767 86  
9768 47  
9769 11  
9770 63  
9771 65  
9772 35  
9773 91  
9774 75  
9775 80  
9776 78  
9777 77  
9778 97  
9779 47  
9780 7   
9781 33  
9782 35  
9783 36  
9784 3   
9785 91  
9786 63  
9787 7   
9788 59  
9789 62  
9790 34  
9791 78  
9792 96  
9793 79  
9794 61  
9795 63  
9796 82  
9797 43  
9798 75  
9799 27  
9800 38  
9801 23  
9802 44  
9803 90  
9804 8   
9805 76  
9806 9   
9807 48  
9808 11  
9809 34  
9810 82  
9811 49  
9812 9   
9813 15  
9814 76  
9815 39  
9816 38  
9817 71  
9818 42  
9819 81  
9820 66  
9821 59  
9822 3   
9823 61  
9824 75  
9825 5   
9826 15  
9827 2   
9828 76  
9829 96  
9830 30  
9831 18  
9832 23  
9833 46  
9834 46  
9835 93  
9836 97  
9837 18  
9838 65  
9839 87  
9840 4   
9841 56  
9842 26  
9843 20  
9844 34  
9845 90  
9846 16  
9847 75  
9848 35  
9849 93  
9850 51  
9851 57  
9852 24  
9853 40  
9854 18  
9855 50  
9856 69  
9857 60  
9858 100 
9859 32  
9860 72  
9861 43  
9862 18  
9863 61  
9864 46  
9865 95  
9866 59  
9867 6   
9868 18  
9869 18  
9870 22  
9871 38  
9872 65  
9873 28  
9874 82  
9875 23  
9876 5   
9877 12  
9878 33  
9879 38  
9880 74  
9881 31  
9882 97  
9883 26  
9884 12  
9885 82  
9886 52  
9887 19  
9888 99  
9889 42  
9890 29  
9891 20  
9892 48  
9893 35  
9894 17  
9895 39  
9896 12  
9897 60  
9898 19  
9899 47  
9900 40  
9901 88  
9902 11  
9903 71  
9904 93  
9905 99  
9906 81  
9907 29  
9908 66  
9909 47  
9910 79  
9911 100 
9912 64  
9913 34  
9914 56  
9915 90  
9916 18  
9917 46  
9918 66  
9919 18  
9920 94  
9921 35  
9922 98  
9923 29  
9924 70  
9925 90  
9926 55  
9927 3   
9928 2   
9929 1   
9930 98  
9931 51  
9932 23  
9933 91  
9934 29  
9935 2   
9936 99  
9937 84  
9938 43  
9939 69  
9940 27  
9941 27  
9942 65  
9943 39  
9944 25  
9945 76  
9946 39  
9947 24  
9948 13  
9949 12  
9950 7   
9951 77  
9952 51  
9953 13  
9954 42  
9955 79  
9956 34  
9957 22  
9958 8   
9959 38  
9960 43  
9961 43  
9962 100 
9963 37  
9964 69  
9965 44  
9966 63  
9967 98  
9968 30  
9969 15  
9970 65  
9971 86  
9972 41  
9973 66  
9974 91  
9975 93  
9976 33  
9977 1   
9978 4   
9979 73  
9980 1   
9981 8   
9982 70  
9983 69  
9984 10  
9985 71  
9986 98  
9987 47  
9988 87  
9989 79  
9990 59  
9991 71  
9992 82  
9993 95  
9994 40  
9995 87  
9996 13  
9997 51  
9998 23  
9999 66  
10000 9   
10001 54  
DEPOT_SECTION
1
-1
EOF
