NAME : XML25000_1173_01
COMMENT : Generated as the XML100 dataset from the CVRPLIB
TYPE : CVRP
DIMENSION : 25001
EDGE_WEIGHT_TYPE : EUC_2D
CAPACITY : 150
NODE_COORD_SECTION
1    494  591 
2    824  413 
3    367  853 
4    180  424 
5    846  925 
6    332  35  
7    484  870 
8    892  107 
9    599  255 
10   221  885 
11   440  132 
12   15   143 
13   769  959 
14   536  862 
15   61   861 
16   227  45  
17   635  184 
18   303  128 
19   506  508 
20   937  350 
21   773  992 
22   616  283 
23   436  406 
24   187  536 
25   353  496 
26   957  244 
27   498  763 
28   83   731 
29   784  598 
30   537  770 
31   705  244 
32   728  147 
33   663  183 
34   421  312 
35   114  826 
36   444  143 
37   301  274 
38   926  799 
39   250  330 
40   326  239 
41   577  291 
42   939  836 
43   780  448 
44   201  23  
45   37   505 
46   918  82  
47   558  181 
48   770  93  
49   516  617 
50   922  128 
51   447  623 
52   193  836 
53   34   448 
54   659  975 
55   179  665 
56   73   446 
57   880  570 
58   419  134 
59   262  304 
60   211  296 
61   859  660 
62   626  697 
63   589  515 
64   935  539 
65   561  34  
66   245  521 
67   907  58  
68   86   519 
69   766  101 
70   750  622 
71   713  383 
72   81   133 
73   113  564 
74   756  298 
75   885  714 
76   223  584 
77   774  72  
78   479  978 
79   769  328 
80   38   983 
81   243  439 
82   741  156 
83   393  76  
84   893  305 
85   17   584 
86   826  506 
87   517  779 
88   678  790 
89   881  410 
90   265  283 
91   915  433 
92   94   360 
93   682  108 
94   910  116 
95   838  746 
96   416  871 
97   400  284 
98   990  945 
99   921  718 
100  10   983 
101  268  355 
102  293  176 
103  406  497 
104  583  211 
105  516  152 
106  936  412 
107  295  907 
108  403  833 
109  156  543 
110  624  159 
111  850  465 
112  776  436 
113  488  658 
114  785  314 
115  644  651 
116  280  702 
117  102  253 
118  28   752 
119  720  892 
120  187  81  
121  528  115 
122  175  752 
123  325  291 
124  654  838 
125  555  731 
126  488  878 
127  859  865 
128  589  440 
129  384  57  
130  63   849 
131  506  926 
132  621  999 
133  65   661 
134  450  169 
135  180  322 
136  521  394 
137  332  133 
138  392  370 
139  138  858 
140  894  519 
141  665  532 
142  481  935 
143  416  54  
144  111  505 
145  565  228 
146  844  413 
147  934  27  
148  166  113 
149  994  366 
150  191  518 
151  235  670 
152  795  784 
153  412  320 
154  308  657 
155  188  511 
156  580  937 
157  465  806 
158  672  436 
159  799  713 
160  785  107 
161  658  251 
162  930  884 
163  605  618 
164  183  692 
165  771  424 
166  349  172 
167  579  647 
168  761  133 
169  406  12  
170  528  290 
171  212  203 
172  874  428 
173  371  426 
174  101  765 
175  177  165 
176  417  662 
177  774  682 
178  81   803 
179  962  684 
180  157  462 
181  106  502 
182  641  385 
183  606  571 
184  680  441 
185  922  410 
186  779  63  
187  500  642 
188  509  844 
189  850  904 
190  232  335 
191  195  69  
192  107  881 
193  792  49  
194  635  595 
195  928  561 
196  67   172 
197  475  659 
198  574  701 
199  809  524 
200  373  597 
201  744  87  
202  790  868 
203  591  999 
204  674  977 
205  125  689 
206  623  438 
207  169  143 
208  284  200 
209  911  797 
210  853  46  
211  299  794 
212  585  529 
213  857  980 
214  737  702 
215  239  816 
216  149  536 
217  352  668 
218  365  678 
219  473  765 
220  97   57  
221  987  720 
222  235  343 
223  707  606 
224  656  384 
225  181  427 
226  702  839 
227  974  232 
228  637  370 
229  185  793 
230  150  617 
231  51   960 
232  641  30  
233  920  211 
234  484  178 
235  555  449 
236  564  561 
237  308  247 
238  453  778 
239  483  331 
240  621  721 
241  432  571 
242  697  1   
243  683  50  
244  927  679 
245  731  302 
246  74   999 
247  203  201 
248  599  367 
249  643  721 
250  735  383 
251  899  635 
252  938  31  
253  433  733 
254  456  778 
255  437  585 
256  204  836 
257  248  684 
258  688  697 
259  877  171 
260  199  963 
261  471  830 
262  835  715 
263  201  683 
264  330  1   
265  957  100 
266  355  430 
267  286  876 
268  818  957 
269  642  510 
270  222  956 
271  921  301 
272  176  852 
273  653  222 
274  374  619 
275  690  466 
276  261  837 
277  376  123 
278  362  946 
279  876  568 
280  823  195 
281  491  602 
282  793  916 
283  871  247 
284  546  612 
285  306  557 
286  54   38  
287  882  415 
288  77   255 
289  462  267 
290  102  786 
291  21   264 
292  464  155 
293  950  415 
294  860  281 
295  664  52  
296  115  338 
297  636  304 
298  998  427 
299  18   401 
300  479  866 
301  437  282 
302  458  555 
303  995  256 
304  252  303 
305  56   2   
306  402  18  
307  111  484 
308  696  193 
309  486  582 
310  700  648 
311  160  381 
312  810  491 
313  425  783 
314  870  683 
315  247  552 
316  821  745 
317  738  25  
318  92   670 
319  735  676 
320  885  87  
321  334  711 
322  795  371 
323  193  517 
324  802  685 
325  283  647 
326  571  488 
327  633  23  
328  852  503 
329  93   917 
330  831  667 
331  510  230 
332  37   766 
333  277  79  
334  874  13  
335  357  226 
336  684  397 
337  135  455 
338  677  980 
339  896  133 
340  197  538 
341  264  559 
342  688  39  
343  870  307 
344  266  389 
345  72   332 
346  953  197 
347  441  921 
348  851  738 
349  897  414 
350  894  919 
351  27   510 
352  961  380 
353  686  899 
354  310  663 
355  61   787 
356  467  612 
357  545  238 
358  554  116 
359  455  511 
360  169  146 
361  139  966 
362  74   273 
363  830  168 
364  959  524 
365  853  9   
366  982  359 
367  984  71  
368  981  294 
369  600  6   
370  999  134 
371  127  987 
372  918  424 
373  277  272 
374  353  906 
375  226  504 
376  724  111 
377  415  102 
378  124  930 
379  624  410 
380  783  935 
381  889  778 
382  497  673 
383  349  640 
384  72   59  
385  953  406 
386  254  775 
387  722  45  
388  902  297 
389  194  626 
390  985  869 
391  768  781 
392  55   323 
393  78   224 
394  816  57  
395  124  358 
396  841  602 
397  200  302 
398  232  223 
399  732  276 
400  600  958 
401  863  691 
402  782  431 
403  551  86  
404  445  871 
405  228  329 
406  122  980 
407  804  897 
408  640  674 
409  324  843 
410  679  323 
411  204  801 
412  598  113 
413  877  198 
414  56   280 
415  731  897 
416  978  942 
417  83   686 
418  286  881 
419  452  537 
420  537  981 
421  562  256 
422  149  648 
423  891  549 
424  474  787 
425  690  47  
426  49   445 
427  178  283 
428  953  871 
429  805  974 
430  519  592 
431  427  632 
432  11   982 
433  841  907 
434  200  29  
435  628  116 
436  243  14  
437  958  701 
438  12   587 
439  432  847 
440  358  717 
441  471  38  
442  37   1000
443  346  188 
444  295  69  
445  281  527 
446  302  931 
447  57   48  
448  539  884 
449  225  890 
450  834  776 
451  52   253 
452  116  708 
453  377  956 
454  517  166 
455  856  526 
456  782  314 
457  565  170 
458  844  87  
459  807  861 
460  249  491 
461  92   887 
462  327  248 
463  557  839 
464  677  258 
465  435  171 
466  882  704 
467  278  439 
468  333  824 
469  942  670 
470  529  267 
471  485  973 
472  342  590 
473  667  389 
474  946  244 
475  344  158 
476  535  394 
477  934  925 
478  23   86  
479  814  327 
480  274  584 
481  371  500 
482  767  114 
483  126  334 
484  165  690 
485  250  554 
486  213  678 
487  107  367 
488  912  89  
489  280  723 
490  600  284 
491  261  725 
492  745  370 
493  263  11  
494  284  794 
495  46   361 
496  793  4   
497  387  823 
498  779  489 
499  306  701 
500  147  387 
501  774  300 
502  564  752 
503  693  404 
504  935  379 
505  423  423 
506  379  363 
507  487  860 
508  381  313 
509  708  198 
510  489  648 
511  159  526 
512  989  811 
513  468  530 
514  569  489 
515  366  433 
516  80   234 
517  246  667 
518  797  9   
519  285  853 
520  919  538 
521  333  617 
522  243  727 
523  997  450 
524  912  844 
525  70   612 
526  469  25  
527  971  120 
528  293  92  
529  39   680 
530  957  165 
531  763  250 
532  251  462 
533  87   700 
534  770  584 
535  862  226 
536  170  696 
537  209  854 
538  246  71  
539  536  713 
540  98   454 
541  649  942 
542  61   178 
543  531  462 
544  718  844 
545  757  234 
546  178  449 
547  948  749 
548  533  697 
549  572  145 
550  844  910 
551  814  210 
552  742  336 
553  908  2   
554  140  916 
555  269  760 
556  509  211 
557  797  790 
558  24   308 
559  222  699 
560  921  42  
561  510  374 
562  632  56  
563  159  319 
564  362  841 
565  0    476 
566  436  720 
567  650  266 
568  327  606 
569  608  144 
570  721  919 
571  96   484 
572  389  439 
573  686  567 
574  91   187 
575  280  282 
576  808  956 
577  699  553 
578  178  748 
579  837  875 
580  346  918 
581  60   648 
582  369  31  
583  39   409 
584  906  468 
585  48   564 
586  415  894 
587  749  244 
588  899  549 
589  864  694 
590  961  492 
591  342  916 
592  515  610 
593  570  763 
594  925  619 
595  752  149 
596  217  302 
597  53   592 
598  627  887 
599  316  166 
600  959  668 
601  952  934 
602  454  92  
603  809  99  
604  364  218 
605  260  941 
606  587  178 
607  571  553 
608  75   998 
609  774  910 
610  979  316 
611  31   883 
612  912  131 
613  130  64  
614  667  875 
615  503  967 
616  805  809 
617  908  437 
618  654  689 
619  239  323 
620  82   506 
621  449  773 
622  391  926 
623  197  987 
624  628  17  
625  8    772 
626  229  458 
627  819  784 
628  289  813 
629  863  783 
630  685  967 
631  608  299 
632  73   944 
633  315  991 
634  940  298 
635  299  434 
636  582  883 
637  458  529 
638  294  363 
639  116  737 
640  817  642 
641  303  395 
642  711  510 
643  192  540 
644  53   353 
645  865  827 
646  846  678 
647  599  314 
648  364  905 
649  553  646 
650  223  70  
651  133  362 
652  887  511 
653  43   740 
654  36   635 
655  806  67  
656  790  580 
657  522  538 
658  303  975 
659  86   437 
660  930  807 
661  616  448 
662  819  101 
663  752  0   
664  992  639 
665  37   224 
666  46   150 
667  966  39  
668  182  598 
669  260  528 
670  117  3   
671  691  204 
672  140  126 
673  73   165 
674  843  441 
675  202  259 
676  827  796 
677  594  513 
678  308  772 
679  760  489 
680  165  669 
681  227  940 
682  554  719 
683  374  956 
684  289  638 
685  457  800 
686  150  269 
687  67   673 
688  106  89  
689  629  811 
690  742  122 
691  689  78  
692  177  306 
693  825  638 
694  550  893 
695  827  472 
696  811  959 
697  133  583 
698  831  257 
699  100  285 
700  508  42  
701  902  52  
702  150  841 
703  650  36  
704  544  559 
705  532  192 
706  952  452 
707  751  956 
708  682  853 
709  534  914 
710  195  750 
711  716  436 
712  790  919 
713  372  926 
714  930  502 
715  215  608 
716  916  581 
717  259  730 
718  708  679 
719  639  669 
720  127  457 
721  330  813 
722  740  272 
723  249  347 
724  71   246 
725  364  124 
726  4    189 
727  283  494 
728  444  27  
729  688  921 
730  748  41  
731  914  343 
732  787  543 
733  808  238 
734  499  573 
735  473  686 
736  710  4   
737  219  571 
738  887  948 
739  227  857 
740  905  987 
741  757  329 
742  206  193 
743  28   909 
744  888  135 
745  493  397 
746  555  414 
747  873  247 
748  301  518 
749  730  648 
750  158  145 
751  354  676 
752  907  362 
753  33   89  
754  863  613 
755  263  607 
756  636  16  
757  431  382 
758  237  59  
759  186  907 
760  66   165 
761  502  929 
762  142  118 
763  843  807 
764  522  752 
765  891  51  
766  393  444 
767  356  430 
768  252  527 
769  14   479 
770  957  21  
771  809  6   
772  834  499 
773  783  574 
774  640  824 
775  571  524 
776  165  883 
777  995  700 
778  121  15  
779  981  497 
780  667  142 
781  351  681 
782  139  489 
783  127  950 
784  37   410 
785  828  507 
786  918  125 
787  81   538 
788  337  432 
789  770  60  
790  475  302 
791  537  351 
792  64   647 
793  343  367 
794  555  847 
795  276  292 
796  59   924 
797  656  458 
798  958  747 
799  621  851 
800  803  410 
801  254  888 
802  457  730 
803  722  214 
804  708  5   
805  397  794 
806  641  68  
807  971  765 
808  897  242 
809  272  737 
810  168  786 
811  986  389 
812  575  213 
813  609  795 
814  65   805 
815  835  329 
816  30   741 
817  256  546 
818  735  177 
819  94   331 
820  721  483 
821  260  249 
822  246  390 
823  728  385 
824  781  393 
825  963  570 
826  218  623 
827  181  537 
828  806  36  
829  368  48  
830  956  657 
831  442  795 
832  716  162 
833  354  127 
834  248  742 
835  688  835 
836  340  190 
837  144  993 
838  808  392 
839  494  835 
840  524  636 
841  782  956 
842  701  52  
843  994  62  
844  353  174 
845  175  349 
846  325  192 
847  87   929 
848  348  871 
849  947  285 
850  776  595 
851  596  60  
852  575  813 
853  488  753 
854  54   672 
855  681  346 
856  130  240 
857  476  114 
858  3    354 
859  176  798 
860  432  488 
861  713  73  
862  404  774 
863  987  407 
864  756  216 
865  401  921 
866  582  455 
867  488  845 
868  529  713 
869  453  753 
870  972  551 
871  349  928 
872  8    916 
873  280  89  
874  206  987 
875  462  321 
876  547  957 
877  937  793 
878  699  854 
879  132  573 
880  360  22  
881  752  776 
882  604  809 
883  346  73  
884  475  871 
885  638  728 
886  938  260 
887  901  400 
888  986  8   
889  271  168 
890  755  461 
891  114  511 
892  151  582 
893  377  535 
894  584  739 
895  660  824 
896  644  325 
897  169  867 
898  388  27  
899  798  714 
900  51   323 
901  678  940 
902  703  331 
903  874  971 
904  786  5   
905  304  820 
906  910  162 
907  903  879 
908  838  320 
909  630  38  
910  577  426 
911  602  527 
912  164  230 
913  314  727 
914  994  181 
915  226  299 
916  514  300 
917  221  100 
918  140  974 
919  984  754 
920  343  561 
921  836  982 
922  340  517 
923  3    495 
924  478  655 
925  764  656 
926  653  409 
927  231  877 
928  840  352 
929  736  177 
930  510  316 
931  853  818 
932  966  627 
933  606  538 
934  115  93  
935  779  92  
936  103  516 
937  34   13  
938  608  234 
939  112  985 
940  557  223 
941  315  540 
942  299  243 
943  513  89  
944  24   186 
945  354  641 
946  446  241 
947  967  593 
948  367  849 
949  902  196 
950  581  523 
951  752  643 
952  129  626 
953  830  298 
954  998  748 
955  507  195 
956  947  763 
957  324  794 
958  612  245 
959  644  200 
960  757  577 
961  759  23  
962  812  902 
963  692  220 
964  187  540 
965  97   926 
966  574  152 
967  516  17  
968  350  459 
969  818  809 
970  783  549 
971  36   894 
972  573  49  
973  774  964 
974  222  784 
975  432  338 
976  840  559 
977  639  161 
978  948  698 
979  549  137 
980  166  715 
981  171  959 
982  466  113 
983  858  927 
984  106  152 
985  468  487 
986  235  308 
987  92   475 
988  373  430 
989  555  866 
990  534  17  
991  917  407 
992  774  512 
993  442  105 
994  324  117 
995  326  687 
996  241  657 
997  63   936 
998  295  154 
999  168  823 
1000 500  628 
1001 592  666 
1002 811  184 
1003 43   210 
1004 670  13  
1005 820  954 
1006 587  913 
1007 570  784 
1008 492  490 
1009 494  360 
1010 298  63  
1011 708  998 
1012 747  904 
1013 256  583 
1014 41   352 
1015 424  376 
1016 186  891 
1017 285  629 
1018 677  339 
1019 255  699 
1020 813  787 
1021 596  613 
1022 635  457 
1023 174  695 
1024 965  616 
1025 515  665 
1026 681  161 
1027 863  73  
1028 434  115 
1029 445  337 
1030 122  462 
1031 657  73  
1032 205  773 
1033 500  327 
1034 525  210 
1035 945  470 
1036 670  901 
1037 225  56  
1038 407  650 
1039 488  662 
1040 875  34  
1041 884  796 
1042 651  405 
1043 261  678 
1044 595  80  
1045 941  196 
1046 482  683 
1047 466  228 
1048 874  249 
1049 749  807 
1050 920  449 
1051 560  856 
1052 998  14  
1053 138  258 
1054 304  102 
1055 864  46  
1056 926  330 
1057 241  526 
1058 591  346 
1059 483  601 
1060 416  398 
1061 932  590 
1062 402  689 
1063 441  45  
1064 171  500 
1065 966  869 
1066 846  831 
1067 608  496 
1068 592  789 
1069 80   57  
1070 940  471 
1071 707  484 
1072 700  875 
1073 905  9   
1074 303  358 
1075 930  460 
1076 125  568 
1077 471  556 
1078 994  362 
1079 622  866 
1080 643  443 
1081 373  768 
1082 753  930 
1083 114  924 
1084 151  225 
1085 861  924 
1086 884  547 
1087 386  978 
1088 397  242 
1089 821  714 
1090 849  973 
1091 46   235 
1092 191  966 
1093 952  646 
1094 629  386 
1095 650  793 
1096 562  125 
1097 126  132 
1098 850  320 
1099 951  450 
1100 845  635 
1101 153  1   
1102 840  325 
1103 736  150 
1104 127  651 
1105 849  393 
1106 187  238 
1107 263  77  
1108 590  928 
1109 101  189 
1110 237  557 
1111 684  108 
1112 744  415 
1113 82   282 
1114 285  471 
1115 158  95  
1116 845  191 
1117 739  644 
1118 63   198 
1119 727  191 
1120 12   640 
1121 427  251 
1122 581  534 
1123 307  929 
1124 904  397 
1125 975  802 
1126 18   359 
1127 186  977 
1128 887  219 
1129 924  839 
1130 963  763 
1131 142  956 
1132 806  359 
1133 22   726 
1134 407  296 
1135 817  866 
1136 951  815 
1137 895  978 
1138 821  923 
1139 339  684 
1140 636  942 
1141 373  917 
1142 744  535 
1143 527  862 
1144 799  574 
1145 250  307 
1146 469  531 
1147 70   110 
1148 5    977 
1149 743  333 
1150 88   313 
1151 535  65  
1152 754  850 
1153 97   61  
1154 480  163 
1155 314  839 
1156 323  559 
1157 897  716 
1158 712  733 
1159 675  467 
1160 440  896 
1161 366  514 
1162 956  472 
1163 515  331 
1164 384  199 
1165 586  988 
1166 328  932 
1167 833  921 
1168 634  960 
1169 708  463 
1170 360  341 
1171 537  161 
1172 560  78  
1173 445  708 
1174 622  508 
1175 931  505 
1176 313  50  
1177 315  908 
1178 691  773 
1179 375  820 
1180 329  964 
1181 458  672 
1182 347  287 
1183 114  62  
1184 919  813 
1185 384  771 
1186 199  379 
1187 42   434 
1188 731  290 
1189 535  850 
1190 807  969 
1191 498  899 
1192 152  573 
1193 131  393 
1194 133  315 
1195 271  429 
1196 114  706 
1197 333  932 
1198 815  288 
1199 529  383 
1200 658  29  
1201 351  768 
1202 653  790 
1203 856  478 
1204 148  930 
1205 420  143 
1206 120  601 
1207 196  982 
1208 982  541 
1209 156  560 
1210 239  705 
1211 746  663 
1212 732  966 
1213 1    482 
1214 245  321 
1215 328  147 
1216 496  985 
1217 443  162 
1218 16   816 
1219 145  988 
1220 131  513 
1221 599  628 
1222 447  763 
1223 267  65  
1224 163  176 
1225 880  654 
1226 315  349 
1227 91   434 
1228 628  75  
1229 741  340 
1230 600  684 
1231 436  797 
1232 673  830 
1233 855  18  
1234 403  61  
1235 426  102 
1236 158  433 
1237 91   894 
1238 206  605 
1239 462  971 
1240 109  110 
1241 863  261 
1242 5    435 
1243 759  468 
1244 192  582 
1245 501  452 
1246 708  630 
1247 284  110 
1248 969  818 
1249 164  532 
1250 198  319 
1251 327  217 
1252 922  523 
1253 50   382 
1254 912  508 
1255 273  182 
1256 826  938 
1257 819  95  
1258 586  382 
1259 634  98  
1260 528  315 
1261 606  4   
1262 809  294 
1263 961  611 
1264 945  294 
1265 954  476 
1266 707  764 
1267 732  857 
1268 605  197 
1269 628  282 
1270 667  942 
1271 651  485 
1272 185  635 
1273 955  107 
1274 791  449 
1275 270  828 
1276 950  162 
1277 684  393 
1278 172  181 
1279 45   321 
1280 384  941 
1281 637  24  
1282 33   394 
1283 824  491 
1284 254  600 
1285 609  575 
1286 985  600 
1287 807  179 
1288 691  539 
1289 956  589 
1290 481  555 
1291 317  389 
1292 86   194 
1293 570  535 
1294 565  272 
1295 431  227 
1296 251  495 
1297 539  234 
1298 571  701 
1299 255  444 
1300 351  638 
1301 102  432 
1302 277  284 
1303 775  621 
1304 634  489 
1305 837  180 
1306 620  196 
1307 897  743 
1308 399  873 
1309 991  959 
1310 244  208 
1311 304  293 
1312 880  1000
1313 96   71  
1314 866  695 
1315 405  41  
1316 6    980 
1317 559  648 
1318 693  646 
1319 859  674 
1320 328  905 
1321 789  4   
1322 872  582 
1323 196  128 
1324 214  484 
1325 200  338 
1326 449  725 
1327 739  532 
1328 77   997 
1329 100  90  
1330 229  826 
1331 939  103 
1332 270  199 
1333 950  613 
1334 401  261 
1335 735  262 
1336 313  465 
1337 66   235 
1338 1000 373 
1339 398  218 
1340 329  619 
1341 442  842 
1342 497  301 
1343 596  559 
1344 649  184 
1345 160  475 
1346 808  471 
1347 471  785 
1348 464  961 
1349 579  584 
1350 731  901 
1351 148  911 
1352 420  148 
1353 173  588 
1354 9    571 
1355 191  775 
1356 966  139 
1357 539  103 
1358 170  526 
1359 871  266 
1360 50   104 
1361 165  777 
1362 469  643 
1363 607  429 
1364 743  221 
1365 563  779 
1366 957  543 
1367 943  604 
1368 770  482 
1369 885  301 
1370 237  750 
1371 827  108 
1372 96   210 
1373 811  547 
1374 43   445 
1375 889  923 
1376 861  325 
1377 614  7   
1378 483  515 
1379 928  884 
1380 533  35  
1381 826  31  
1382 457  656 
1383 120  438 
1384 362  543 
1385 16   657 
1386 996  210 
1387 972  954 
1388 38   828 
1389 347  399 
1390 151  759 
1391 623  243 
1392 510  984 
1393 259  590 
1394 955  829 
1395 630  725 
1396 833  373 
1397 298  232 
1398 865  836 
1399 491  358 
1400 991  29  
1401 938  939 
1402 244  694 
1403 105  796 
1404 882  764 
1405 965  515 
1406 877  311 
1407 697  561 
1408 72   733 
1409 286  736 
1410 500  156 
1411 308  795 
1412 559  354 
1413 430  818 
1414 838  223 
1415 476  52  
1416 439  160 
1417 296  690 
1418 847  39  
1419 231  770 
1420 609  86  
1421 789  346 
1422 611  672 
1423 595  39  
1424 775  859 
1425 814  775 
1426 284  790 
1427 927  44  
1428 567  213 
1429 590  878 
1430 55   481 
1431 920  278 
1432 152  128 
1433 387  827 
1434 534  369 
1435 149  221 
1436 760  964 
1437 449  627 
1438 806  657 
1439 241  497 
1440 384  962 
1441 771  750 
1442 485  230 
1443 358  636 
1444 17   800 
1445 803  705 
1446 570  60  
1447 953  172 
1448 402  730 
1449 104  966 
1450 897  437 
1451 103  921 
1452 198  643 
1453 901  470 
1454 285  849 
1455 868  238 
1456 651  576 
1457 658  348 
1458 877  104 
1459 178  953 
1460 88   775 
1461 948  181 
1462 127  494 
1463 97   591 
1464 830  177 
1465 313  747 
1466 283  463 
1467 917  900 
1468 363  42  
1469 326  178 
1470 628  982 
1471 439  369 
1472 630  108 
1473 637  768 
1474 549  218 
1475 791  141 
1476 823  284 
1477 438  826 
1478 408  505 
1479 742  340 
1480 387  744 
1481 177  12  
1482 569  770 
1483 343  763 
1484 970  835 
1485 119  912 
1486 612  823 
1487 884  60  
1488 386  419 
1489 222  703 
1490 266  221 
1491 720  656 
1492 275  617 
1493 722  66  
1494 443  431 
1495 618  115 
1496 964  27  
1497 505  858 
1498 9    390 
1499 154  601 
1500 251  727 
1501 751  162 
1502 578  564 
1503 444  930 
1504 910  623 
1505 949  139 
1506 589  148 
1507 273  555 
1508 146  315 
1509 533  317 
1510 494  155 
1511 955  647 
1512 5    244 
1513 976  118 
1514 155  523 
1515 717  129 
1516 161  271 
1517 811  469 
1518 324  860 
1519 790  717 
1520 778  633 
1521 222  402 
1522 134  868 
1523 964  915 
1524 969  527 
1525 360  663 
1526 655  258 
1527 701  192 
1528 279  46  
1529 528  634 
1530 161  843 
1531 244  908 
1532 101  773 
1533 389  715 
1534 813  680 
1535 776  455 
1536 884  707 
1537 305  994 
1538 231  100 
1539 185  692 
1540 37   443 
1541 452  998 
1542 680  129 
1543 516  559 
1544 719  32  
1545 371  206 
1546 318  971 
1547 827  67  
1548 59   957 
1549 183  276 
1550 24   387 
1551 280  45  
1552 586  521 
1553 450  276 
1554 55   719 
1555 629  742 
1556 841  558 
1557 20   149 
1558 938  368 
1559 589  9   
1560 354  474 
1561 778  424 
1562 12   992 
1563 734  937 
1564 111  426 
1565 510  957 
1566 441  666 
1567 646  355 
1568 503  172 
1569 754  170 
1570 203  176 
1571 943  340 
1572 530  347 
1573 749  101 
1574 795  837 
1575 873  665 
1576 13   768 
1577 382  737 
1578 398  842 
1579 308  716 
1580 956  688 
1581 423  653 
1582 49   581 
1583 563  255 
1584 397  131 
1585 97   849 
1586 235  47  
1587 399  942 
1588 952  565 
1589 258  122 
1590 41   890 
1591 518  772 
1592 244  791 
1593 931  833 
1594 163  299 
1595 509  437 
1596 776  626 
1597 68   468 
1598 128  513 
1599 296  727 
1600 409  24  
1601 35   114 
1602 842  334 
1603 275  963 
1604 860  126 
1605 168  544 
1606 225  546 
1607 278  532 
1608 488  172 
1609 665  410 
1610 243  130 
1611 162  164 
1612 185  253 
1613 595  582 
1614 134  198 
1615 53   62  
1616 885  785 
1617 525  864 
1618 158  490 
1619 368  270 
1620 972  10  
1621 384  547 
1622 61   741 
1623 997  425 
1624 912  869 
1625 485  645 
1626 70   637 
1627 863  432 
1628 132  80  
1629 556  600 
1630 298  376 
1631 498  611 
1632 152  989 
1633 890  353 
1634 915  376 
1635 493  668 
1636 359  311 
1637 98   63  
1638 852  148 
1639 264  405 
1640 886  447 
1641 611  884 
1642 196  758 
1643 184  810 
1644 41   999 
1645 75   640 
1646 59   7   
1647 903  272 
1648 617  529 
1649 234  99  
1650 236  917 
1651 384  310 
1652 847  215 
1653 637  703 
1654 49   190 
1655 376  863 
1656 641  451 
1657 613  263 
1658 548  438 
1659 34   44  
1660 917  231 
1661 186  339 
1662 389  350 
1663 543  381 
1664 121  894 
1665 919  962 
1666 974  283 
1667 349  790 
1668 794  901 
1669 584  497 
1670 893  345 
1671 623  48  
1672 259  911 
1673 708  850 
1674 602  253 
1675 731  403 
1676 489  540 
1677 830  453 
1678 62   83  
1679 530  385 
1680 198  531 
1681 299  668 
1682 617  425 
1683 442  912 
1684 423  631 
1685 674  531 
1686 658  492 
1687 17   508 
1688 238  594 
1689 999  549 
1690 655  297 
1691 307  87  
1692 459  816 
1693 44   866 
1694 740  647 
1695 60   293 
1696 839  205 
1697 57   749 
1698 645  404 
1699 140  220 
1700 836  740 
1701 211  145 
1702 965  792 
1703 206  404 
1704 614  561 
1705 178  333 
1706 487  469 
1707 805  816 
1708 992  793 
1709 120  964 
1710 295  631 
1711 645  872 
1712 585  111 
1713 788  724 
1714 440  954 
1715 223  977 
1716 315  266 
1717 598  971 
1718 243  92  
1719 766  136 
1720 141  795 
1721 519  458 
1722 388  600 
1723 759  961 
1724 927  801 
1725 998  510 
1726 214  329 
1727 108  836 
1728 924  600 
1729 391  629 
1730 836  380 
1731 47   520 
1732 877  809 
1733 5    4   
1734 759  261 
1735 618  583 
1736 263  716 
1737 496  155 
1738 583  872 
1739 454  804 
1740 221  551 
1741 43   767 
1742 479  499 
1743 299  521 
1744 873  700 
1745 910  91  
1746 472  67  
1747 442  807 
1748 619  557 
1749 545  962 
1750 160  288 
1751 531  275 
1752 183  540 
1753 826  989 
1754 231  304 
1755 143  590 
1756 279  158 
1757 491  220 
1758 4    407 
1759 832  48  
1760 562  489 
1761 663  101 
1762 559  436 
1763 213  744 
1764 838  149 
1765 642  416 
1766 400  827 
1767 637  517 
1768 653  224 
1769 600  298 
1770 72   835 
1771 337  289 
1772 980  445 
1773 763  807 
1774 512  587 
1775 286  362 
1776 270  879 
1777 55   443 
1778 461  960 
1779 228  989 
1780 931  224 
1781 290  232 
1782 186  41  
1783 926  421 
1784 746  161 
1785 741  362 
1786 17   862 
1787 803  267 
1788 586  665 
1789 363  988 
1790 773  431 
1791 21   330 
1792 194  878 
1793 987  87  
1794 823  709 
1795 973  216 
1796 426  60  
1797 564  378 
1798 857  496 
1799 105  635 
1800 68   521 
1801 536  219 
1802 77   709 
1803 635  807 
1804 377  539 
1805 213  389 
1806 967  796 
1807 455  72  
1808 19   180 
1809 810  105 
1810 900  235 
1811 644  321 
1812 402  84  
1813 999  655 
1814 946  537 
1815 284  80  
1816 551  434 
1817 293  398 
1818 613  757 
1819 892  428 
1820 378  38  
1821 350  64  
1822 922  577 
1823 730  418 
1824 347  926 
1825 739  432 
1826 723  535 
1827 889  259 
1828 623  770 
1829 176  577 
1830 330  246 
1831 710  29  
1832 235  191 
1833 295  729 
1834 140  970 
1835 172  315 
1836 444  432 
1837 884  966 
1838 24   706 
1839 33   628 
1840 72   206 
1841 660  471 
1842 572  811 
1843 21   27  
1844 120  218 
1845 408  127 
1846 396  992 
1847 45   391 
1848 889  763 
1849 391  671 
1850 285  440 
1851 252  60  
1852 609  613 
1853 789  873 
1854 683  410 
1855 927  543 
1856 371  519 
1857 85   381 
1858 878  58  
1859 682  225 
1860 366  270 
1861 373  562 
1862 262  581 
1863 190  939 
1864 356  439 
1865 319  525 
1866 469  240 
1867 914  31  
1868 118  153 
1869 166  259 
1870 701  150 
1871 62   496 
1872 378  941 
1873 394  950 
1874 2    391 
1875 645  447 
1876 1000 896 
1877 75   980 
1878 774  952 
1879 633  802 
1880 504  874 
1881 595  459 
1882 514  191 
1883 615  5   
1884 525  285 
1885 908  491 
1886 811  752 
1887 59   119 
1888 352  251 
1889 15   992 
1890 794  369 
1891 741  704 
1892 547  27  
1893 312  456 
1894 208  361 
1895 833  890 
1896 872  640 
1897 747  576 
1898 620  722 
1899 346  235 
1900 756  306 
1901 869  253 
1902 214  290 
1903 200  364 
1904 320  881 
1905 836  281 
1906 753  493 
1907 264  792 
1908 764  235 
1909 748  672 
1910 674  223 
1911 623  160 
1912 494  364 
1913 976  27  
1914 833  422 
1915 118  424 
1916 669  88  
1917 284  506 
1918 661  677 
1919 424  380 
1920 126  833 
1921 481  750 
1922 467  431 
1923 490  628 
1924 236  16  
1925 153  636 
1926 616  398 
1927 113  436 
1928 39   900 
1929 212  72  
1930 666  309 
1931 424  184 
1932 562  450 
1933 546  991 
1934 11   584 
1935 900  517 
1936 840  478 
1937 844  874 
1938 934  748 
1939 353  833 
1940 620  897 
1941 987  398 
1942 590  729 
1943 332  761 
1944 991  890 
1945 825  584 
1946 873  436 
1947 361  232 
1948 271  671 
1949 206  960 
1950 462  366 
1951 699  833 
1952 275  329 
1953 441  49  
1954 480  537 
1955 881  707 
1956 369  311 
1957 613  28  
1958 87   165 
1959 772  517 
1960 938  301 
1961 668  598 
1962 389  83  
1963 13   679 
1964 730  907 
1965 857  411 
1966 640  447 
1967 469  86  
1968 289  304 
1969 697  435 
1970 337  588 
1971 782  244 
1972 969  979 
1973 846  767 
1974 528  862 
1975 770  695 
1976 290  845 
1977 735  205 
1978 832  484 
1979 647  779 
1980 479  259 
1981 668  26  
1982 527  209 
1983 142  369 
1984 250  168 
1985 123  682 
1986 144  885 
1987 967  383 
1988 95   320 
1989 614  752 
1990 409  375 
1991 192  97  
1992 731  856 
1993 865  334 
1994 505  335 
1995 987  863 
1996 219  713 
1997 532  910 
1998 947  401 
1999 451  411 
2000 914  717 
2001 577  525 
2002 849  397 
2003 701  612 
2004 581  990 
2005 249  541 
2006 989  425 
2007 793  198 
2008 484  311 
2009 479  636 
2010 806  735 
2011 372  627 
2012 674  37  
2013 363  876 
2014 492  520 
2015 185  80  
2016 21   698 
2017 314  436 
2018 526  665 
2019 708  772 
2020 798  898 
2021 0    843 
2022 399  125 
2023 219  369 
2024 138  969 
2025 532  153 
2026 668  297 
2027 373  605 
2028 13   604 
2029 587  699 
2030 271  292 
2031 739  836 
2032 77   597 
2033 558  746 
2034 899  178 
2035 518  984 
2036 631  865 
2037 140  278 
2038 188  10  
2039 852  225 
2040 801  677 
2041 70   98  
2042 144  224 
2043 474  875 
2044 589  978 
2045 819  265 
2046 175  594 
2047 641  682 
2048 883  491 
2049 991  924 
2050 638  323 
2051 149  996 
2052 188  590 
2053 197  808 
2054 806  910 
2055 1    213 
2056 497  582 
2057 974  240 
2058 870  1   
2059 148  147 
2060 300  438 
2061 858  504 
2062 159  509 
2063 862  820 
2064 385  336 
2065 719  725 
2066 189  874 
2067 885  765 
2068 251  657 
2069 940  373 
2070 910  549 
2071 522  21  
2072 363  729 
2073 773  164 
2074 298  68  
2075 226  674 
2076 645  11  
2077 472  141 
2078 921  761 
2079 374  423 
2080 187  640 
2081 179  853 
2082 315  149 
2083 336  868 
2084 107  471 
2085 197  89  
2086 935  863 
2087 563  872 
2088 720  905 
2089 851  37  
2090 927  408 
2091 362  954 
2092 182  193 
2093 2    891 
2094 885  270 
2095 138  363 
2096 908  379 
2097 214  726 
2098 68   127 
2099 529  763 
2100 167  885 
2101 870  444 
2102 393  776 
2103 780  908 
2104 983  247 
2105 395  374 
2106 609  678 
2107 519  113 
2108 210  427 
2109 307  767 
2110 159  614 
2111 966  882 
2112 203  574 
2113 507  388 
2114 34   780 
2115 643  902 
2116 915  877 
2117 753  381 
2118 702  310 
2119 252  295 
2120 273  878 
2121 42   37  
2122 397  261 
2123 97   723 
2124 99   61  
2125 853  140 
2126 765  976 
2127 913  303 
2128 18   77  
2129 592  362 
2130 566  658 
2131 52   796 
2132 679  401 
2133 981  153 
2134 515  813 
2135 743  435 
2136 706  640 
2137 178  105 
2138 35   496 
2139 344  833 
2140 62   719 
2141 936  20  
2142 207  71  
2143 292  199 
2144 239  598 
2145 495  952 
2146 663  432 
2147 165  607 
2148 144  470 
2149 524  105 
2150 282  332 
2151 35   12  
2152 879  663 
2153 572  893 
2154 457  994 
2155 955  111 
2156 157  481 
2157 837  399 
2158 604  398 
2159 509  959 
2160 234  502 
2161 785  782 
2162 688  223 
2163 524  429 
2164 379  268 
2165 12   665 
2166 570  223 
2167 314  401 
2168 157  37  
2169 30   461 
2170 55   906 
2171 94   531 
2172 366  340 
2173 419  967 
2174 472  807 
2175 859  341 
2176 536  880 
2177 22   719 
2178 591  778 
2179 711  305 
2180 416  958 
2181 660  657 
2182 833  163 
2183 985  24  
2184 344  400 
2185 307  4   
2186 523  824 
2187 959  564 
2188 429  617 
2189 636  903 
2190 874  864 
2191 325  936 
2192 913  164 
2193 592  485 
2194 938  753 
2195 758  406 
2196 500  386 
2197 818  795 
2198 1000 586 
2199 52   615 
2200 684  880 
2201 866  15  
2202 481  491 
2203 688  935 
2204 174  950 
2205 729  430 
2206 44   501 
2207 46   95  
2208 837  176 
2209 987  719 
2210 182  367 
2211 274  794 
2212 311  9   
2213 585  184 
2214 336  586 
2215 543  243 
2216 439  794 
2217 704  393 
2218 379  605 
2219 254  783 
2220 558  327 
2221 872  586 
2222 300  467 
2223 807  412 
2224 129  221 
2225 154  696 
2226 696  615 
2227 200  342 
2228 693  326 
2229 716  681 
2230 81   375 
2231 526  521 
2232 203  804 
2233 544  760 
2234 721  432 
2235 972  199 
2236 47   253 
2237 86   349 
2238 236  202 
2239 653  749 
2240 602  759 
2241 344  27  
2242 383  154 
2243 814  448 
2244 468  132 
2245 876  9   
2246 32   904 
2247 362  387 
2248 205  887 
2249 244  995 
2250 689  554 
2251 945  384 
2252 304  520 
2253 654  344 
2254 804  333 
2255 331  533 
2256 174  61  
2257 144  112 
2258 206  466 
2259 969  100 
2260 828  441 
2261 922  293 
2262 48   250 
2263 138  372 
2264 818  466 
2265 698  780 
2266 278  696 
2267 589  486 
2268 612  601 
2269 10   157 
2270 992  271 
2271 833  781 
2272 807  273 
2273 664  33  
2274 39   235 
2275 846  201 
2276 371  747 
2277 191  60  
2278 470  237 
2279 643  941 
2280 661  316 
2281 682  973 
2282 539  844 
2283 105  452 
2284 52   197 
2285 271  101 
2286 612  413 
2287 981  832 
2288 593  312 
2289 646  322 
2290 155  357 
2291 337  634 
2292 88   640 
2293 450  827 
2294 782  258 
2295 752  615 
2296 164  765 
2297 187  820 
2298 761  671 
2299 527  155 
2300 36   646 
2301 919  349 
2302 386  996 
2303 478  134 
2304 49   614 
2305 653  866 
2306 316  468 
2307 279  192 
2308 763  421 
2309 477  71  
2310 41   859 
2311 334  752 
2312 64   404 
2313 857  729 
2314 619  51  
2315 1    278 
2316 755  531 
2317 335  895 
2318 289  531 
2319 738  590 
2320 724  909 
2321 671  902 
2322 943  749 
2323 837  426 
2324 71   998 
2325 883  228 
2326 387  831 
2327 855  346 
2328 177  343 
2329 341  720 
2330 444  811 
2331 785  801 
2332 882  487 
2333 725  811 
2334 111  152 
2335 828  880 
2336 717  8   
2337 332  234 
2338 78   450 
2339 327  289 
2340 366  441 
2341 562  858 
2342 463  737 
2343 156  143 
2344 502  777 
2345 322  163 
2346 748  576 
2347 289  411 
2348 787  132 
2349 734  759 
2350 773  953 
2351 646  441 
2352 49   855 
2353 856  353 
2354 263  907 
2355 434  267 
2356 397  405 
2357 731  547 
2358 87   692 
2359 230  624 
2360 527  876 
2361 536  721 
2362 813  559 
2363 531  470 
2364 593  881 
2365 153  924 
2366 10   831 
2367 953  965 
2368 849  884 
2369 611  917 
2370 171  768 
2371 44   530 
2372 166  670 
2373 406  233 
2374 482  579 
2375 740  887 
2376 323  605 
2377 562  34  
2378 366  588 
2379 474  757 
2380 538  954 
2381 386  447 
2382 33   562 
2383 662  363 
2384 980  634 
2385 512  640 
2386 399  468 
2387 823  988 
2388 2    638 
2389 703  698 
2390 48   480 
2391 945  886 
2392 530  796 
2393 11   244 
2394 237  980 
2395 608  168 
2396 772  993 
2397 479  939 
2398 693  353 
2399 54   293 
2400 702  497 
2401 974  378 
2402 794  996 
2403 483  317 
2404 342  480 
2405 976  106 
2406 298  906 
2407 321  315 
2408 330  571 
2409 468  685 
2410 325  740 
2411 195  572 
2412 972  220 
2413 22   703 
2414 303  66  
2415 877  217 
2416 833  83  
2417 464  986 
2418 563  374 
2419 895  949 
2420 113  453 
2421 717  705 
2422 558  575 
2423 724  291 
2424 959  644 
2425 853  385 
2426 288  455 
2427 622  582 
2428 415  698 
2429 878  556 
2430 184  536 
2431 719  488 
2432 297  287 
2433 170  535 
2434 654  381 
2435 993  375 
2436 211  174 
2437 70   151 
2438 568  621 
2439 771  176 
2440 554  576 
2441 370  885 
2442 10   674 
2443 275  826 
2444 427  535 
2445 745  528 
2446 984  571 
2447 760  34  
2448 430  584 
2449 31   447 
2450 822  478 
2451 326  745 
2452 1    120 
2453 667  687 
2454 335  597 
2455 713  317 
2456 471  21  
2457 185  884 
2458 208  307 
2459 362  548 
2460 777  937 
2461 622  341 
2462 788  47  
2463 848  498 
2464 149  499 
2465 543  711 
2466 746  465 
2467 308  148 
2468 933  679 
2469 769  654 
2470 720  75  
2471 282  666 
2472 579  128 
2473 948  75  
2474 694  627 
2475 881  88  
2476 701  429 
2477 173  788 
2478 657  975 
2479 878  383 
2480 751  759 
2481 848  830 
2482 151  146 
2483 460  515 
2484 303  983 
2485 658  66  
2486 861  585 
2487 607  101 
2488 365  634 
2489 499  952 
2490 706  342 
2491 434  53  
2492 911  517 
2493 482  809 
2494 770  810 
2495 322  881 
2496 417  735 
2497 343  601 
2498 737  918 
2499 511  263 
2500 331  741 
2501 6    651 
2502 577  638 
2503 616  900 
2504 266  959 
2505 676  102 
2506 337  258 
2507 104  531 
2508 936  922 
2509 295  393 
2510 832  731 
2511 318  634 
2512 48   74  
2513 110  504 
2514 746  128 
2515 603  265 
2516 158  18  
2517 716  1000
2518 310  889 
2519 665  414 
2520 77   162 
2521 354  809 
2522 688  9   
2523 418  278 
2524 833  701 
2525 632  342 
2526 226  606 
2527 484  922 
2528 401  442 
2529 426  31  
2530 707  418 
2531 656  868 
2532 677  582 
2533 100  857 
2534 264  93  
2535 388  486 
2536 835  407 
2537 321  13  
2538 821  840 
2539 703  404 
2540 929  703 
2541 325  990 
2542 87   659 
2543 825  510 
2544 640  933 
2545 435  291 
2546 264  409 
2547 174  892 
2548 900  270 
2549 616  691 
2550 743  286 
2551 49   758 
2552 178  466 
2553 88   364 
2554 782  750 
2555 749  538 
2556 309  957 
2557 258  461 
2558 712  656 
2559 675  356 
2560 202  702 
2561 797  777 
2562 580  431 
2563 1    134 
2564 755  643 
2565 3    560 
2566 372  241 
2567 28   901 
2568 432  6   
2569 729  816 
2570 150  400 
2571 30   170 
2572 286  48  
2573 180  595 
2574 272  622 
2575 348  281 
2576 78   182 
2577 59   711 
2578 924  705 
2579 82   732 
2580 414  807 
2581 54   350 
2582 63   4   
2583 928  627 
2584 381  417 
2585 863  621 
2586 946  875 
2587 925  90  
2588 88   639 
2589 927  764 
2590 821  25  
2591 777  195 
2592 48   513 
2593 855  782 
2594 251  10  
2595 507  228 
2596 366  297 
2597 773  969 
2598 812  865 
2599 925  670 
2600 321  922 
2601 411  24  
2602 268  647 
2603 14   423 
2604 247  796 
2605 717  732 
2606 445  505 
2607 705  173 
2608 795  47  
2609 50   90  
2610 880  149 
2611 679  753 
2612 993  362 
2613 762  153 
2614 836  736 
2615 377  253 
2616 990  361 
2617 644  751 
2618 478  413 
2619 614  565 
2620 729  449 
2621 586  90  
2622 58   659 
2623 171  912 
2624 505  658 
2625 590  685 
2626 735  588 
2627 809  458 
2628 991  982 
2629 131  722 
2630 205  753 
2631 228  598 
2632 283  959 
2633 984  544 
2634 624  455 
2635 220  385 
2636 974  46  
2637 483  753 
2638 102  933 
2639 395  263 
2640 402  537 
2641 828  567 
2642 263  260 
2643 157  257 
2644 521  550 
2645 329  902 
2646 626  148 
2647 958  815 
2648 467  784 
2649 319  787 
2650 123  242 
2651 160  888 
2652 838  769 
2653 734  950 
2654 111  413 
2655 946  670 
2656 104  197 
2657 694  660 
2658 346  782 
2659 971  305 
2660 32   17  
2661 57   962 
2662 557  885 
2663 230  819 
2664 610  949 
2665 38   426 
2666 278  389 
2667 619  545 
2668 875  443 
2669 485  955 
2670 877  361 
2671 134  1000
2672 653  856 
2673 448  111 
2674 178  184 
2675 466  383 
2676 874  512 
2677 154  32  
2678 357  743 
2679 714  56  
2680 75   622 
2681 511  354 
2682 213  756 
2683 365  985 
2684 130  200 
2685 757  503 
2686 372  11  
2687 743  4   
2688 653  284 
2689 358  98  
2690 305  118 
2691 766  383 
2692 44   277 
2693 337  293 
2694 323  854 
2695 41   733 
2696 760  914 
2697 693  418 
2698 250  956 
2699 806  835 
2700 589  337 
2701 877  598 
2702 750  668 
2703 879  504 
2704 683  293 
2705 976  809 
2706 39   86  
2707 698  285 
2708 472  918 
2709 446  398 
2710 697  460 
2711 312  942 
2712 900  215 
2713 298  129 
2714 821  883 
2715 127  476 
2716 293  394 
2717 627  572 
2718 622  769 
2719 786  125 
2720 889  263 
2721 273  368 
2722 999  847 
2723 766  558 
2724 32   616 
2725 952  681 
2726 991  520 
2727 961  557 
2728 177  254 
2729 440  792 
2730 679  927 
2731 956  352 
2732 262  433 
2733 430  907 
2734 513  405 
2735 128  949 
2736 653  401 
2737 840  360 
2738 713  254 
2739 492  939 
2740 978  10  
2741 941  406 
2742 747  459 
2743 323  963 
2744 567  124 
2745 258  554 
2746 560  246 
2747 650  376 
2748 392  584 
2749 945  812 
2750 901  585 
2751 135  257 
2752 474  127 
2753 884  390 
2754 595  570 
2755 604  948 
2756 385  736 
2757 445  784 
2758 281  823 
2759 401  330 
2760 809  597 
2761 20   404 
2762 705  644 
2763 119  46  
2764 269  467 
2765 52   997 
2766 640  745 
2767 329  696 
2768 716  60  
2769 126  990 
2770 204  232 
2771 333  972 
2772 354  221 
2773 377  676 
2774 909  276 
2775 766  793 
2776 985  86  
2777 627  905 
2778 286  968 
2779 69   472 
2780 938  695 
2781 246  224 
2782 1    586 
2783 951  716 
2784 547  451 
2785 549  177 
2786 953  792 
2787 127  901 
2788 918  110 
2789 904  552 
2790 853  523 
2791 25   414 
2792 931  94  
2793 624  476 
2794 804  208 
2795 343  322 
2796 382  444 
2797 225  359 
2798 903  156 
2799 465  432 
2800 963  433 
2801 257  428 
2802 93   680 
2803 745  154 
2804 104  814 
2805 581  804 
2806 567  497 
2807 0    121 
2808 881  586 
2809 846  184 
2810 777  919 
2811 447  87  
2812 530  841 
2813 622  419 
2814 306  917 
2815 110  247 
2816 954  857 
2817 926  131 
2818 513  814 
2819 218  92  
2820 128  332 
2821 972  837 
2822 919  846 
2823 635  901 
2824 365  108 
2825 985  359 
2826 911  11  
2827 551  16  
2828 590  462 
2829 316  967 
2830 657  517 
2831 431  502 
2832 878  325 
2833 915  445 
2834 908  658 
2835 195  979 
2836 511  821 
2837 278  510 
2838 151  868 
2839 464  911 
2840 503  550 
2841 143  625 
2842 457  474 
2843 724  376 
2844 355  503 
2845 943  222 
2846 16   343 
2847 970  107 
2848 983  592 
2849 713  84  
2850 150  339 
2851 325  279 
2852 885  495 
2853 230  156 
2854 223  877 
2855 760  119 
2856 633  495 
2857 266  57  
2858 238  469 
2859 521  438 
2860 122  741 
2861 530  572 
2862 380  173 
2863 315  826 
2864 686  799 
2865 679  114 
2866 755  504 
2867 114  464 
2868 167  350 
2869 868  57  
2870 47   900 
2871 912  787 
2872 199  201 
2873 646  264 
2874 256  682 
2875 498  597 
2876 890  307 
2877 401  60  
2878 578  148 
2879 36   728 
2880 144  873 
2881 554  812 
2882 944  960 
2883 330  223 
2884 369  691 
2885 726  593 
2886 214  960 
2887 970  798 
2888 22   475 
2889 331  840 
2890 442  215 
2891 822  690 
2892 552  434 
2893 628  325 
2894 681  722 
2895 349  356 
2896 909  962 
2897 895  297 
2898 879  692 
2899 874  84  
2900 860  7   
2901 55   295 
2902 537  92  
2903 521  871 
2904 516  843 
2905 461  76  
2906 306  891 
2907 684  100 
2908 135  284 
2909 428  298 
2910 232  187 
2911 910  930 
2912 68   961 
2913 414  237 
2914 271  876 
2915 243  349 
2916 42   311 
2917 171  89  
2918 798  902 
2919 256  505 
2920 152  698 
2921 975  810 
2922 613  909 
2923 802  332 
2924 327  491 
2925 147  897 
2926 617  475 
2927 213  113 
2928 506  493 
2929 914  52  
2930 222  481 
2931 563  295 
2932 535  661 
2933 869  983 
2934 943  432 
2935 680  664 
2936 364  161 
2937 71   149 
2938 640  842 
2939 308  1000
2940 218  874 
2941 268  61  
2942 72   902 
2943 74   252 
2944 226  403 
2945 115  921 
2946 223  903 
2947 732  143 
2948 326  696 
2949 393  647 
2950 210  304 
2951 323  83  
2952 196  227 
2953 452  373 
2954 332  995 
2955 719  721 
2956 168  836 
2957 149  420 
2958 133  879 
2959 66   258 
2960 458  680 
2961 912  957 
2962 533  383 
2963 418  502 
2964 78   647 
2965 62   8   
2966 9    924 
2967 228  272 
2968 237  478 
2969 350  775 
2970 463  556 
2971 820  483 
2972 550  188 
2973 649  221 
2974 485  865 
2975 40   836 
2976 238  555 
2977 812  782 
2978 805  83  
2979 201  855 
2980 58   808 
2981 657  100 
2982 117  124 
2983 624  96  
2984 843  462 
2985 202  474 
2986 679  860 
2987 405  295 
2988 852  112 
2989 681  264 
2990 847  447 
2991 386  180 
2992 153  167 
2993 983  591 
2994 602  778 
2995 383  767 
2996 865  84  
2997 775  707 
2998 323  640 
2999 180  831 
3000 876  556 
3001 422  852 
3002 477  407 
3003 140  713 
3004 550  772 
3005 375  605 
3006 183  346 
3007 738  798 
3008 902  127 
3009 962  394 
3010 634  863 
3011 9    333 
3012 177  903 
3013 290  382 
3014 186  703 
3015 744  253 
3016 449  263 
3017 488  315 
3018 345  342 
3019 317  264 
3020 886  934 
3021 851  929 
3022 284  102 
3023 782  285 
3024 152  912 
3025 599  500 
3026 297  6   
3027 942  705 
3028 672  421 
3029 773  745 
3030 72   736 
3031 344  837 
3032 496  640 
3033 973  914 
3034 279  225 
3035 987  886 
3036 809  302 
3037 304  418 
3038 306  272 
3039 956  186 
3040 850  341 
3041 617  614 
3042 559  271 
3043 836  896 
3044 370  558 
3045 803  166 
3046 736  131 
3047 609  395 
3048 120  168 
3049 346  438 
3050 498  349 
3051 11   152 
3052 59   884 
3053 573  754 
3054 426  401 
3055 582  608 
3056 128  11  
3057 551  209 
3058 242  139 
3059 830  280 
3060 643  887 
3061 901  51  
3062 299  353 
3063 52   47  
3064 398  87  
3065 317  413 
3066 21   869 
3067 194  379 
3068 450  657 
3069 805  265 
3070 710  510 
3071 18   828 
3072 13   247 
3073 417  982 
3074 640  879 
3075 112  190 
3076 204  614 
3077 575  625 
3078 808  144 
3079 593  850 
3080 923  353 
3081 245  495 
3082 37   467 
3083 671  660 
3084 629  58  
3085 461  664 
3086 546  734 
3087 352  201 
3088 760  182 
3089 884  31  
3090 379  593 
3091 148  132 
3092 203  668 
3093 807  408 
3094 99   991 
3095 996  343 
3096 48   399 
3097 848  358 
3098 977  6   
3099 172  800 
3100 725  593 
3101 531  776 
3102 803  623 
3103 932  841 
3104 402  940 
3105 955  696 
3106 939  95  
3107 159  856 
3108 648  955 
3109 60   679 
3110 657  563 
3111 765  690 
3112 894  782 
3113 661  631 
3114 403  347 
3115 728  504 
3116 670  511 
3117 91   604 
3118 591  923 
3119 485  844 
3120 951  855 
3121 169  11  
3122 259  393 
3123 632  983 
3124 579  560 
3125 821  531 
3126 143  571 
3127 279  75  
3128 482  181 
3129 913  21  
3130 108  159 
3131 182  690 
3132 334  617 
3133 961  769 
3134 984  478 
3135 89   766 
3136 382  853 
3137 940  633 
3138 831  993 
3139 609  209 
3140 427  628 
3141 62   997 
3142 763  872 
3143 452  961 
3144 823  242 
3145 936  782 
3146 883  415 
3147 516  522 
3148 140  806 
3149 811  539 
3150 647  177 
3151 315  328 
3152 135  93  
3153 1    89  
3154 718  254 
3155 349  617 
3156 577  782 
3157 524  275 
3158 600  729 
3159 508  206 
3160 312  417 
3161 404  497 
3162 962  423 
3163 798  193 
3164 293  903 
3165 76   281 
3166 629  707 
3167 742  802 
3168 122  683 
3169 357  256 
3170 938  351 
3171 260  359 
3172 631  510 
3173 707  22  
3174 963  928 
3175 142  839 
3176 806  478 
3177 167  144 
3178 109  385 
3179 609  857 
3180 510  960 
3181 639  817 
3182 256  740 
3183 369  173 
3184 735  243 
3185 744  862 
3186 486  599 
3187 322  492 
3188 433  601 
3189 89   399 
3190 329  408 
3191 458  252 
3192 946  232 
3193 279  220 
3194 874  582 
3195 69   248 
3196 793  724 
3197 675  664 
3198 534  205 
3199 790  187 
3200 942  102 
3201 407  745 
3202 248  228 
3203 762  354 
3204 529  835 
3205 515  240 
3206 33   953 
3207 162  287 
3208 14   804 
3209 720  797 
3210 58   476 
3211 512  521 
3212 793  16  
3213 394  77  
3214 306  689 
3215 647  42  
3216 225  583 
3217 370  207 
3218 243  359 
3219 335  703 
3220 146  700 
3221 595  619 
3222 7    937 
3223 321  418 
3224 263  451 
3225 950  283 
3226 994  907 
3227 431  658 
3228 454  529 
3229 825  99  
3230 603  210 
3231 181  872 
3232 790  846 
3233 679  217 
3234 649  30  
3235 333  541 
3236 363  486 
3237 660  762 
3238 455  14  
3239 593  681 
3240 946  475 
3241 203  462 
3242 978  840 
3243 749  439 
3244 532  547 
3245 691  450 
3246 407  958 
3247 264  440 
3248 932  222 
3249 588  552 
3250 58   559 
3251 918  409 
3252 775  512 
3253 745  687 
3254 491  791 
3255 885  203 
3256 392  966 
3257 11   812 
3258 336  611 
3259 529  952 
3260 234  78  
3261 197  858 
3262 220  493 
3263 625  992 
3264 662  367 
3265 519  434 
3266 860  172 
3267 399  464 
3268 295  291 
3269 355  524 
3270 945  874 
3271 638  969 
3272 573  866 
3273 262  955 
3274 437  431 
3275 349  883 
3276 243  496 
3277 817  513 
3278 510  830 
3279 556  874 
3280 427  294 
3281 694  760 
3282 687  609 
3283 929  937 
3284 431  295 
3285 825  232 
3286 57   854 
3287 753  126 
3288 792  526 
3289 591  902 
3290 635  126 
3291 672  228 
3292 801  448 
3293 109  875 
3294 26   417 
3295 579  599 
3296 411  249 
3297 217  314 
3298 807  639 
3299 9    518 
3300 286  774 
3301 325  804 
3302 170  531 
3303 64   50  
3304 739  379 
3305 338  320 
3306 391  462 
3307 257  814 
3308 554  588 
3309 706  899 
3310 176  698 
3311 547  413 
3312 477  429 
3313 244  72  
3314 124  550 
3315 931  24  
3316 269  609 
3317 435  841 
3318 721  700 
3319 963  395 
3320 732  84  
3321 271  584 
3322 861  376 
3323 665  21  
3324 923  861 
3325 261  307 
3326 768  905 
3327 362  544 
3328 129  833 
3329 55   711 
3330 392  397 
3331 48   287 
3332 638  884 
3333 327  711 
3334 592  860 
3335 850  668 
3336 781  798 
3337 986  108 
3338 61   616 
3339 547  533 
3340 381  727 
3341 111  434 
3342 425  357 
3343 722  757 
3344 26   880 
3345 5    97  
3346 962  4   
3347 164  710 
3348 496  190 
3349 523  637 
3350 401  141 
3351 751  755 
3352 57   995 
3353 668  197 
3354 322  393 
3355 160  323 
3356 402  384 
3357 847  534 
3358 169  411 
3359 425  801 
3360 127  140 
3361 726  512 
3362 583  137 
3363 567  516 
3364 735  850 
3365 205  963 
3366 832  19  
3367 80   776 
3368 562  388 
3369 525  16  
3370 728  932 
3371 253  983 
3372 382  165 
3373 926  972 
3374 598  697 
3375 693  975 
3376 732  875 
3377 577  626 
3378 909  915 
3379 805  578 
3380 976  716 
3381 853  854 
3382 429  302 
3383 286  329 
3384 987  460 
3385 555  529 
3386 202  971 
3387 663  586 
3388 336  329 
3389 707  874 
3390 211  635 
3391 949  809 
3392 972  638 
3393 3    775 
3394 983  94  
3395 33   472 
3396 824  573 
3397 51   748 
3398 733  676 
3399 523  298 
3400 855  241 
3401 103  876 
3402 622  228 
3403 403  408 
3404 539  752 
3405 80   251 
3406 924  782 
3407 488  336 
3408 329  812 
3409 458  392 
3410 317  339 
3411 63   339 
3412 86   144 
3413 199  147 
3414 169  836 
3415 796  487 
3416 397  364 
3417 9    892 
3418 562  759 
3419 299  999 
3420 670  762 
3421 520  223 
3422 109  597 
3423 439  356 
3424 370  983 
3425 245  53  
3426 192  175 
3427 176  612 
3428 909  68  
3429 473  698 
3430 535  14  
3431 145  680 
3432 387  759 
3433 984  729 
3434 322  960 
3435 343  750 
3436 663  283 
3437 707  667 
3438 232  569 
3439 598  820 
3440 612  772 
3441 591  53  
3442 831  762 
3443 870  84  
3444 139  52  
3445 427  881 
3446 337  243 
3447 747  424 
3448 858  567 
3449 927  164 
3450 876  716 
3451 242  816 
3452 523  27  
3453 751  145 
3454 320  985 
3455 603  390 
3456 513  946 
3457 437  74  
3458 928  631 
3459 176  492 
3460 817  484 
3461 125  967 
3462 381  445 
3463 570  180 
3464 916  408 
3465 510  771 
3466 425  387 
3467 360  232 
3468 664  288 
3469 777  199 
3470 380  362 
3471 94   456 
3472 938  82  
3473 313  423 
3474 398  232 
3475 905  244 
3476 247  792 
3477 662  599 
3478 166  294 
3479 369  938 
3480 226  21  
3481 468  74  
3482 87   800 
3483 311  492 
3484 539  137 
3485 343  831 
3486 624  63  
3487 142  446 
3488 352  338 
3489 301  359 
3490 47   263 
3491 921  362 
3492 296  889 
3493 524  769 
3494 88   507 
3495 141  335 
3496 918  9   
3497 399  652 
3498 525  314 
3499 555  699 
3500 405  140 
3501 488  974 
3502 287  872 
3503 128  239 
3504 183  267 
3505 974  50  
3506 637  460 
3507 932  738 
3508 233  943 
3509 362  717 
3510 881  619 
3511 129  868 
3512 385  402 
3513 431  595 
3514 534  628 
3515 389  459 
3516 686  691 
3517 467  788 
3518 817  657 
3519 801  116 
3520 160  892 
3521 510  910 
3522 5    12  
3523 639  891 
3524 985  320 
3525 434  454 
3526 717  777 
3527 701  388 
3528 920  725 
3529 544  321 
3530 318  172 
3531 792  702 
3532 633  528 
3533 868  489 
3534 423  736 
3535 762  884 
3536 47   84  
3537 31   691 
3538 771  264 
3539 192  969 
3540 139  722 
3541 840  805 
3542 819  20  
3543 74   485 
3544 44   717 
3545 83   273 
3546 378  863 
3547 16   438 
3548 892  725 
3549 348  891 
3550 735  889 
3551 518  785 
3552 387  273 
3553 652  355 
3554 945  495 
3555 126  288 
3556 151  329 
3557 45   838 
3558 391  350 
3559 614  420 
3560 374  941 
3561 789  296 
3562 720  855 
3563 404  778 
3564 528  78  
3565 606  667 
3566 991  839 
3567 945  939 
3568 968  20  
3569 375  519 
3570 181  378 
3571 63   890 
3572 485  212 
3573 160  587 
3574 842  791 
3575 609  736 
3576 42   675 
3577 955  476 
3578 869  399 
3579 959  13  
3580 871  753 
3581 431  740 
3582 34   846 
3583 539  791 
3584 96   763 
3585 246  685 
3586 389  176 
3587 329  823 
3588 942  835 
3589 891  169 
3590 319  640 
3591 621  256 
3592 494  414 
3593 856  687 
3594 503  340 
3595 754  306 
3596 558  642 
3597 890  338 
3598 32   160 
3599 182  918 
3600 809  936 
3601 682  422 
3602 924  495 
3603 598  365 
3604 718  870 
3605 282  202 
3606 88   149 
3607 383  486 
3608 443  949 
3609 581  359 
3610 899  486 
3611 477  238 
3612 714  427 
3613 698  564 
3614 760  357 
3615 707  702 
3616 24   714 
3617 10   421 
3618 625  990 
3619 44   132 
3620 452  225 
3621 742  198 
3622 85   705 
3623 751  380 
3624 661  100 
3625 121  873 
3626 746  284 
3627 785  968 
3628 181  207 
3629 868  783 
3630 824  429 
3631 932  792 
3632 960  829 
3633 501  723 
3634 270  318 
3635 473  434 
3636 159  681 
3637 498  807 
3638 982  253 
3639 87   475 
3640 643  689 
3641 924  190 
3642 172  699 
3643 601  991 
3644 15   159 
3645 753  180 
3646 347  679 
3647 619  719 
3648 951  772 
3649 614  966 
3650 192  787 
3651 729  44  
3652 97   938 
3653 943  81  
3654 784  582 
3655 106  712 
3656 175  59  
3657 772  175 
3658 938  691 
3659 818  989 
3660 433  313 
3661 700  473 
3662 739  293 
3663 903  724 
3664 144  195 
3665 914  475 
3666 628  619 
3667 634  311 
3668 466  101 
3669 399  683 
3670 55   213 
3671 809  465 
3672 184  930 
3673 871  151 
3674 956  503 
3675 119  823 
3676 617  681 
3677 769  156 
3678 718  169 
3679 423  375 
3680 704  503 
3681 372  365 
3682 953  472 
3683 58   60  
3684 298  751 
3685 157  312 
3686 67   422 
3687 980  723 
3688 989  539 
3689 64   884 
3690 871  603 
3691 767  666 
3692 142  694 
3693 626  877 
3694 243  391 
3695 741  140 
3696 817  628 
3697 86   979 
3698 750  442 
3699 275  128 
3700 282  684 
3701 749  147 
3702 532  463 
3703 200  848 
3704 682  92  
3705 631  147 
3706 887  5   
3707 193  57  
3708 956  642 
3709 633  635 
3710 8    242 
3711 891  959 
3712 213  167 
3713 787  872 
3714 259  451 
3715 5    747 
3716 173  394 
3717 362  453 
3718 205  825 
3719 424  160 
3720 260  590 
3721 500  331 
3722 357  718 
3723 417  809 
3724 619  132 
3725 838  166 
3726 206  268 
3727 651  385 
3728 932  446 
3729 978  428 
3730 747  361 
3731 71   819 
3732 491  567 
3733 871  776 
3734 283  803 
3735 366  944 
3736 850  5   
3737 245  878 
3738 506  942 
3739 160  544 
3740 289  908 
3741 487  993 
3742 72   492 
3743 814  634 
3744 307  544 
3745 318  480 
3746 507  441 
3747 750  193 
3748 787  57  
3749 381  674 
3750 669  933 
3751 627  551 
3752 166  97  
3753 530  252 
3754 431  7   
3755 479  267 
3756 105  962 
3757 179  71  
3758 292  302 
3759 889  366 
3760 190  581 
3761 340  50  
3762 529  461 
3763 326  5   
3764 409  383 
3765 28   407 
3766 268  390 
3767 240  853 
3768 558  803 
3769 761  149 
3770 23   172 
3771 136  528 
3772 671  512 
3773 466  267 
3774 726  597 
3775 120  779 
3776 532  918 
3777 887  962 
3778 728  889 
3779 866  731 
3780 227  783 
3781 77   453 
3782 215  347 
3783 254  167 
3784 715  947 
3785 81   787 
3786 157  478 
3787 489  502 
3788 159  368 
3789 452  142 
3790 270  743 
3791 756  92  
3792 998  177 
3793 765  154 
3794 712  26  
3795 659  757 
3796 195  53  
3797 603  336 
3798 474  100 
3799 347  158 
3800 974  297 
3801 446  198 
3802 812  339 
3803 579  104 
3804 217  815 
3805 55   999 
3806 830  315 
3807 869  287 
3808 85   352 
3809 48   639 
3810 848  22  
3811 716  21  
3812 167  463 
3813 914  48  
3814 381  823 
3815 19   300 
3816 895  966 
3817 99   203 
3818 265  573 
3819 454  27  
3820 537  821 
3821 117  499 
3822 961  149 
3823 202  83  
3824 465  899 
3825 623  890 
3826 644  797 
3827 192  244 
3828 595  310 
3829 145  595 
3830 887  855 
3831 50   976 
3832 714  315 
3833 232  622 
3834 746  1000
3835 702  887 
3836 3    619 
3837 289  874 
3838 111  943 
3839 849  370 
3840 902  260 
3841 270  626 
3842 860  150 
3843 346  284 
3844 475  944 
3845 673  957 
3846 251  681 
3847 638  775 
3848 124  409 
3849 20   204 
3850 59   558 
3851 557  355 
3852 158  310 
3853 986  479 
3854 114  50  
3855 393  71  
3856 824  285 
3857 109  493 
3858 56   135 
3859 7    612 
3860 88   536 
3861 30   671 
3862 927  663 
3863 678  795 
3864 164  661 
3865 934  369 
3866 971  367 
3867 406  958 
3868 740  32  
3869 468  739 
3870 431  473 
3871 666  866 
3872 539  528 
3873 541  162 
3874 818  617 
3875 670  478 
3876 571  931 
3877 22   633 
3878 522  593 
3879 174  676 
3880 123  268 
3881 718  929 
3882 771  306 
3883 900  470 
3884 759  155 
3885 902  652 
3886 743  566 
3887 653  778 
3888 450  583 
3889 53   666 
3890 992  698 
3891 390  799 
3892 505  45  
3893 931  662 
3894 126  494 
3895 571  623 
3896 970  112 
3897 336  860 
3898 444  271 
3899 637  595 
3900 692  660 
3901 927  384 
3902 784  146 
3903 512  925 
3904 987  445 
3905 846  368 
3906 629  864 
3907 996  677 
3908 262  176 
3909 958  584 
3910 358  664 
3911 849  239 
3912 224  668 
3913 724  729 
3914 821  321 
3915 362  614 
3916 971  604 
3917 295  30  
3918 703  877 
3919 122  714 
3920 968  922 
3921 493  161 
3922 848  432 
3923 322  11  
3924 393  204 
3925 531  946 
3926 623  280 
3927 492  366 
3928 768  447 
3929 53   427 
3930 701  495 
3931 136  57  
3932 915  305 
3933 274  475 
3934 991  122 
3935 403  517 
3936 518  638 
3937 640  1000
3938 972  405 
3939 905  468 
3940 725  59  
3941 504  945 
3942 667  126 
3943 526  439 
3944 72   740 
3945 16   475 
3946 115  567 
3947 244  849 
3948 207  79  
3949 689  964 
3950 552  475 
3951 476  19  
3952 3    389 
3953 448  628 
3954 609  399 
3955 789  131 
3956 519  286 
3957 106  387 
3958 567  50  
3959 99   854 
3960 585  375 
3961 290  77  
3962 797  698 
3963 232  324 
3964 38   518 
3965 114  152 
3966 635  582 
3967 833  639 
3968 466  684 
3969 473  376 
3970 256  274 
3971 445  994 
3972 341  817 
3973 431  691 
3974 223  189 
3975 156  234 
3976 66   104 
3977 142  941 
3978 442  971 
3979 958  51  
3980 100  799 
3981 264  27  
3982 252  690 
3983 683  776 
3984 976  286 
3985 5    300 
3986 616  309 
3987 53   560 
3988 982  375 
3989 394  996 
3990 689  693 
3991 27   10  
3992 908  913 
3993 269  73  
3994 714  832 
3995 308  529 
3996 979  348 
3997 469  514 
3998 236  275 
3999 607  300 
4000 183  820 
4001 524  848 
4002 503  807 
4003 932  253 
4004 457  219 
4005 81   743 
4006 62   866 
4007 514  205 
4008 182  359 
4009 463  378 
4010 818  343 
4011 767  136 
4012 993  219 
4013 135  228 
4014 836  887 
4015 414  421 
4016 896  420 
4017 769  170 
4018 395  456 
4019 201  393 
4020 992  396 
4021 833  904 
4022 851  451 
4023 516  967 
4024 869  171 
4025 306  967 
4026 246  897 
4027 414  865 
4028 621  732 
4029 699  578 
4030 812  739 
4031 498  912 
4032 673  476 
4033 85   208 
4034 938  40  
4035 424  686 
4036 412  407 
4037 91   592 
4038 165  249 
4039 248  673 
4040 174  649 
4041 621  32  
4042 531  200 
4043 921  740 
4044 900  499 
4045 577  154 
4046 939  543 
4047 812  807 
4048 321  836 
4049 268  325 
4050 307  409 
4051 217  283 
4052 187  639 
4053 277  753 
4054 869  803 
4055 235  907 
4056 913  9   
4057 108  155 
4058 606  174 
4059 274  709 
4060 387  510 
4061 117  99  
4062 945  440 
4063 818  902 
4064 984  418 
4065 322  729 
4066 857  852 
4067 435  490 
4068 382  857 
4069 165  829 
4070 59   278 
4071 573  144 
4072 649  608 
4073 467  61  
4074 794  222 
4075 939  987 
4076 524  971 
4077 547  442 
4078 692  689 
4079 888  412 
4080 300  250 
4081 67   513 
4082 629  139 
4083 996  642 
4084 599  615 
4085 59   978 
4086 903  199 
4087 979  805 
4088 232  510 
4089 271  681 
4090 898  453 
4091 997  905 
4092 305  455 
4093 185  153 
4094 134  34  
4095 989  678 
4096 9    340 
4097 318  302 
4098 786  516 
4099 73   861 
4100 449  318 
4101 527  303 
4102 68   704 
4103 677  766 
4104 234  744 
4105 843  714 
4106 8    363 
4107 651  707 
4108 160  166 
4109 125  514 
4110 787  3   
4111 630  545 
4112 494  457 
4113 298  220 
4114 798  641 
4115 226  810 
4116 853  255 
4117 297  45  
4118 924  94  
4119 193  204 
4120 456  906 
4121 571  787 
4122 700  757 
4123 829  471 
4124 739  73  
4125 460  606 
4126 340  4   
4127 312  541 
4128 5    518 
4129 819  78  
4130 503  713 
4131 692  960 
4132 35   479 
4133 678  311 
4134 74   59  
4135 60   122 
4136 173  309 
4137 936  33  
4138 991  709 
4139 615  857 
4140 712  520 
4141 698  615 
4142 995  623 
4143 499  473 
4144 282  369 
4145 328  239 
4146 111  748 
4147 828  708 
4148 701  562 
4149 595  51  
4150 498  306 
4151 546  484 
4152 103  457 
4153 57   273 
4154 241  493 
4155 935  363 
4156 533  444 
4157 789  802 
4158 404  256 
4159 738  906 
4160 411  548 
4161 267  649 
4162 507  12  
4163 878  109 
4164 949  462 
4165 310  664 
4166 190  994 
4167 561  766 
4168 446  328 
4169 711  324 
4170 109  242 
4171 752  266 
4172 0    729 
4173 978  836 
4174 959  539 
4175 869  921 
4176 161  970 
4177 537  835 
4178 779  778 
4179 587  41  
4180 368  225 
4181 352  742 
4182 709  726 
4183 598  427 
4184 822  799 
4185 930  977 
4186 257  597 
4187 630  120 
4188 690  133 
4189 625  600 
4190 662  807 
4191 862  302 
4192 550  635 
4193 239  462 
4194 774  591 
4195 149  946 
4196 776  644 
4197 31   50  
4198 453  492 
4199 310  111 
4200 718  280 
4201 63   621 
4202 245  586 
4203 379  584 
4204 533  141 
4205 275  629 
4206 722  54  
4207 7    90  
4208 286  23  
4209 436  672 
4210 862  874 
4211 537  251 
4212 521  734 
4213 742  140 
4214 534  664 
4215 444  950 
4216 356  61  
4217 981  558 
4218 877  653 
4219 171  128 
4220 337  664 
4221 217  834 
4222 203  819 
4223 703  102 
4224 687  621 
4225 9    78  
4226 929  941 
4227 721  323 
4228 543  926 
4229 857  131 
4230 449  0   
4231 963  666 
4232 520  301 
4233 393  457 
4234 877  209 
4235 722  958 
4236 706  475 
4237 565  404 
4238 715  11  
4239 235  942 
4240 705  130 
4241 573  139 
4242 121  52  
4243 896  744 
4244 1    436 
4245 914  545 
4246 849  729 
4247 791  282 
4248 542  644 
4249 897  867 
4250 332  640 
4251 719  52  
4252 629  182 
4253 25   88  
4254 673  708 
4255 85   968 
4256 124  546 
4257 140  831 
4258 110  629 
4259 276  463 
4260 940  982 
4261 603  692 
4262 914  997 
4263 845  847 
4264 577  805 
4265 137  656 
4266 229  506 
4267 586  573 
4268 579  332 
4269 994  877 
4270 380  88  
4271 532  77  
4272 643  952 
4273 470  222 
4274 424  994 
4275 781  794 
4276 820  832 
4277 15   486 
4278 294  155 
4279 215  767 
4280 125  637 
4281 471  593 
4282 247  14  
4283 104  296 
4284 604  717 
4285 339  604 
4286 145  235 
4287 735  154 
4288 938  952 
4289 472  42  
4290 326  468 
4291 40   253 
4292 402  508 
4293 810  257 
4294 26   304 
4295 796  812 
4296 148  771 
4297 865  503 
4298 830  599 
4299 122  264 
4300 221  452 
4301 502  471 
4302 898  49  
4303 432  387 
4304 736  209 
4305 148  327 
4306 496  826 
4307 957  899 
4308 816  232 
4309 186  464 
4310 557  191 
4311 6    207 
4312 633  425 
4313 38   764 
4314 77   90  
4315 570  45  
4316 95   522 
4317 759  563 
4318 134  178 
4319 427  68  
4320 579  441 
4321 664  89  
4322 406  850 
4323 265  50  
4324 760  625 
4325 52   125 
4326 91   913 
4327 882  956 
4328 868  255 
4329 227  241 
4330 248  992 
4331 393  295 
4332 229  547 
4333 912  849 
4334 213  430 
4335 734  512 
4336 826  727 
4337 282  617 
4338 973  565 
4339 23   274 
4340 173  641 
4341 890  373 
4342 544  507 
4343 198  348 
4344 661  872 
4345 576  908 
4346 4    173 
4347 938  815 
4348 991  401 
4349 43   577 
4350 207  422 
4351 424  425 
4352 322  536 
4353 89   259 
4354 421  324 
4355 294  722 
4356 377  120 
4357 697  941 
4358 365  743 
4359 349  226 
4360 630  29  
4361 923  191 
4362 766  589 
4363 840  719 
4364 918  502 
4365 443  978 
4366 528  348 
4367 2    47  
4368 456  470 
4369 737  59  
4370 790  47  
4371 905  971 
4372 771  942 
4373 794  469 
4374 137  974 
4375 176  932 
4376 328  127 
4377 383  987 
4378 436  717 
4379 138  115 
4380 341  584 
4381 103  601 
4382 825  795 
4383 698  11  
4384 737  487 
4385 172  854 
4386 220  586 
4387 863  597 
4388 812  277 
4389 964  488 
4390 655  889 
4391 346  899 
4392 971  444 
4393 989  939 
4394 76   24  
4395 498  838 
4396 599  172 
4397 237  43  
4398 311  804 
4399 223  232 
4400 27   405 
4401 246  283 
4402 707  279 
4403 781  516 
4404 449  59  
4405 216  346 
4406 458  315 
4407 919  410 
4408 497  279 
4409 506  47  
4410 667  338 
4411 388  337 
4412 501  232 
4413 692  135 
4414 148  997 
4415 166  346 
4416 279  25  
4417 657  169 
4418 987  942 
4419 857  866 
4420 624  51  
4421 308  942 
4422 331  583 
4423 446  788 
4424 884  764 
4425 614  557 
4426 358  239 
4427 487  457 
4428 842  168 
4429 127  934 
4430 233  343 
4431 309  522 
4432 664  567 
4433 242  543 
4434 380  625 
4435 417  505 
4436 419  343 
4437 836  172 
4438 31   450 
4439 345  847 
4440 24   436 
4441 522  415 
4442 826  105 
4443 360  411 
4444 752  909 
4445 180  686 
4446 217  566 
4447 807  323 
4448 627  127 
4449 258  924 
4450 228  146 
4451 500  607 
4452 163  521 
4453 320  680 
4454 211  789 
4455 158  268 
4456 368  612 
4457 190  189 
4458 907  535 
4459 674  246 
4460 312  43  
4461 955  771 
4462 501  569 
4463 948  120 
4464 434  450 
4465 904  254 
4466 553  665 
4467 735  161 
4468 502  12  
4469 790  585 
4470 995  925 
4471 485  931 
4472 628  793 
4473 990  896 
4474 425  968 
4475 448  103 
4476 127  151 
4477 784  784 
4478 452  678 
4479 415  306 
4480 184  656 
4481 168  245 
4482 848  663 
4483 447  877 
4484 486  973 
4485 571  425 
4486 550  698 
4487 700  115 
4488 331  752 
4489 554  728 
4490 478  752 
4491 983  525 
4492 210  37  
4493 858  713 
4494 860  111 
4495 721  704 
4496 225  529 
4497 345  724 
4498 287  729 
4499 750  676 
4500 593  159 
4501 812  447 
4502 964  258 
4503 565  785 
4504 90   179 
4505 99   675 
4506 431  736 
4507 696  847 
4508 237  209 
4509 73   816 
4510 555  244 
4511 1000 69  
4512 947  638 
4513 511  519 
4514 248  965 
4515 621  508 
4516 565  213 
4517 307  253 
4518 83   610 
4519 355  201 
4520 959  973 
4521 122  196 
4522 507  898 
4523 401  17  
4524 899  814 
4525 735  42  
4526 133  490 
4527 389  624 
4528 790  452 
4529 45   627 
4530 734  97  
4531 616  576 
4532 526  365 
4533 715  276 
4534 957  335 
4535 235  171 
4536 491  837 
4537 364  461 
4538 560  674 
4539 956  376 
4540 262  425 
4541 580  444 
4542 227  812 
4543 559  717 
4544 338  67  
4545 693  891 
4546 24   718 
4547 63   599 
4548 159  337 
4549 436  746 
4550 145  771 
4551 920  183 
4552 569  656 
4553 202  839 
4554 38   588 
4555 167  936 
4556 635  512 
4557 160  986 
4558 886  691 
4559 856  962 
4560 860  550 
4561 60   722 
4562 25   657 
4563 906  266 
4564 652  957 
4565 562  831 
4566 262  561 
4567 714  706 
4568 882  780 
4569 354  213 
4570 160  390 
4571 476  672 
4572 155  413 
4573 434  236 
4574 549  869 
4575 807  685 
4576 175  199 
4577 477  955 
4578 313  842 
4579 689  755 
4580 304  607 
4581 502  278 
4582 566  943 
4583 165  846 
4584 504  886 
4585 361  531 
4586 24   925 
4587 79   953 
4588 616  715 
4589 600  208 
4590 692  736 
4591 754  873 
4592 738  354 
4593 851  65  
4594 249  791 
4595 839  544 
4596 410  424 
4597 546  512 
4598 993  769 
4599 315  509 
4600 672  826 
4601 626  677 
4602 538  991 
4603 379  543 
4604 358  268 
4605 976  971 
4606 42   581 
4607 501  992 
4608 286  72  
4609 452  336 
4610 272  758 
4611 357  477 
4612 251  694 
4613 253  284 
4614 290  262 
4615 313  95  
4616 301  646 
4617 513  806 
4618 271  978 
4619 981  761 
4620 123  225 
4621 21   616 
4622 692  499 
4623 422  68  
4624 892  266 
4625 424  360 
4626 977  524 
4627 728  438 
4628 66   805 
4629 375  301 
4630 368  5   
4631 190  706 
4632 100  580 
4633 584  777 
4634 628  774 
4635 478  217 
4636 577  64  
4637 819  63  
4638 639  390 
4639 588  832 
4640 44   742 
4641 705  341 
4642 27   833 
4643 410  123 
4644 887  581 
4645 396  58  
4646 36   17  
4647 970  915 
4648 737  868 
4649 112  375 
4650 174  131 
4651 384  449 
4652 607  491 
4653 72   852 
4654 185  539 
4655 849  524 
4656 738  505 
4657 542  569 
4658 337  304 
4659 482  699 
4660 62   935 
4661 528  103 
4662 228  558 
4663 410  575 
4664 382  339 
4665 292  575 
4666 449  952 
4667 105  78  
4668 488  834 
4669 875  606 
4670 68   70  
4671 287  740 
4672 730  603 
4673 146  523 
4674 418  228 
4675 595  924 
4676 261  362 
4677 284  669 
4678 466  536 
4679 194  799 
4680 985  568 
4681 747  681 
4682 703  898 
4683 122  749 
4684 507  445 
4685 659  296 
4686 878  156 
4687 608  384 
4688 592  773 
4689 539  782 
4690 170  167 
4691 6    321 
4692 626  28  
4693 213  500 
4694 132  142 
4695 26   649 
4696 999  670 
4697 549  731 
4698 694  540 
4699 678  945 
4700 74   701 
4701 971  185 
4702 597  207 
4703 83   585 
4704 87   765 
4705 915  334 
4706 424  467 
4707 387  233 
4708 887  410 
4709 389  539 
4710 818  703 
4711 308  621 
4712 255  476 
4713 75   170 
4714 442  667 
4715 723  518 
4716 197  339 
4717 914  381 
4718 19   611 
4719 351  990 
4720 404  578 
4721 496  675 
4722 994  190 
4723 23   168 
4724 761  153 
4725 212  231 
4726 553  229 
4727 899  497 
4728 975  186 
4729 795  288 
4730 174  270 
4731 326  965 
4732 241  879 
4733 349  380 
4734 462  5   
4735 727  523 
4736 893  895 
4737 508  451 
4738 699  42  
4739 558  483 
4740 941  425 
4741 814  841 
4742 763  931 
4743 966  516 
4744 92   177 
4745 719  852 
4746 996  463 
4747 281  486 
4748 64   914 
4749 638  924 
4750 603  340 
4751 732  368 
4752 829  810 
4753 635  615 
4754 967  604 
4755 510  717 
4756 185  92  
4757 314  440 
4758 775  341 
4759 337  873 
4760 104  12  
4761 194  146 
4762 360  150 
4763 834  981 
4764 596  719 
4765 56   444 
4766 517  81  
4767 386  757 
4768 189  81  
4769 800  186 
4770 193  263 
4771 50   392 
4772 142  456 
4773 460  795 
4774 301  281 
4775 794  170 
4776 939  847 
4777 88   265 
4778 701  841 
4779 770  66  
4780 168  496 
4781 650  956 
4782 742  270 
4783 802  595 
4784 267  452 
4785 486  200 
4786 269  558 
4787 608  814 
4788 783  916 
4789 797  940 
4790 951  167 
4791 3    623 
4792 328  980 
4793 662  297 
4794 390  44  
4795 837  733 
4796 807  437 
4797 168  844 
4798 78   211 
4799 394  178 
4800 765  43  
4801 786  752 
4802 924  614 
4803 105  288 
4804 603  33  
4805 566  215 
4806 398  325 
4807 817  579 
4808 983  442 
4809 824  289 
4810 261  68  
4811 782  414 
4812 588  153 
4813 742  662 
4814 133  299 
4815 857  249 
4816 218  389 
4817 481  733 
4818 338  702 
4819 100  929 
4820 891  918 
4821 529  367 
4822 644  72  
4823 773  876 
4824 706  257 
4825 247  931 
4826 305  664 
4827 14   320 
4828 148  946 
4829 249  75  
4830 800  309 
4831 876  96  
4832 770  917 
4833 952  624 
4834 184  730 
4835 758  68  
4836 984  385 
4837 783  677 
4838 308  891 
4839 165  734 
4840 511  348 
4841 903  608 
4842 529  171 
4843 912  61  
4844 704  191 
4845 79   41  
4846 547  347 
4847 35   143 
4848 427  585 
4849 962  990 
4850 936  977 
4851 371  148 
4852 34   348 
4853 788  693 
4854 495  255 
4855 315  365 
4856 686  332 
4857 836  217 
4858 333  65  
4859 561  166 
4860 729  984 
4861 208  245 
4862 768  119 
4863 90   249 
4864 332  142 
4865 198  867 
4866 87   148 
4867 952  259 
4868 161  18  
4869 578  709 
4870 246  639 
4871 764  111 
4872 303  349 
4873 930  441 
4874 623  292 
4875 199  220 
4876 130  997 
4877 609  894 
4878 646  293 
4879 282  728 
4880 427  465 
4881 611  373 
4882 574  75  
4883 544  426 
4884 809  858 
4885 647  794 
4886 908  538 
4887 292  311 
4888 202  181 
4889 725  199 
4890 838  366 
4891 40   183 
4892 630  204 
4893 540  252 
4894 118  912 
4895 39   776 
4896 443  899 
4897 265  859 
4898 537  531 
4899 41   956 
4900 795  327 
4901 760  307 
4902 121  383 
4903 174  243 
4904 345  947 
4905 741  565 
4906 150  475 
4907 353  717 
4908 279  701 
4909 413  875 
4910 567  14  
4911 219  164 
4912 897  38  
4913 871  916 
4914 654  970 
4915 34   211 
4916 59   652 
4917 246  782 
4918 617  938 
4919 820  585 
4920 324  376 
4921 794  632 
4922 404  295 
4923 150  775 
4924 30   313 
4925 982  207 
4926 87   297 
4927 380  277 
4928 555  27  
4929 562  885 
4930 797  250 
4931 857  279 
4932 513  547 
4933 591  798 
4934 635  134 
4935 619  765 
4936 56   417 
4937 570  551 
4938 551  269 
4939 613  596 
4940 777  336 
4941 765  889 
4942 770  571 
4943 18   820 
4944 537  860 
4945 666  632 
4946 313  784 
4947 827  551 
4948 684  868 
4949 22   775 
4950 545  574 
4951 446  935 
4952 981  306 
4953 400  11  
4954 614  636 
4955 743  344 
4956 999  178 
4957 946  58  
4958 932  249 
4959 2    21  
4960 297  695 
4961 816  481 
4962 652  127 
4963 525  455 
4964 230  87  
4965 380  544 
4966 336  582 
4967 426  712 
4968 188  959 
4969 444  529 
4970 504  508 
4971 310  78  
4972 884  103 
4973 231  712 
4974 533  174 
4975 662  258 
4976 655  767 
4977 613  321 
4978 650  477 
4979 267  871 
4980 380  996 
4981 147  317 
4982 262  926 
4983 119  393 
4984 898  654 
4985 665  681 
4986 547  653 
4987 877  878 
4988 824  262 
4989 517  813 
4990 510  861 
4991 42   463 
4992 985  309 
4993 413  292 
4994 346  889 
4995 749  197 
4996 825  269 
4997 216  276 
4998 456  771 
4999 723  711 
5000 190  776 
5001 725  413 
5002 891  909 
5003 139  871 
5004 307  413 
5005 429  978 
5006 387  482 
5007 322  725 
5008 624  125 
5009 698  732 
5010 571  582 
5011 737  818 
5012 993  424 
5013 663  46  
5014 315  132 
5015 45   787 
5016 589  854 
5017 515  15  
5018 370  652 
5019 499  336 
5020 192  376 
5021 948  807 
5022 724  782 
5023 763  864 
5024 159  61  
5025 516  754 
5026 332  679 
5027 576  269 
5028 894  37  
5029 327  860 
5030 608  926 
5031 495  218 
5032 195  246 
5033 896  307 
5034 453  562 
5035 409  692 
5036 713  454 
5037 498  127 
5038 530  746 
5039 405  642 
5040 209  257 
5041 243  606 
5042 983  298 
5043 425  330 
5044 856  738 
5045 87   567 
5046 184  270 
5047 131  265 
5048 640  513 
5049 917  783 
5050 882  748 
5051 903  812 
5052 326  55  
5053 93   472 
5054 706  689 
5055 526  476 
5056 819  82  
5057 948  630 
5058 731  878 
5059 127  169 
5060 201  815 
5061 157  940 
5062 749  638 
5063 274  948 
5064 719  346 
5065 131  965 
5066 793  732 
5067 783  725 
5068 760  280 
5069 296  674 
5070 116  35  
5071 462  211 
5072 372  85  
5073 842  405 
5074 955  94  
5075 851  161 
5076 157  528 
5077 399  599 
5078 516  869 
5079 675  220 
5080 659  707 
5081 915  557 
5082 864  131 
5083 6    174 
5084 686  444 
5085 3    872 
5086 439  628 
5087 280  227 
5088 725  831 
5089 928  543 
5090 266  410 
5091 72   325 
5092 146  692 
5093 95   619 
5094 849  115 
5095 833  662 
5096 51   721 
5097 450  222 
5098 752  834 
5099 346  31  
5100 627  386 
5101 475  689 
5102 973  146 
5103 740  227 
5104 548  746 
5105 470  116 
5106 170  80  
5107 207  835 
5108 522  796 
5109 863  389 
5110 49   835 
5111 74   278 
5112 860  985 
5113 978  832 
5114 44   962 
5115 505  242 
5116 765  852 
5117 288  344 
5118 92   982 
5119 832  261 
5120 292  391 
5121 421  357 
5122 725  183 
5123 619  860 
5124 981  285 
5125 1    563 
5126 697  974 
5127 109  562 
5128 734  63  
5129 386  79  
5130 540  364 
5131 870  559 
5132 201  84  
5133 226  481 
5134 106  859 
5135 184  981 
5136 650  994 
5137 408  457 
5138 64   379 
5139 124  939 
5140 486  6   
5141 659  912 
5142 585  143 
5143 89   984 
5144 956  290 
5145 317  760 
5146 287  960 
5147 469  941 
5148 257  21  
5149 741  645 
5150 79   290 
5151 547  84  
5152 125  416 
5153 586  946 
5154 328  926 
5155 720  640 
5156 902  310 
5157 858  530 
5158 115  487 
5159 138  18  
5160 599  777 
5161 659  588 
5162 82   695 
5163 449  728 
5164 232  216 
5165 513  919 
5166 137  427 
5167 446  191 
5168 102  525 
5169 621  755 
5170 930  248 
5171 570  851 
5172 782  420 
5173 76   63  
5174 332  401 
5175 318  196 
5176 906  448 
5177 122  973 
5178 454  900 
5179 592  37  
5180 938  49  
5181 276  568 
5182 887  118 
5183 437  619 
5184 891  992 
5185 722  954 
5186 88   98  
5187 37   23  
5188 240  109 
5189 459  717 
5190 355  396 
5191 235  930 
5192 198  42  
5193 269  981 
5194 202  392 
5195 75   906 
5196 573  135 
5197 232  971 
5198 598  570 
5199 912  247 
5200 109  679 
5201 231  916 
5202 201  193 
5203 383  297 
5204 888  389 
5205 671  812 
5206 514  121 
5207 295  520 
5208 25   92  
5209 283  916 
5210 984  519 
5211 571  249 
5212 582  411 
5213 513  160 
5214 24   403 
5215 3    642 
5216 577  825 
5217 393  738 
5218 231  600 
5219 814  553 
5220 263  349 
5221 452  426 
5222 16   678 
5223 295  76  
5224 189  713 
5225 445  575 
5226 553  830 
5227 661  299 
5228 114  411 
5229 294  159 
5230 575  250 
5231 688  470 
5232 764  33  
5233 584  647 
5234 416  9   
5235 489  854 
5236 777  401 
5237 982  458 
5238 87   530 
5239 184  371 
5240 131  300 
5241 80   452 
5242 873  649 
5243 433  564 
5244 195  917 
5245 181  586 
5246 919  332 
5247 605  551 
5248 681  239 
5249 5    557 
5250 374  452 
5251 148  783 
5252 611  251 
5253 390  964 
5254 581  479 
5255 157  967 
5256 532  961 
5257 832  107 
5258 36   43  
5259 442  270 
5260 144  508 
5261 667  968 
5262 72   878 
5263 496  830 
5264 300  134 
5265 339  472 
5266 399  626 
5267 521  824 
5268 290  31  
5269 993  964 
5270 564  745 
5271 8    931 
5272 522  293 
5273 10   17  
5274 928  756 
5275 176  361 
5276 252  220 
5277 376  672 
5278 489  647 
5279 673  145 
5280 378  393 
5281 795  610 
5282 82   929 
5283 156  184 
5284 656  848 
5285 472  893 
5286 868  251 
5287 338  922 
5288 485  693 
5289 342  774 
5290 531  13  
5291 554  406 
5292 644  276 
5293 999  672 
5294 49   806 
5295 344  422 
5296 53   450 
5297 256  876 
5298 78   943 
5299 175  83  
5300 182  885 
5301 643  485 
5302 770  625 
5303 758  440 
5304 202  238 
5305 956  987 
5306 559  174 
5307 100  641 
5308 672  258 
5309 815  16  
5310 107  167 
5311 199  719 
5312 808  194 
5313 884  629 
5314 706  545 
5315 148  658 
5316 867  462 
5317 131  853 
5318 585  146 
5319 253  868 
5320 20   571 
5321 59   23  
5322 121  466 
5323 370  403 
5324 79   329 
5325 44   103 
5326 390  127 
5327 747  416 
5328 76   592 
5329 742  229 
5330 392  623 
5331 530  813 
5332 931  310 
5333 128  424 
5334 458  867 
5335 372  697 
5336 229  784 
5337 916  416 
5338 588  296 
5339 994  627 
5340 890  576 
5341 636  60  
5342 221  930 
5343 147  963 
5344 170  480 
5345 695  874 
5346 653  727 
5347 321  918 
5348 655  313 
5349 948  309 
5350 330  972 
5351 226  45  
5352 136  285 
5353 869  789 
5354 207  311 
5355 502  369 
5356 942  425 
5357 836  724 
5358 199  576 
5359 628  598 
5360 37   438 
5361 330  384 
5362 611  529 
5363 171  908 
5364 173  54  
5365 272  265 
5366 823  156 
5367 55   54  
5368 408  377 
5369 908  446 
5370 654  686 
5371 993  802 
5372 926  302 
5373 167  702 
5374 849  188 
5375 427  994 
5376 120  400 
5377 217  570 
5378 641  168 
5379 931  419 
5380 767  679 
5381 350  649 
5382 426  185 
5383 158  368 
5384 414  926 
5385 769  701 
5386 792  202 
5387 109  431 
5388 570  963 
5389 455  199 
5390 937  604 
5391 669  13  
5392 482  466 
5393 85   183 
5394 659  120 
5395 4    67  
5396 43   751 
5397 562  597 
5398 818  555 
5399 564  59  
5400 882  674 
5401 649  771 
5402 423  664 
5403 361  829 
5404 79   687 
5405 65   373 
5406 909  418 
5407 162  809 
5408 224  466 
5409 853  261 
5410 286  670 
5411 16   430 
5412 168  249 
5413 41   781 
5414 525  227 
5415 573  247 
5416 59   369 
5417 336  794 
5418 658  535 
5419 898  38  
5420 480  392 
5421 962  772 
5422 279  594 
5423 814  989 
5424 542  536 
5425 466  183 
5426 323  834 
5427 413  988 
5428 346  481 
5429 101  345 
5430 85   836 
5431 998  217 
5432 728  525 
5433 915  759 
5434 917  77  
5435 112  850 
5436 746  145 
5437 910  830 
5438 285  307 
5439 603  312 
5440 354  790 
5441 10   122 
5442 854  619 
5443 983  77  
5444 494  106 
5445 683  273 
5446 759  554 
5447 261  331 
5448 872  342 
5449 507  90  
5450 954  663 
5451 424  630 
5452 938  240 
5453 873  989 
5454 947  578 
5455 543  603 
5456 398  398 
5457 960  614 
5458 948  207 
5459 763  216 
5460 212  322 
5461 952  889 
5462 848  954 
5463 283  489 
5464 654  8   
5465 566  852 
5466 970  357 
5467 979  401 
5468 407  904 
5469 430  475 
5470 197  308 
5471 183  737 
5472 259  145 
5473 840  728 
5474 328  396 
5475 519  920 
5476 724  42  
5477 862  344 
5478 832  923 
5479 117  143 
5480 857  632 
5481 931  961 
5482 956  372 
5483 709  92  
5484 951  51  
5485 395  413 
5486 305  287 
5487 713  234 
5488 254  202 
5489 418  982 
5490 805  730 
5491 572  827 
5492 842  462 
5493 452  233 
5494 346  372 
5495 177  694 
5496 617  96  
5497 829  843 
5498 462  544 
5499 358  977 
5500 893  324 
5501 713  550 
5502 750  311 
5503 42   286 
5504 685  568 
5505 851  688 
5506 872  449 
5507 397  560 
5508 203  865 
5509 636  25  
5510 380  351 
5511 878  458 
5512 207  798 
5513 1000 308 
5514 587  340 
5515 423  578 
5516 711  239 
5517 914  15  
5518 667  333 
5519 344  86  
5520 235  988 
5521 182  741 
5522 735  923 
5523 772  151 
5524 424  61  
5525 486  687 
5526 633  818 
5527 596  162 
5528 965  787 
5529 628  627 
5530 40   508 
5531 3    240 
5532 183  890 
5533 176  748 
5534 141  290 
5535 842  177 
5536 736  404 
5537 457  149 
5538 81   545 
5539 23   834 
5540 763  657 
5541 429  103 
5542 184  938 
5543 477  379 
5544 228  679 
5545 373  442 
5546 728  679 
5547 864  423 
5548 20   683 
5549 183  318 
5550 167  661 
5551 612  924 
5552 870  476 
5553 780  812 
5554 506  803 
5555 266  166 
5556 358  256 
5557 21   432 
5558 464  243 
5559 851  385 
5560 814  759 
5561 30   38  
5562 90   853 
5563 436  889 
5564 399  375 
5565 996  273 
5566 11   343 
5567 802  54  
5568 684  182 
5569 449  355 
5570 285  29  
5571 329  917 
5572 243  399 
5573 333  305 
5574 303  489 
5575 711  540 
5576 547  583 
5577 109  458 
5578 734  967 
5579 955  762 
5580 798  852 
5581 807  926 
5582 288  124 
5583 200  856 
5584 147  819 
5585 783  198 
5586 571  964 
5587 511  825 
5588 352  926 
5589 739  26  
5590 356  554 
5591 31   710 
5592 711  96  
5593 914  130 
5594 476  567 
5595 95   207 
5596 616  510 
5597 501  100 
5598 821  593 
5599 397  105 
5600 496  300 
5601 888  542 
5602 938  558 
5603 260  566 
5604 767  447 
5605 970  927 
5606 149  730 
5607 331  715 
5608 405  320 
5609 495  600 
5610 442  340 
5611 248  155 
5612 748  280 
5613 785  290 
5614 988  303 
5615 810  887 
5616 819  767 
5617 542  573 
5618 182  188 
5619 154  917 
5620 818  396 
5621 435  996 
5622 663  532 
5623 774  355 
5624 578  864 
5625 716  982 
5626 547  948 
5627 146  519 
5628 452  455 
5629 265  252 
5630 569  430 
5631 82   983 
5632 195  268 
5633 935  248 
5634 739  971 
5635 596  832 
5636 100  183 
5637 467  652 
5638 289  448 
5639 976  390 
5640 132  138 
5641 247  209 
5642 731  748 
5643 78   885 
5644 364  34  
5645 274  310 
5646 576  602 
5647 389  519 
5648 359  281 
5649 970  334 
5650 550  66  
5651 596  260 
5652 896  960 
5653 607  132 
5654 259  180 
5655 95   432 
5656 782  768 
5657 178  60  
5658 434  914 
5659 657  426 
5660 576  6   
5661 170  827 
5662 631  544 
5663 541  856 
5664 652  235 
5665 211  410 
5666 672  920 
5667 568  857 
5668 914  829 
5669 923  521 
5670 928  925 
5671 600  426 
5672 328  45  
5673 263  185 
5674 708  432 
5675 537  40  
5676 385  299 
5677 101  169 
5678 6    116 
5679 559  872 
5680 465  150 
5681 656  569 
5682 785  987 
5683 732  332 
5684 437  24  
5685 368  935 
5686 612  650 
5687 780  730 
5688 939  59  
5689 143  219 
5690 574  853 
5691 470  434 
5692 795  521 
5693 27   419 
5694 562  788 
5695 797  219 
5696 181  694 
5697 762  703 
5698 725  297 
5699 709  852 
5700 905  170 
5701 815  427 
5702 660  580 
5703 667  352 
5704 627  952 
5705 166  276 
5706 853  454 
5707 507  630 
5708 643  280 
5709 350  448 
5710 408  839 
5711 908  940 
5712 624  993 
5713 453  106 
5714 808  119 
5715 162  556 
5716 434  777 
5717 74   224 
5718 58   749 
5719 992  867 
5720 849  686 
5721 44   456 
5722 858  916 
5723 784  31  
5724 348  118 
5725 871  106 
5726 214  875 
5727 654  756 
5728 659  970 
5729 984  630 
5730 34   453 
5731 98   988 
5732 107  662 
5733 716  824 
5734 1    37  
5735 423  330 
5736 840  228 
5737 231  745 
5738 148  163 
5739 224  793 
5740 404  21  
5741 90   894 
5742 489  363 
5743 293  827 
5744 885  717 
5745 959  330 
5746 500  621 
5747 534  602 
5748 684  211 
5749 225  786 
5750 924  610 
5751 873  158 
5752 391  543 
5753 910  565 
5754 831  29  
5755 506  704 
5756 275  111 
5757 941  990 
5758 233  537 
5759 332  475 
5760 830  430 
5761 968  723 
5762 401  214 
5763 645  123 
5764 207  654 
5765 691  725 
5766 963  600 
5767 730  373 
5768 783  237 
5769 89   107 
5770 790  667 
5771 331  226 
5772 407  201 
5773 356  567 
5774 469  368 
5775 363  277 
5776 496  257 
5777 973  785 
5778 874  570 
5779 505  53  
5780 235  108 
5781 145  388 
5782 182  661 
5783 883  776 
5784 735  811 
5785 258  189 
5786 322  820 
5787 698  767 
5788 218  965 
5789 580  767 
5790 658  973 
5791 130  18  
5792 478  546 
5793 690  506 
5794 418  793 
5795 173  97  
5796 671  998 
5797 853  911 
5798 908  363 
5799 698  819 
5800 36   446 
5801 534  405 
5802 573  625 
5803 926  323 
5804 840  111 
5805 676  765 
5806 842  709 
5807 556  91  
5808 759  636 
5809 233  842 
5810 489  720 
5811 881  726 
5812 648  689 
5813 470  24  
5814 751  121 
5815 631  471 
5816 617  381 
5817 873  779 
5818 928  367 
5819 644  379 
5820 26   702 
5821 208  821 
5822 501  464 
5823 9    821 
5824 212  276 
5825 122  150 
5826 32   114 
5827 161  594 
5828 145  181 
5829 43   530 
5830 562  574 
5831 27   137 
5832 670  589 
5833 486  622 
5834 587  81  
5835 672  433 
5836 123  657 
5837 314  553 
5838 277  419 
5839 429  168 
5840 249  980 
5841 641  960 
5842 364  387 
5843 115  575 
5844 214  945 
5845 440  878 
5846 813  339 
5847 448  588 
5848 547  200 
5849 736  159 
5850 120  180 
5851 708  349 
5852 671  107 
5853 78   109 
5854 392  702 
5855 103  490 
5856 214  637 
5857 509  847 
5858 663  900 
5859 246  770 
5860 158  84  
5861 114  144 
5862 884  348 
5863 974  474 
5864 932  970 
5865 254  588 
5866 828  811 
5867 775  364 
5868 925  159 
5869 263  536 
5870 30   317 
5871 212  987 
5872 530  576 
5873 802  317 
5874 198  722 
5875 440  230 
5876 961  324 
5877 428  895 
5878 714  692 
5879 472  823 
5880 142  949 
5881 591  794 
5882 596  688 
5883 995  165 
5884 649  39  
5885 812  932 
5886 865  514 
5887 256  854 
5888 152  871 
5889 523  808 
5890 636  919 
5891 341  381 
5892 502  288 
5893 322  602 
5894 587  202 
5895 292  422 
5896 465  926 
5897 875  215 
5898 732  628 
5899 568  653 
5900 476  314 
5901 932  229 
5902 339  227 
5903 362  192 
5904 968  288 
5905 202  760 
5906 107  685 
5907 716  789 
5908 483  650 
5909 923  697 
5910 840  201 
5911 127  567 
5912 558  343 
5913 120  319 
5914 484  183 
5915 802  12  
5916 262  914 
5917 845  59  
5918 61   524 
5919 704  837 
5920 471  761 
5921 609  984 
5922 720  171 
5923 939  75  
5924 722  601 
5925 261  107 
5926 503  8   
5927 795  953 
5928 887  87  
5929 389  856 
5930 601  890 
5931 700  634 
5932 347  706 
5933 829  346 
5934 723  715 
5935 903  951 
5936 852  941 
5937 377  267 
5938 393  494 
5939 801  505 
5940 506  97  
5941 877  174 
5942 17   426 
5943 614  931 
5944 796  180 
5945 305  631 
5946 782  963 
5947 14   361 
5948 307  481 
5949 383  138 
5950 627  808 
5951 701  241 
5952 867  249 
5953 122  416 
5954 505  24  
5955 966  255 
5956 500  357 
5957 126  507 
5958 352  276 
5959 391  295 
5960 504  207 
5961 529  194 
5962 430  187 
5963 26   76  
5964 12   47  
5965 508  542 
5966 724  778 
5967 768  548 
5968 680  336 
5969 327  856 
5970 970  537 
5971 428  221 
5972 68   116 
5973 603  745 
5974 324  414 
5975 716  904 
5976 538  884 
5977 519  124 
5978 267  532 
5979 18   402 
5980 488  460 
5981 329  840 
5982 333  668 
5983 973  605 
5984 242  425 
5985 523  658 
5986 913  306 
5987 696  62  
5988 539  408 
5989 571  811 
5990 292  280 
5991 239  905 
5992 407  57  
5993 356  647 
5994 31   637 
5995 47   22  
5996 515  800 
5997 681  200 
5998 402  475 
5999 729  212 
6000 145  276 
6001 283  642 
6002 638  434 
6003 654  439 
6004 140  9   
6005 712  560 
6006 174  216 
6007 642  118 
6008 448  609 
6009 872  980 
6010 724  925 
6011 244  314 
6012 228  903 
6013 103  449 
6014 984  881 
6015 470  972 
6016 237  591 
6017 663  611 
6018 119  559 
6019 543  473 
6020 15   656 
6021 271  826 
6022 458  799 
6023 699  932 
6024 464  19  
6025 941  543 
6026 194  164 
6027 214  18  
6028 548  790 
6029 848  56  
6030 578  369 
6031 882  987 
6032 497  447 
6033 471  903 
6034 549  690 
6035 74   274 
6036 643  450 
6037 936  344 
6038 207  387 
6039 117  257 
6040 887  317 
6041 89   352 
6042 624  987 
6043 663  140 
6044 619  848 
6045 199  684 
6046 494  920 
6047 88   343 
6048 595  264 
6049 249  836 
6050 175  436 
6051 438  782 
6052 115  943 
6053 908  42  
6054 382  123 
6055 663  304 
6056 82   111 
6057 469  937 
6058 128  843 
6059 257  105 
6060 974  142 
6061 538  906 
6062 305  293 
6063 381  18  
6064 715  798 
6065 346  298 
6066 332  969 
6067 392  526 
6068 410  731 
6069 177  764 
6070 555  483 
6071 4    635 
6072 186  258 
6073 428  459 
6074 375  858 
6075 285  78  
6076 324  756 
6077 711  621 
6078 418  448 
6079 312  67  
6080 646  216 
6081 962  133 
6082 526  514 
6083 860  740 
6084 648  908 
6085 316  522 
6086 735  281 
6087 991  163 
6088 260  65  
6089 193  98  
6090 66   144 
6091 531  183 
6092 5    676 
6093 812  820 
6094 321  887 
6095 30   777 
6096 715  3   
6097 473  940 
6098 657  142 
6099 514  561 
6100 645  485 
6101 908  793 
6102 984  463 
6103 917  549 
6104 114  872 
6105 135  936 
6106 211  190 
6107 785  371 
6108 658  899 
6109 24   987 
6110 266  568 
6111 180  853 
6112 989  149 
6113 728  609 
6114 825  521 
6115 811  554 
6116 573  583 
6117 301  772 
6118 504  368 
6119 72   419 
6120 660  300 
6121 492  852 
6122 849  157 
6123 745  92  
6124 397  807 
6125 293  918 
6126 560  39  
6127 484  7   
6128 772  580 
6129 924  911 
6130 707  41  
6131 963  947 
6132 8    376 
6133 483  214 
6134 160  147 
6135 983  285 
6136 485  524 
6137 835  282 
6138 985  425 
6139 256  533 
6140 355  97  
6141 156  997 
6142 126  655 
6143 970  273 
6144 753  999 
6145 598  265 
6146 912  410 
6147 584  839 
6148 65   342 
6149 784  883 
6150 477  114 
6151 177  158 
6152 486  992 
6153 306  378 
6154 596  111 
6155 559  357 
6156 287  102 
6157 766  394 
6158 803  156 
6159 888  20  
6160 724  890 
6161 950  204 
6162 793  7   
6163 327  1000
6164 901  553 
6165 271  801 
6166 91   45  
6167 388  914 
6168 321  465 
6169 856  858 
6170 565  894 
6171 860  398 
6172 399  50  
6173 332  247 
6174 544  567 
6175 445  944 
6176 318  422 
6177 355  814 
6178 138  776 
6179 161  505 
6180 534  954 
6181 375  32  
6182 216  471 
6183 769  619 
6184 511  544 
6185 905  123 
6186 462  880 
6187 545  204 
6188 21   831 
6189 321  29  
6190 985  54  
6191 574  32  
6192 175  95  
6193 772  3   
6194 304  711 
6195 359  291 
6196 624  944 
6197 571  667 
6198 22   849 
6199 294  714 
6200 451  777 
6201 476  332 
6202 5    926 
6203 870  516 
6204 192  187 
6205 653  994 
6206 420  411 
6207 468  399 
6208 996  841 
6209 25   510 
6210 917  319 
6211 202  686 
6212 98   527 
6213 84   718 
6214 453  511 
6215 702  910 
6216 974  179 
6217 296  566 
6218 715  885 
6219 404  68  
6220 480  290 
6221 7    105 
6222 300  501 
6223 16   964 
6224 950  91  
6225 348  489 
6226 936  757 
6227 295  306 
6228 500  732 
6229 177  727 
6230 133  804 
6231 375  881 
6232 379  227 
6233 542  418 
6234 925  42  
6235 927  748 
6236 55   801 
6237 687  592 
6238 924  149 
6239 958  492 
6240 522  744 
6241 229  720 
6242 900  45  
6243 921  826 
6244 296  297 
6245 535  723 
6246 459  804 
6247 316  171 
6248 122  118 
6249 615  662 
6250 767  299 
6251 142  394 
6252 573  126 
6253 697  834 
6254 538  326 
6255 900  609 
6256 944  561 
6257 999  21  
6258 563  809 
6259 358  231 
6260 127  942 
6261 789  439 
6262 383  304 
6263 83   204 
6264 196  341 
6265 989  176 
6266 675  385 
6267 269  624 
6268 550  963 
6269 917  452 
6270 520  690 
6271 564  911 
6272 626  704 
6273 24   444 
6274 651  233 
6275 928  850 
6276 298  694 
6277 664  251 
6278 369  331 
6279 332  857 
6280 371  773 
6281 122  645 
6282 119  336 
6283 234  646 
6284 806  384 
6285 367  535 
6286 208  900 
6287 282  663 
6288 782  344 
6289 30   733 
6290 166  13  
6291 459  21  
6292 973  403 
6293 422  155 
6294 32   33  
6295 825  356 
6296 899  941 
6297 539  466 
6298 479  495 
6299 668  246 
6300 359  645 
6301 165  92  
6302 347  873 
6303 190  737 
6304 725  116 
6305 683  544 
6306 614  788 
6307 65   329 
6308 134  984 
6309 625  273 
6310 330  127 
6311 724  419 
6312 196  516 
6313 69   274 
6314 793  750 
6315 477  109 
6316 691  203 
6317 359  73  
6318 760  486 
6319 407  695 
6320 391  338 
6321 974  969 
6322 439  70  
6323 118  515 
6324 879  596 
6325 932  453 
6326 284  820 
6327 710  854 
6328 537  444 
6329 242  650 
6330 168  569 
6331 996  615 
6332 922  334 
6333 767  912 
6334 73   764 
6335 112  854 
6336 426  468 
6337 483  618 
6338 245  855 
6339 750  684 
6340 402  764 
6341 971  542 
6342 823  721 
6343 599  14  
6344 484  919 
6345 147  33  
6346 539  739 
6347 449  473 
6348 375  95  
6349 695  648 
6350 958  74  
6351 42   235 
6352 616  140 
6353 28   10  
6354 187  939 
6355 406  651 
6356 514  752 
6357 283  493 
6358 585  701 
6359 50   304 
6360 624  917 
6361 933  123 
6362 347  994 
6363 84   247 
6364 107  190 
6365 861  969 
6366 457  108 
6367 429  238 
6368 415  431 
6369 749  549 
6370 364  453 
6371 689  826 
6372 652  138 
6373 638  487 
6374 50   884 
6375 841  71  
6376 520  620 
6377 515  275 
6378 586  868 
6379 823  998 
6380 168  676 
6381 11   222 
6382 659  538 
6383 34   21  
6384 772  795 
6385 301  521 
6386 285  388 
6387 195  26  
6388 677  898 
6389 102  639 
6390 238  15  
6391 973  377 
6392 242  197 
6393 904  320 
6394 484  794 
6395 583  766 
6396 43   781 
6397 414  756 
6398 575  507 
6399 596  746 
6400 630  473 
6401 902  744 
6402 247  779 
6403 395  642 
6404 844  351 
6405 634  135 
6406 749  342 
6407 108  98  
6408 714  142 
6409 792  992 
6410 575  959 
6411 61   293 
6412 377  240 
6413 642  338 
6414 623  931 
6415 923  295 
6416 957  732 
6417 173  205 
6418 233  354 
6419 749  922 
6420 129  431 
6421 408  354 
6422 675  484 
6423 571  183 
6424 54   914 
6425 409  745 
6426 383  851 
6427 572  586 
6428 807  342 
6429 152  436 
6430 661  253 
6431 495  331 
6432 128  348 
6433 368  625 
6434 794  769 
6435 282  688 
6436 194  68  
6437 360  868 
6438 173  826 
6439 191  433 
6440 749  135 
6441 507  868 
6442 4    84  
6443 350  210 
6444 170  380 
6445 66   829 
6446 640  628 
6447 882  699 
6448 709  954 
6449 909  441 
6450 731  979 
6451 201  892 
6452 362  457 
6453 2    230 
6454 615  742 
6455 27   857 
6456 359  36  
6457 331  719 
6458 852  411 
6459 361  640 
6460 785  294 
6461 1    471 
6462 628  706 
6463 58   275 
6464 867  719 
6465 941  44  
6466 888  478 
6467 853  928 
6468 371  121 
6469 816  218 
6470 357  182 
6471 984  928 
6472 751  474 
6473 880  721 
6474 534  436 
6475 239  182 
6476 167  778 
6477 483  625 
6478 849  192 
6479 579  491 
6480 964  279 
6481 985  512 
6482 295  55  
6483 85   495 
6484 608  408 
6485 873  996 
6486 433  983 
6487 52   143 
6488 677  700 
6489 995  345 
6490 317  317 
6491 446  387 
6492 144  669 
6493 616  145 
6494 321  43  
6495 344  500 
6496 611  406 
6497 521  98  
6498 763  51  
6499 726  933 
6500 468  925 
6501 207  496 
6502 260  865 
6503 209  783 
6504 753  842 
6505 292  338 
6506 700  695 
6507 536  656 
6508 317  225 
6509 725  228 
6510 875  315 
6511 896  964 
6512 107  213 
6513 681  6   
6514 95   444 
6515 909  46  
6516 291  875 
6517 473  588 
6518 58   610 
6519 904  690 
6520 62   670 
6521 516  487 
6522 477  157 
6523 779  671 
6524 73   48  
6525 550  514 
6526 663  481 
6527 785  403 
6528 508  475 
6529 676  963 
6530 789  172 
6531 763  955 
6532 768  889 
6533 180  629 
6534 500  742 
6535 341  678 
6536 751  367 
6537 825  745 
6538 864  833 
6539 186  437 
6540 216  816 
6541 695  372 
6542 474  104 
6543 243  301 
6544 254  623 
6545 21   726 
6546 26   928 
6547 42   295 
6548 65   974 
6549 964  410 
6550 143  39  
6551 989  889 
6552 648  987 
6553 392  153 
6554 161  332 
6555 18   335 
6556 783  100 
6557 933  951 
6558 460  335 
6559 942  959 
6560 635  187 
6561 139  783 
6562 14   509 
6563 143  667 
6564 860  927 
6565 881  168 
6566 973  664 
6567 763  332 
6568 620  339 
6569 394  911 
6570 862  144 
6571 931  537 
6572 306  22  
6573 352  696 
6574 649  540 
6575 317  886 
6576 211  239 
6577 568  684 
6578 153  810 
6579 35   266 
6580 879  917 
6581 828  469 
6582 480  75  
6583 157  739 
6584 244  3   
6585 486  192 
6586 721  633 
6587 956  480 
6588 797  932 
6589 949  537 
6590 153  358 
6591 944  439 
6592 487  639 
6593 381  216 
6594 298  764 
6595 480  759 
6596 129  782 
6597 689  342 
6598 721  965 
6599 285  52  
6600 195  426 
6601 472  549 
6602 575  183 
6603 545  480 
6604 425  290 
6605 685  580 
6606 851  804 
6607 934  365 
6608 330  609 
6609 687  559 
6610 136  186 
6611 445  144 
6612 673  501 
6613 749  162 
6614 751  692 
6615 4    113 
6616 276  766 
6617 223  15  
6618 557  795 
6619 961  434 
6620 956  755 
6621 725  442 
6622 100  937 
6623 31   745 
6624 361  879 
6625 144  899 
6626 515  660 
6627 607  58  
6628 238  571 
6629 386  832 
6630 911  762 
6631 821  632 
6632 325  238 
6633 689  635 
6634 615  765 
6635 410  108 
6636 500  324 
6637 509  498 
6638 308  835 
6639 239  729 
6640 123  836 
6641 607  510 
6642 344  518 
6643 828  360 
6644 941  199 
6645 634  683 
6646 71   834 
6647 606  717 
6648 410  544 
6649 230  225 
6650 931  222 
6651 237  699 
6652 578  793 
6653 405  235 
6654 29   687 
6655 361  231 
6656 241  521 
6657 77   227 
6658 370  367 
6659 162  99  
6660 314  294 
6661 685  885 
6662 851  629 
6663 542  134 
6664 581  676 
6665 512  469 
6666 546  76  
6667 394  289 
6668 110  119 
6669 315  801 
6670 428  512 
6671 527  276 
6672 375  145 
6673 317  280 
6674 545  125 
6675 891  255 
6676 144  690 
6677 877  960 
6678 602  489 
6679 574  115 
6680 456  977 
6681 776  228 
6682 144  894 
6683 490  752 
6684 259  95  
6685 895  224 
6686 164  192 
6687 37   350 
6688 136  609 
6689 378  700 
6690 839  985 
6691 532  903 
6692 610  338 
6693 762  393 
6694 158  668 
6695 31   150 
6696 810  771 
6697 900  897 
6698 222  519 
6699 561  399 
6700 457  918 
6701 404  235 
6702 814  826 
6703 362  797 
6704 48   4   
6705 546  287 
6706 177  352 
6707 767  591 
6708 237  560 
6709 366  812 
6710 797  654 
6711 769  405 
6712 137  323 
6713 930  128 
6714 750  257 
6715 660  105 
6716 759  717 
6717 7    898 
6718 0    884 
6719 740  142 
6720 800  747 
6721 48   576 
6722 108  592 
6723 548  821 
6724 954  620 
6725 539  694 
6726 133  73  
6727 329  662 
6728 84   392 
6729 891  8   
6730 441  625 
6731 544  61  
6732 415  518 
6733 643  291 
6734 311  593 
6735 493  590 
6736 477  841 
6737 592  457 
6738 728  185 
6739 970  218 
6740 382  990 
6741 112  174 
6742 149  551 
6743 331  396 
6744 31   967 
6745 552  246 
6746 734  2   
6747 139  430 
6748 549  151 
6749 849  837 
6750 687  377 
6751 943  995 
6752 323  554 
6753 569  823 
6754 850  184 
6755 428  102 
6756 345  768 
6757 935  625 
6758 702  836 
6759 958  722 
6760 457  515 
6761 37   775 
6762 634  965 
6763 270  611 
6764 203  652 
6765 500  534 
6766 161  240 
6767 682  562 
6768 848  342 
6769 663  789 
6770 225  777 
6771 211  842 
6772 52   334 
6773 100  114 
6774 358  958 
6775 81   347 
6776 807  972 
6777 459  162 
6778 39   422 
6779 906  495 
6780 514  940 
6781 696  951 
6782 320  475 
6783 963  611 
6784 347  710 
6785 8    40  
6786 243  793 
6787 446  670 
6788 160  483 
6789 658  30  
6790 808  463 
6791 381  955 
6792 450  628 
6793 397  91  
6794 74   440 
6795 277  517 
6796 814  468 
6797 505  28  
6798 770  902 
6799 878  991 
6800 905  762 
6801 19   868 
6802 794  34  
6803 690  467 
6804 33   828 
6805 819  653 
6806 72   774 
6807 390  360 
6808 71   857 
6809 719  29  
6810 41   670 
6811 650  564 
6812 931  37  
6813 73   269 
6814 555  753 
6815 223  775 
6816 578  818 
6817 776  982 
6818 345  653 
6819 423  470 
6820 819  841 
6821 840  120 
6822 275  295 
6823 556  108 
6824 542  171 
6825 263  446 
6826 51   844 
6827 655  584 
6828 452  501 
6829 599  959 
6830 198  892 
6831 894  745 
6832 327  664 
6833 534  974 
6834 426  123 
6835 389  117 
6836 458  552 
6837 437  281 
6838 845  428 
6839 688  489 
6840 365  7   
6841 934  509 
6842 763  13  
6843 606  453 
6844 382  564 
6845 456  950 
6846 679  408 
6847 506  240 
6848 951  568 
6849 72   757 
6850 466  309 
6851 468  283 
6852 477  83  
6853 373  354 
6854 140  5   
6855 322  928 
6856 866  805 
6857 188  793 
6858 617  633 
6859 107  331 
6860 236  621 
6861 386  308 
6862 743  126 
6863 547  211 
6864 148  366 
6865 671  114 
6866 629  996 
6867 447  355 
6868 431  878 
6869 530  917 
6870 915  565 
6871 864  155 
6872 721  774 
6873 43   286 
6874 238  446 
6875 259  855 
6876 565  863 
6877 821  453 
6878 544  598 
6879 894  916 
6880 575  392 
6881 407  266 
6882 123  473 
6883 621  442 
6884 109  230 
6885 655  401 
6886 761  568 
6887 99   161 
6888 9    649 
6889 491  443 
6890 117  269 
6891 615  514 
6892 202  13  
6893 47   423 
6894 912  372 
6895 287  372 
6896 365  704 
6897 349  219 
6898 625  596 
6899 420  442 
6900 830  741 
6901 943  974 
6902 763  706 
6903 452  875 
6904 899  300 
6905 629  53  
6906 645  816 
6907 50   826 
6908 269  540 
6909 534  104 
6910 811  693 
6911 6    977 
6912 760  171 
6913 559  655 
6914 340  599 
6915 568  818 
6916 552  343 
6917 921  6   
6918 335  988 
6919 12   465 
6920 572  761 
6921 180  514 
6922 484  152 
6923 864  790 
6924 1000 182 
6925 547  664 
6926 531  767 
6927 411  653 
6928 678  717 
6929 78   605 
6930 484  732 
6931 915  122 
6932 463  582 
6933 834  118 
6934 375  410 
6935 587  274 
6936 550  154 
6937 753  110 
6938 766  839 
6939 641  773 
6940 41   229 
6941 645  481 
6942 11   525 
6943 818  919 
6944 917  545 
6945 292  50  
6946 151  489 
6947 130  36  
6948 476  166 
6949 538  345 
6950 231  908 
6951 639  19  
6952 895  485 
6953 23   896 
6954 710  826 
6955 90   723 
6956 410  502 
6957 585  60  
6958 509  12  
6959 163  146 
6960 186  81  
6961 963  379 
6962 822  418 
6963 8    800 
6964 206  903 
6965 667  691 
6966 137  668 
6967 909  722 
6968 99   607 
6969 9    299 
6970 816  949 
6971 103  747 
6972 949  104 
6973 843  733 
6974 882  61  
6975 204  17  
6976 955  824 
6977 191  459 
6978 138  709 
6979 193  243 
6980 216  140 
6981 179  0   
6982 714  951 
6983 903  963 
6984 863  251 
6985 782  887 
6986 72   730 
6987 572  287 
6988 844  532 
6989 83   314 
6990 376  304 
6991 641  914 
6992 235  23  
6993 16   385 
6994 643  60  
6995 525  0   
6996 818  10  
6997 728  948 
6998 283  701 
6999 624  197 
7000 130  187 
7001 439  167 
7002 990  423 
7003 266  939 
7004 127  752 
7005 457  988 
7006 314  959 
7007 551  759 
7008 334  165 
7009 431  853 
7010 712  981 
7011 68   896 
7012 702  579 
7013 884  354 
7014 264  565 
7015 245  808 
7016 342  338 
7017 824  461 
7018 789  785 
7019 275  407 
7020 609  541 
7021 224  637 
7022 450  243 
7023 927  615 
7024 964  361 
7025 975  875 
7026 890  709 
7027 892  27  
7028 530  626 
7029 583  618 
7030 161  509 
7031 364  668 
7032 647  757 
7033 730  93  
7034 234  876 
7035 716  472 
7036 296  418 
7037 30   939 
7038 549  665 
7039 397  412 
7040 360  553 
7041 0    714 
7042 293  91  
7043 166  219 
7044 982  345 
7045 394  990 
7046 184  390 
7047 322  620 
7048 737  651 
7049 679  616 
7050 98   455 
7051 465  840 
7052 416  600 
7053 199  711 
7054 257  580 
7055 26   139 
7056 549  221 
7057 879  826 
7058 775  527 
7059 23   234 
7060 761  95  
7061 136  982 
7062 233  470 
7063 399  779 
7064 318  857 
7065 857  605 
7066 931  994 
7067 573  425 
7068 515  368 
7069 153  471 
7070 923  759 
7071 176  80  
7072 750  926 
7073 150  420 
7074 708  502 
7075 655  649 
7076 189  807 
7077 959  263 
7078 366  129 
7079 428  476 
7080 972  737 
7081 854  261 
7082 547  767 
7083 953  52  
7084 858  123 
7085 971  424 
7086 60   649 
7087 892  174 
7088 325  763 
7089 184  213 
7090 578  509 
7091 977  1000
7092 133  228 
7093 640  728 
7094 679  345 
7095 356  578 
7096 854  193 
7097 490  988 
7098 734  379 
7099 109  886 
7100 365  268 
7101 826  878 
7102 448  504 
7103 450  522 
7104 62   391 
7105 622  703 
7106 576  787 
7107 373  35  
7108 283  327 
7109 1000 979 
7110 412  609 
7111 827  898 
7112 829  208 
7113 481  66  
7114 282  388 
7115 780  395 
7116 150  247 
7117 337  412 
7118 205  669 
7119 599  589 
7120 124  531 
7121 984  564 
7122 343  371 
7123 509  103 
7124 663  700 
7125 746  18  
7126 504  345 
7127 923  832 
7128 12   417 
7129 508  144 
7130 738  833 
7131 413  131 
7132 733  986 
7133 318  256 
7134 251  879 
7135 306  932 
7136 557  413 
7137 195  356 
7138 218  15  
7139 8    321 
7140 63   421 
7141 47   544 
7142 446  55  
7143 764  22  
7144 86   14  
7145 33   242 
7146 273  675 
7147 948  76  
7148 90   372 
7149 187  786 
7150 97   656 
7151 613  888 
7152 302  577 
7153 454  780 
7154 27   250 
7155 536  612 
7156 421  46  
7157 347  877 
7158 956  693 
7159 61   23  
7160 377  482 
7161 213  844 
7162 930  804 
7163 743  620 
7164 364  334 
7165 883  710 
7166 809  239 
7167 848  643 
7168 27   806 
7169 525  27  
7170 308  773 
7171 135  820 
7172 942  60  
7173 326  929 
7174 222  598 
7175 63   726 
7176 339  455 
7177 505  563 
7178 286  322 
7179 475  135 
7180 152  162 
7181 841  794 
7182 915  767 
7183 163  866 
7184 414  177 
7185 24   11  
7186 930  51  
7187 402  760 
7188 233  772 
7189 90   135 
7190 113  878 
7191 521  455 
7192 996  167 
7193 265  1   
7194 493  91  
7195 419  776 
7196 313  269 
7197 682  850 
7198 207  925 
7199 707  445 
7200 324  907 
7201 561  672 
7202 130  931 
7203 65   158 
7204 321  52  
7205 503  292 
7206 53   501 
7207 265  733 
7208 122  200 
7209 892  436 
7210 682  406 
7211 654  16  
7212 179  176 
7213 986  544 
7214 382  617 
7215 52   674 
7216 255  485 
7217 575  566 
7218 778  788 
7219 545  615 
7220 785  48  
7221 19   648 
7222 921  528 
7223 192  84  
7224 729  371 
7225 473  685 
7226 136  571 
7227 67   977 
7228 505  380 
7229 454  327 
7230 221  72  
7231 154  131 
7232 357  920 
7233 412  847 
7234 110  704 
7235 239  420 
7236 149  908 
7237 77   410 
7238 831  753 
7239 694  218 
7240 362  851 
7241 50   692 
7242 578  978 
7243 197  692 
7244 988  705 
7245 273  585 
7246 88   632 
7247 152  745 
7248 138  900 
7249 982  13  
7250 786  792 
7251 661  552 
7252 534  814 
7253 539  624 
7254 170  501 
7255 652  945 
7256 617  420 
7257 398  29  
7258 790  803 
7259 352  795 
7260 605  864 
7261 236  133 
7262 109  145 
7263 973  697 
7264 431  189 
7265 288  421 
7266 477  911 
7267 601  491 
7268 790  367 
7269 684  806 
7270 739  341 
7271 633  826 
7272 808  90  
7273 623  943 
7274 222  780 
7275 794  149 
7276 282  417 
7277 330  405 
7278 849  643 
7279 475  289 
7280 883  476 
7281 996  709 
7282 585  106 
7283 89   891 
7284 954  305 
7285 135  34  
7286 250  814 
7287 287  871 
7288 453  395 
7289 665  51  
7290 24   421 
7291 932  767 
7292 58   204 
7293 941  375 
7294 747  552 
7295 911  419 
7296 719  646 
7297 152  440 
7298 461  146 
7299 25   942 
7300 431  590 
7301 811  164 
7302 299  72  
7303 707  87  
7304 564  500 
7305 753  405 
7306 95   883 
7307 955  754 
7308 579  190 
7309 872  180 
7310 526  987 
7311 768  287 
7312 346  775 
7313 881  442 
7314 777  71  
7315 906  421 
7316 85   154 
7317 32   26  
7318 260  250 
7319 36   577 
7320 352  918 
7321 446  596 
7322 361  840 
7323 948  429 
7324 443  815 
7325 726  750 
7326 64   87  
7327 463  81  
7328 398  676 
7329 211  25  
7330 605  185 
7331 128  547 
7332 326  954 
7333 515  177 
7334 93   69  
7335 561  307 
7336 997  575 
7337 983  636 
7338 736  295 
7339 67   711 
7340 853  940 
7341 505  534 
7342 680  302 
7343 129  56  
7344 756  217 
7345 228  978 
7346 599  573 
7347 232  292 
7348 345  715 
7349 271  759 
7350 681  789 
7351 8    917 
7352 10   79  
7353 586  666 
7354 918  565 
7355 427  106 
7356 664  111 
7357 459  349 
7358 885  831 
7359 890  651 
7360 557  557 
7361 744  204 
7362 467  660 
7363 416  86  
7364 402  89  
7365 593  362 
7366 501  445 
7367 49   788 
7368 844  445 
7369 240  185 
7370 189  208 
7371 687  849 
7372 92   797 
7373 133  505 
7374 179  87  
7375 571  873 
7376 737  577 
7377 829  17  
7378 598  342 
7379 709  555 
7380 340  66  
7381 974  641 
7382 169  318 
7383 448  227 
7384 330  203 
7385 849  809 
7386 636  739 
7387 982  979 
7388 987  679 
7389 719  228 
7390 64   290 
7391 712  590 
7392 931  812 
7393 119  937 
7394 77   501 
7395 775  901 
7396 763  959 
7397 747  466 
7398 399  401 
7399 712  10  
7400 954  971 
7401 216  820 
7402 472  734 
7403 91   116 
7404 453  869 
7405 775  329 
7406 67   140 
7407 219  345 
7408 740  173 
7409 87   454 
7410 4    778 
7411 919  608 
7412 151  986 
7413 446  306 
7414 863  455 
7415 386  713 
7416 577  250 
7417 434  253 
7418 736  837 
7419 293  54  
7420 643  256 
7421 553  386 
7422 334  973 
7423 689  706 
7424 456  635 
7425 917  978 
7426 679  727 
7427 774  965 
7428 292  449 
7429 813  609 
7430 568  688 
7431 10   737 
7432 487  439 
7433 867  557 
7434 210  984 
7435 67   609 
7436 671  869 
7437 747  3   
7438 339  132 
7439 883  451 
7440 894  193 
7441 89   798 
7442 110  688 
7443 555  869 
7444 721  637 
7445 29   598 
7446 158  874 
7447 914  936 
7448 704  508 
7449 614  83  
7450 10   293 
7451 132  720 
7452 542  799 
7453 9    500 
7454 48   350 
7455 251  697 
7456 786  740 
7457 87   23  
7458 290  503 
7459 276  838 
7460 582  814 
7461 587  912 
7462 753  488 
7463 185  501 
7464 5    34  
7465 939  172 
7466 844  231 
7467 420  751 
7468 332  467 
7469 613  814 
7470 401  206 
7471 795  922 
7472 730  381 
7473 285  628 
7474 458  152 
7475 250  38  
7476 939  616 
7477 282  797 
7478 805  79  
7479 53   746 
7480 286  844 
7481 952  636 
7482 205  772 
7483 193  616 
7484 269  787 
7485 700  89  
7486 405  307 
7487 889  16  
7488 407  645 
7489 836  521 
7490 801  986 
7491 54   730 
7492 153  187 
7493 63   664 
7494 789  270 
7495 148  506 
7496 510  155 
7497 849  531 
7498 83   167 
7499 694  389 
7500 438  71  
7501 41   767 
7502 758  540 
7503 318  953 
7504 50   631 
7505 827  405 
7506 250  926 
7507 589  435 
7508 38   699 
7509 310  188 
7510 628  175 
7511 432  778 
7512 713  495 
7513 383  815 
7514 759  628 
7515 897  353 
7516 459  432 
7517 532  11  
7518 564  356 
7519 216  522 
7520 820  782 
7521 658  304 
7522 803  937 
7523 402  114 
7524 427  461 
7525 263  867 
7526 694  525 
7527 166  106 
7528 830  221 
7529 445  33  
7530 85   10  
7531 290  846 
7532 772  94  
7533 313  663 
7534 479  262 
7535 728  306 
7536 156  811 
7537 331  279 
7538 123  681 
7539 130  317 
7540 667  78  
7541 946  187 
7542 948  605 
7543 166  566 
7544 830  537 
7545 740  927 
7546 417  681 
7547 709  394 
7548 70   444 
7549 326  970 
7550 222  523 
7551 907  155 
7552 21   249 
7553 694  272 
7554 332  625 
7555 115  67  
7556 599  685 
7557 871  904 
7558 34   231 
7559 253  465 
7560 470  995 
7561 200  195 
7562 419  419 
7563 993  538 
7564 449  548 
7565 582  596 
7566 8    613 
7567 545  322 
7568 146  655 
7569 916  479 
7570 169  566 
7571 404  299 
7572 980  998 
7573 581  533 
7574 971  505 
7575 636  491 
7576 878  24  
7577 592  897 
7578 350  913 
7579 804  830 
7580 333  558 
7581 907  995 
7582 471  928 
7583 579  955 
7584 653  608 
7585 830  840 
7586 961  152 
7587 585  532 
7588 986  765 
7589 550  458 
7590 679  562 
7591 663  169 
7592 61   247 
7593 762  100 
7594 589  981 
7595 349  60  
7596 10   714 
7597 28   535 
7598 819  260 
7599 572  84  
7600 376  501 
7601 858  953 
7602 620  808 
7603 569  827 
7604 663  365 
7605 82   74  
7606 215  219 
7607 978  163 
7608 941  301 
7609 46   563 
7610 985  837 
7611 180  737 
7612 881  948 
7613 0    391 
7614 346  265 
7615 205  114 
7616 200  334 
7617 156  393 
7618 195  437 
7619 755  141 
7620 298  89  
7621 535  877 
7622 590  488 
7623 869  671 
7624 855  988 
7625 325  689 
7626 562  924 
7627 126  807 
7628 714  547 
7629 142  8   
7630 679  355 
7631 75   103 
7632 363  288 
7633 616  400 
7634 579  548 
7635 503  580 
7636 588  814 
7637 293  134 
7638 687  74  
7639 445  331 
7640 567  736 
7641 622  629 
7642 878  995 
7643 477  986 
7644 848  722 
7645 615  724 
7646 571  594 
7647 315  144 
7648 188  130 
7649 301  413 
7650 709  288 
7651 921  304 
7652 909  815 
7653 344  559 
7654 715  608 
7655 166  856 
7656 595  438 
7657 872  849 
7658 175  730 
7659 664  637 
7660 396  676 
7661 642  831 
7662 349  629 
7663 522  345 
7664 120  466 
7665 362  627 
7666 16   765 
7667 973  17  
7668 994  768 
7669 544  991 
7670 800  585 
7671 546  37  
7672 214  159 
7673 915  872 
7674 424  973 
7675 4    713 
7676 105  444 
7677 52   221 
7678 310  541 
7679 160  182 
7680 711  451 
7681 720  30  
7682 630  561 
7683 427  480 
7684 397  264 
7685 846  669 
7686 332  291 
7687 484  614 
7688 69   656 
7689 454  842 
7690 735  239 
7691 221  629 
7692 41   503 
7693 795  778 
7694 527  243 
7695 142  151 
7696 827  669 
7697 520  99  
7698 942  702 
7699 674  756 
7700 568  367 
7701 183  686 
7702 667  101 
7703 192  3   
7704 247  551 
7705 731  890 
7706 715  337 
7707 127  93  
7708 279  232 
7709 581  440 
7710 823  495 
7711 532  1000
7712 115  554 
7713 117  248 
7714 562  87  
7715 594  964 
7716 172  370 
7717 444  399 
7718 672  618 
7719 430  846 
7720 896  606 
7721 1    382 
7722 849  419 
7723 618  224 
7724 943  645 
7725 399  603 
7726 92   223 
7727 606  577 
7728 537  126 
7729 832  526 
7730 447  367 
7731 968  94  
7732 396  991 
7733 603  378 
7734 716  571 
7735 384  942 
7736 319  54  
7737 506  523 
7738 358  536 
7739 381  473 
7740 224  540 
7741 512  89  
7742 740  151 
7743 25   718 
7744 103  957 
7745 57   221 
7746 262  636 
7747 428  652 
7748 324  973 
7749 398  76  
7750 561  750 
7751 711  308 
7752 900  133 
7753 653  635 
7754 964  780 
7755 625  12  
7756 291  646 
7757 459  844 
7758 869  905 
7759 288  340 
7760 682  364 
7761 652  516 
7762 734  43  
7763 706  536 
7764 572  177 
7765 261  998 
7766 443  15  
7767 558  132 
7768 325  495 
7769 475  414 
7770 76   939 
7771 221  142 
7772 334  343 
7773 463  369 
7774 728  798 
7775 970  871 
7776 456  481 
7777 847  140 
7778 116  186 
7779 10   363 
7780 12   461 
7781 201  412 
7782 111  897 
7783 298  558 
7784 392  566 
7785 998  266 
7786 548  461 
7787 954  932 
7788 518  237 
7789 543  330 
7790 197  650 
7791 702  489 
7792 815  714 
7793 377  826 
7794 146  287 
7795 312  75  
7796 238  201 
7797 21   557 
7798 722  618 
7799 994  554 
7800 392  114 
7801 281  961 
7802 198  602 
7803 477  561 
7804 956  705 
7805 852  914 
7806 990  992 
7807 644  102 
7808 900  8   
7809 65   465 
7810 28   195 
7811 890  47  
7812 636  543 
7813 643  183 
7814 311  477 
7815 334  614 
7816 502  424 
7817 767  500 
7818 308  913 
7819 889  94  
7820 568  517 
7821 741  890 
7822 425  612 
7823 999  54  
7824 434  746 
7825 148  460 
7826 330  427 
7827 496  959 
7828 16   214 
7829 491  628 
7830 475  363 
7831 779  371 
7832 818  471 
7833 396  641 
7834 915  659 
7835 723  430 
7836 488  797 
7837 859  830 
7838 243  21  
7839 499  191 
7840 319  360 
7841 584  247 
7842 685  807 
7843 618  474 
7844 964  226 
7845 113  658 
7846 954  811 
7847 225  893 
7848 232  79  
7849 414  993 
7850 54   408 
7851 280  453 
7852 116  705 
7853 713  785 
7854 42   67  
7855 856  531 
7856 934  458 
7857 717  986 
7858 242  442 
7859 853  234 
7860 350  172 
7861 387  162 
7862 299  606 
7863 285  543 
7864 216  144 
7865 142  184 
7866 640  562 
7867 942  675 
7868 568  340 
7869 326  452 
7870 648  379 
7871 634  76  
7872 814  328 
7873 671  577 
7874 235  11  
7875 71   417 
7876 274  581 
7877 832  103 
7878 610  420 
7879 912  94  
7880 257  143 
7881 206  346 
7882 524  75  
7883 710  693 
7884 966  707 
7885 860  66  
7886 491  737 
7887 996  514 
7888 525  704 
7889 557  175 
7890 324  278 
7891 183  461 
7892 923  954 
7893 160  634 
7894 427  180 
7895 964  341 
7896 664  425 
7897 78   511 
7898 544  591 
7899 952  484 
7900 290  727 
7901 458  420 
7902 220  779 
7903 204  128 
7904 845  312 
7905 100  881 
7906 981  968 
7907 469  36  
7908 618  773 
7909 602  398 
7910 164  613 
7911 436  450 
7912 240  195 
7913 867  62  
7914 558  685 
7915 505  225 
7916 196  790 
7917 765  835 
7918 643  465 
7919 553  339 
7920 899  891 
7921 666  530 
7922 541  466 
7923 304  767 
7924 502  246 
7925 239  769 
7926 813  562 
7927 580  963 
7928 248  428 
7929 942  302 
7930 545  512 
7931 95   498 
7932 558  873 
7933 390  559 
7934 32   667 
7935 760  148 
7936 84   726 
7937 529  967 
7938 822  332 
7939 702  950 
7940 393  580 
7941 215  301 
7942 171  715 
7943 867  950 
7944 452  304 
7945 380  946 
7946 509  786 
7947 993  621 
7948 6    42  
7949 423  215 
7950 815  817 
7951 137  442 
7952 997  190 
7953 854  281 
7954 471  715 
7955 81   277 
7956 88   599 
7957 323  464 
7958 989  955 
7959 385  725 
7960 288  24  
7961 327  409 
7962 424  712 
7963 541  227 
7964 691  650 
7965 428  796 
7966 672  237 
7967 377  345 
7968 296  273 
7969 499  810 
7970 425  947 
7971 192  834 
7972 736  783 
7973 807  582 
7974 173  614 
7975 544  134 
7976 786  319 
7977 516  212 
7978 295  983 
7979 246  215 
7980 728  82  
7981 121  47  
7982 70   144 
7983 741  837 
7984 245  406 
7985 503  962 
7986 712  819 
7987 954  208 
7988 202  605 
7989 225  404 
7990 54   113 
7991 868  525 
7992 206  940 
7993 354  919 
7994 372  348 
7995 561  99  
7996 319  375 
7997 846  239 
7998 461  179 
7999 177  580 
8000 788  44  
8001 954  788 
8002 301  731 
8003 195  360 
8004 398  271 
8005 368  660 
8006 882  18  
8007 815  698 
8008 983  368 
8009 877  781 
8010 699  697 
8011 720  72  
8012 275  177 
8013 53   364 
8014 277  920 
8015 756  813 
8016 765  553 
8017 749  100 
8018 92   873 
8019 645  185 
8020 576  550 
8021 575  649 
8022 377  486 
8023 153  565 
8024 639  427 
8025 72   675 
8026 14   266 
8027 369  715 
8028 991  767 
8029 359  65  
8030 571  441 
8031 218  899 
8032 98   749 
8033 603  840 
8034 361  357 
8035 123  770 
8036 469  882 
8037 326  933 
8038 236  547 
8039 439  94  
8040 206  383 
8041 12   140 
8042 729  678 
8043 874  60  
8044 498  280 
8045 318  631 
8046 500  894 
8047 138  473 
8048 702  680 
8049 685  695 
8050 427  75  
8051 397  943 
8052 881  660 
8053 523  309 
8054 228  53  
8055 657  763 
8056 638  760 
8057 753  291 
8058 75   315 
8059 248  981 
8060 100  862 
8061 264  90  
8062 229  574 
8063 123  23  
8064 593  331 
8065 99   111 
8066 355  249 
8067 286  949 
8068 820  260 
8069 22   834 
8070 451  788 
8071 31   528 
8072 861  961 
8073 222  133 
8074 706  558 
8075 266  739 
8076 999  887 
8077 395  973 
8078 35   418 
8079 136  575 
8080 145  695 
8081 871  14  
8082 525  396 
8083 624  329 
8084 59   6   
8085 391  63  
8086 250  679 
8087 33   528 
8088 766  2   
8089 685  104 
8090 512  674 
8091 971  839 
8092 76   545 
8093 885  545 
8094 25   805 
8095 915  908 
8096 493  392 
8097 684  55  
8098 197  688 
8099 271  857 
8100 988  733 
8101 755  250 
8102 845  68  
8103 697  181 
8104 660  47  
8105 953  35  
8106 208  38  
8107 261  36  
8108 65   931 
8109 920  835 
8110 613  986 
8111 152  749 
8112 952  84  
8113 899  719 
8114 186  916 
8115 373  534 
8116 541  30  
8117 66   190 
8118 691  689 
8119 527  479 
8120 29   298 
8121 75   436 
8122 852  612 
8123 236  129 
8124 697  369 
8125 222  436 
8126 535  710 
8127 203  345 
8128 869  996 
8129 198  220 
8130 207  294 
8131 209  985 
8132 931  570 
8133 995  675 
8134 326  195 
8135 780  412 
8136 805  831 
8137 775  667 
8138 784  118 
8139 286  508 
8140 567  789 
8141 664  556 
8142 534  49  
8143 186  163 
8144 774  480 
8145 495  159 
8146 232  445 
8147 656  463 
8148 340  936 
8149 400  525 
8150 928  847 
8151 817  220 
8152 711  972 
8153 72   405 
8154 632  173 
8155 966  974 
8156 537  158 
8157 915  793 
8158 774  44  
8159 43   50  
8160 686  680 
8161 919  854 
8162 333  293 
8163 471  699 
8164 937  595 
8165 939  141 
8166 669  60  
8167 427  433 
8168 835  332 
8169 104  194 
8170 602  65  
8171 655  249 
8172 74   550 
8173 113  20  
8174 369  226 
8175 599  300 
8176 170  356 
8177 133  368 
8178 781  388 
8179 13   794 
8180 677  371 
8181 882  691 
8182 649  786 
8183 47   79  
8184 213  179 
8185 252  927 
8186 944  893 
8187 344  173 
8188 37   246 
8189 23   39  
8190 904  783 
8191 175  344 
8192 892  734 
8193 415  329 
8194 184  645 
8195 991  666 
8196 832  49  
8197 101  660 
8198 50   210 
8199 527  612 
8200 322  879 
8201 269  820 
8202 917  632 
8203 442  344 
8204 426  933 
8205 693  993 
8206 40   339 
8207 921  238 
8208 462  142 
8209 35   88  
8210 558  100 
8211 872  939 
8212 618  179 
8213 323  853 
8214 694  356 
8215 399  520 
8216 76   651 
8217 438  38  
8218 214  537 
8219 917  60  
8220 836  44  
8221 430  693 
8222 250  945 
8223 695  251 
8224 128  99  
8225 257  257 
8226 628  142 
8227 930  40  
8228 932  622 
8229 494  91  
8230 738  973 
8231 722  326 
8232 48   744 
8233 11   508 
8234 788  156 
8235 223  281 
8236 186  618 
8237 781  885 
8238 322  122 
8239 227  171 
8240 483  53  
8241 803  838 
8242 937  472 
8243 653  524 
8244 752  457 
8245 934  63  
8246 332  357 
8247 385  978 
8248 152  963 
8249 528  954 
8250 874  820 
8251 41   461 
8252 389  523 
8253 818  687 
8254 984  187 
8255 412  700 
8256 598  362 
8257 912  455 
8258 287  449 
8259 236  495 
8260 448  231 
8261 653  976 
8262 28   483 
8263 791  70  
8264 279  274 
8265 339  127 
8266 325  48  
8267 553  213 
8268 311  253 
8269 576  18  
8270 297  535 
8271 408  388 
8272 832  908 
8273 101  537 
8274 435  641 
8275 520  633 
8276 315  87  
8277 391  218 
8278 658  667 
8279 589  645 
8280 718  475 
8281 607  588 
8282 478  880 
8283 567  99  
8284 219  145 
8285 55   271 
8286 996  511 
8287 788  483 
8288 276  63  
8289 873  29  
8290 926  17  
8291 829  826 
8292 137  352 
8293 967  588 
8294 254  663 
8295 807  116 
8296 756  620 
8297 371  518 
8298 636  10  
8299 484  879 
8300 802  340 
8301 952  441 
8302 493  999 
8303 497  381 
8304 799  986 
8305 605  791 
8306 490  910 
8307 199  42  
8308 40   945 
8309 985  81  
8310 307  125 
8311 888  900 
8312 429  946 
8313 507  514 
8314 154  379 
8315 541  637 
8316 652  462 
8317 834  489 
8318 140  314 
8319 253  671 
8320 520  168 
8321 903  735 
8322 135  625 
8323 642  327 
8324 1    629 
8325 644  777 
8326 409  216 
8327 118  858 
8328 245  476 
8329 945  24  
8330 304  224 
8331 34   473 
8332 804  213 
8333 864  424 
8334 896  403 
8335 384  167 
8336 358  273 
8337 379  514 
8338 508  358 
8339 402  567 
8340 21   431 
8341 519  480 
8342 353  631 
8343 46   594 
8344 233  969 
8345 604  200 
8346 987  240 
8347 438  264 
8348 205  19  
8349 885  721 
8350 392  496 
8351 500  625 
8352 599  967 
8353 530  842 
8354 341  563 
8355 87   19  
8356 470  153 
8357 661  224 
8358 592  671 
8359 811  191 
8360 582  802 
8361 329  996 
8362 651  871 
8363 356  231 
8364 789  765 
8365 65   851 
8366 835  339 
8367 76   117 
8368 459  71  
8369 85   129 
8370 557  787 
8371 908  663 
8372 714  578 
8373 437  949 
8374 709  973 
8375 748  869 
8376 86   388 
8377 951  896 
8378 438  543 
8379 518  819 
8380 456  746 
8381 956  207 
8382 361  659 
8383 469  696 
8384 24   541 
8385 379  851 
8386 895  443 
8387 337  315 
8388 745  454 
8389 413  998 
8390 371  100 
8391 712  872 
8392 140  753 
8393 382  292 
8394 315  381 
8395 428  180 
8396 68   83  
8397 769  16  
8398 474  278 
8399 354  864 
8400 459  436 
8401 793  436 
8402 355  743 
8403 659  287 
8404 237  247 
8405 207  931 
8406 707  491 
8407 963  885 
8408 488  275 
8409 739  986 
8410 596  817 
8411 798  720 
8412 397  297 
8413 973  630 
8414 325  519 
8415 454  181 
8416 80   634 
8417 557  904 
8418 322  475 
8419 520  2   
8420 430  429 
8421 605  609 
8422 718  768 
8423 365  552 
8424 192  98  
8425 49   687 
8426 526  395 
8427 782  817 
8428 736  623 
8429 491  879 
8430 170  840 
8431 788  916 
8432 813  327 
8433 852  275 
8434 513  395 
8435 896  573 
8436 568  842 
8437 847  24  
8438 245  694 
8439 646  760 
8440 284  857 
8441 950  130 
8442 897  54  
8443 827  290 
8444 465  165 
8445 375  958 
8446 243  344 
8447 688  251 
8448 711  721 
8449 826  345 
8450 275  469 
8451 132  458 
8452 595  540 
8453 411  533 
8454 650  154 
8455 643  879 
8456 592  901 
8457 172  729 
8458 262  607 
8459 873  636 
8460 804  826 
8461 866  495 
8462 130  584 
8463 95   112 
8464 735  945 
8465 221  299 
8466 297  235 
8467 684  852 
8468 852  226 
8469 121  88  
8470 365  669 
8471 533  762 
8472 830  648 
8473 466  391 
8474 306  431 
8475 686  186 
8476 875  783 
8477 345  776 
8478 335  953 
8479 928  793 
8480 291  319 
8481 759  794 
8482 261  411 
8483 604  229 
8484 807  384 
8485 777  629 
8486 998  309 
8487 470  882 
8488 995  414 
8489 893  291 
8490 134  487 
8491 692  277 
8492 588  358 
8493 226  675 
8494 890  394 
8495 484  767 
8496 299  706 
8497 230  874 
8498 792  577 
8499 47   145 
8500 130  735 
8501 118  14  
8502 563  175 
8503 166  400 
8504 978  906 
8505 279  83  
8506 892  656 
8507 41   202 
8508 887  623 
8509 156  525 
8510 417  779 
8511 608  610 
8512 511  171 
8513 979  253 
8514 465  519 
8515 301  409 
8516 515  127 
8517 476  129 
8518 3    275 
8519 828  349 
8520 150  177 
8521 597  520 
8522 46   262 
8523 936  998 
8524 103  320 
8525 585  449 
8526 647  153 
8527 580  332 
8528 543  88  
8529 693  619 
8530 250  903 
8531 197  924 
8532 898  465 
8533 24   510 
8534 499  156 
8535 79   408 
8536 584  22  
8537 395  361 
8538 418  202 
8539 720  470 
8540 37   948 
8541 980  836 
8542 565  722 
8543 966  883 
8544 994  796 
8545 242  25  
8546 198  884 
8547 336  237 
8548 511  580 
8549 665  518 
8550 61   661 
8551 997  377 
8552 674  844 
8553 125  558 
8554 812  578 
8555 187  848 
8556 422  217 
8557 83   931 
8558 9    772 
8559 763  5   
8560 800  9   
8561 87   711 
8562 772  103 
8563 297  1   
8564 652  653 
8565 389  561 
8566 781  495 
8567 322  500 
8568 442  753 
8569 815  176 
8570 326  39  
8571 353  244 
8572 724  493 
8573 279  228 
8574 874  446 
8575 987  885 
8576 221  53  
8577 41   951 
8578 447  983 
8579 728  919 
8580 13   265 
8581 799  275 
8582 453  339 
8583 40   264 
8584 3    412 
8585 139  204 
8586 510  239 
8587 556  411 
8588 701  606 
8589 362  814 
8590 664  972 
8591 348  333 
8592 945  997 
8593 841  724 
8594 825  703 
8595 594  4   
8596 216  834 
8597 488  231 
8598 472  748 
8599 234  503 
8600 128  8   
8601 771  718 
8602 471  343 
8603 630  964 
8604 367  806 
8605 323  324 
8606 636  476 
8607 855  162 
8608 569  13  
8609 938  186 
8610 705  733 
8611 977  848 
8612 66   17  
8613 324  969 
8614 481  558 
8615 467  623 
8616 213  95  
8617 342  829 
8618 146  104 
8619 494  616 
8620 464  587 
8621 28   68  
8622 798  608 
8623 268  731 
8624 203  502 
8625 256  839 
8626 994  471 
8627 839  29  
8628 947  68  
8629 22   776 
8630 792  855 
8631 391  445 
8632 47   431 
8633 658  768 
8634 416  635 
8635 914  406 
8636 365  696 
8637 169  341 
8638 524  857 
8639 743  295 
8640 678  470 
8641 120  884 
8642 745  647 
8643 175  440 
8644 415  105 
8645 274  795 
8646 205  517 
8647 666  41  
8648 25   423 
8649 996  784 
8650 193  873 
8651 34   431 
8652 569  802 
8653 721  559 
8654 315  442 
8655 723  41  
8656 979  915 
8657 582  284 
8658 361  424 
8659 513  315 
8660 326  606 
8661 183  227 
8662 561  23  
8663 409  802 
8664 335  932 
8665 289  692 
8666 595  848 
8667 558  324 
8668 475  94  
8669 295  203 
8670 253  349 
8671 594  379 
8672 426  281 
8673 389  403 
8674 924  520 
8675 114  20  
8676 243  456 
8677 190  193 
8678 651  849 
8679 983  412 
8680 471  744 
8681 699  589 
8682 946  818 
8683 270  200 
8684 138  582 
8685 929  945 
8686 325  728 
8687 514  961 
8688 18   240 
8689 661  618 
8690 873  524 
8691 783  187 
8692 255  744 
8693 769  985 
8694 702  41  
8695 612  175 
8696 649  163 
8697 446  747 
8698 545  882 
8699 951  858 
8700 697  687 
8701 471  812 
8702 79   527 
8703 155  87  
8704 217  274 
8705 853  421 
8706 532  846 
8707 438  597 
8708 502  428 
8709 585  1000
8710 486  865 
8711 398  539 
8712 421  666 
8713 838  101 
8714 79   67  
8715 944  712 
8716 28   643 
8717 291  115 
8718 789  464 
8719 604  337 
8720 325  336 
8721 272  356 
8722 516  527 
8723 242  558 
8724 422  810 
8725 650  537 
8726 998  121 
8727 984  535 
8728 751  403 
8729 419  356 
8730 197  935 
8731 220  328 
8732 628  125 
8733 423  293 
8734 487  930 
8735 457  667 
8736 427  63  
8737 798  194 
8738 228  161 
8739 57   63  
8740 940  262 
8741 405  637 
8742 368  691 
8743 384  648 
8744 294  143 
8745 522  994 
8746 293  478 
8747 265  373 
8748 325  589 
8749 682  14  
8750 991  24  
8751 479  308 
8752 458  241 
8753 792  753 
8754 829  478 
8755 596  447 
8756 407  40  
8757 815  159 
8758 504  911 
8759 981  131 
8760 967  432 
8761 681  223 
8762 863  227 
8763 796  824 
8764 155  160 
8765 526  465 
8766 411  346 
8767 731  789 
8768 867  373 
8769 265  817 
8770 71   413 
8771 461  577 
8772 758  249 
8773 463  23  
8774 728  956 
8775 802  671 
8776 827  816 
8777 633  1   
8778 45   915 
8779 559  361 
8780 603  937 
8781 469  787 
8782 568  916 
8783 310  281 
8784 3    419 
8785 948  935 
8786 21   203 
8787 556  432 
8788 263  2   
8789 196  39  
8790 733  200 
8791 332  551 
8792 78   7   
8793 975  319 
8794 493  500 
8795 20   900 
8796 262  73  
8797 453  690 
8798 935  370 
8799 584  102 
8800 547  890 
8801 593  232 
8802 669  307 
8803 436  906 
8804 860  386 
8805 129  550 
8806 461  457 
8807 281  867 
8808 212  945 
8809 214  3   
8810 87   371 
8811 454  530 
8812 311  959 
8813 656  832 
8814 142  975 
8815 843  846 
8816 271  233 
8817 792  384 
8818 561  709 
8819 697  261 
8820 948  178 
8821 397  404 
8822 869  912 
8823 339  765 
8824 71   210 
8825 878  678 
8826 454  222 
8827 772  247 
8828 27   40  
8829 216  31  
8830 866  105 
8831 981  264 
8832 748  5   
8833 628  979 
8834 667  233 
8835 960  29  
8836 176  524 
8837 503  837 
8838 980  199 
8839 793  860 
8840 193  652 
8841 405  31  
8842 633  142 
8843 68   191 
8844 324  193 
8845 974  191 
8846 810  932 
8847 206  37  
8848 849  311 
8849 90   949 
8850 966  946 
8851 733  861 
8852 846  100 
8853 500  544 
8854 638  970 
8855 696  589 
8856 470  840 
8857 327  593 
8858 901  642 
8859 186  371 
8860 582  765 
8861 38   927 
8862 522  88  
8863 446  176 
8864 916  432 
8865 185  426 
8866 964  452 
8867 747  988 
8868 346  927 
8869 934  308 
8870 687  612 
8871 69   861 
8872 341  152 
8873 470  500 
8874 735  296 
8875 133  236 
8876 479  110 
8877 407  370 
8878 400  484 
8879 139  833 
8880 602  273 
8881 740  679 
8882 378  992 
8883 696  453 
8884 952  943 
8885 516  208 
8886 304  622 
8887 435  392 
8888 358  147 
8889 805  976 
8890 720  964 
8891 277  151 
8892 687  476 
8893 671  827 
8894 512  976 
8895 175  552 
8896 858  862 
8897 694  456 
8898 514  98  
8899 438  138 
8900 883  385 
8901 396  666 
8902 695  71  
8903 349  519 
8904 395  291 
8905 902  438 
8906 722  178 
8907 7    214 
8908 210  478 
8909 104  869 
8910 523  188 
8911 673  783 
8912 525  998 
8913 410  863 
8914 878  192 
8915 938  381 
8916 744  164 
8917 797  422 
8918 329  930 
8919 753  426 
8920 725  708 
8921 137  43  
8922 467  812 
8923 213  272 
8924 485  539 
8925 12   925 
8926 476  934 
8927 263  812 
8928 88   678 
8929 397  762 
8930 881  95  
8931 226  780 
8932 673  331 
8933 770  743 
8934 938  945 
8935 479  467 
8936 433  575 
8937 649  819 
8938 190  749 
8939 31   683 
8940 451  943 
8941 469  314 
8942 863  142 
8943 296  128 
8944 630  143 
8945 499  955 
8946 501  73  
8947 819  108 
8948 729  238 
8949 620  0   
8950 117  10  
8951 73   172 
8952 382  166 
8953 900  984 
8954 803  239 
8955 646  587 
8956 339  463 
8957 620  964 
8958 475  159 
8959 862  537 
8960 168  549 
8961 258  699 
8962 742  115 
8963 779  455 
8964 712  930 
8965 737  337 
8966 133  590 
8967 820  648 
8968 107  953 
8969 681  890 
8970 243  137 
8971 928  761 
8972 33   475 
8973 925  196 
8974 0    187 
8975 316  733 
8976 228  49  
8977 800  658 
8978 924  819 
8979 677  581 
8980 649  508 
8981 764  417 
8982 838  984 
8983 713  997 
8984 40   549 
8985 757  728 
8986 169  839 
8987 646  467 
8988 21   814 
8989 351  107 
8990 632  787 
8991 683  205 
8992 782  179 
8993 752  488 
8994 950  869 
8995 203  32  
8996 60   431 
8997 574  49  
8998 523  757 
8999 726  988 
9000 952  777 
9001 645  298 
9002 41   46  
9003 13   176 
9004 421  347 
9005 875  272 
9006 912  294 
9007 732  703 
9008 250  239 
9009 252  817 
9010 554  999 
9011 974  740 
9012 630  26  
9013 870  533 
9014 162  972 
9015 148  655 
9016 849  782 
9017 466  470 
9018 505  260 
9019 468  376 
9020 16   9   
9021 55   168 
9022 546  665 
9023 442  142 
9024 6    519 
9025 82   153 
9026 248  81  
9027 474  543 
9028 900  835 
9029 741  635 
9030 231  649 
9031 395  397 
9032 508  498 
9033 510  320 
9034 828  701 
9035 950  72  
9036 537  21  
9037 756  399 
9038 158  158 
9039 792  116 
9040 907  357 
9041 416  344 
9042 734  840 
9043 381  416 
9044 932  816 
9045 886  647 
9046 833  521 
9047 872  49  
9048 542  435 
9049 30   359 
9050 217  796 
9051 332  123 
9052 406  982 
9053 959  174 
9054 85   285 
9055 419  957 
9056 479  117 
9057 787  247 
9058 623  499 
9059 939  464 
9060 388  362 
9061 28   145 
9062 835  515 
9063 411  27  
9064 662  592 
9065 496  417 
9066 9    740 
9067 191  756 
9068 952  916 
9069 438  611 
9070 642  294 
9071 697  817 
9072 370  847 
9073 741  812 
9074 637  907 
9075 358  244 
9076 496  621 
9077 595  491 
9078 171  915 
9079 339  169 
9080 196  358 
9081 205  752 
9082 486  155 
9083 179  705 
9084 239  305 
9085 799  51  
9086 709  177 
9087 935  563 
9088 10   192 
9089 506  819 
9090 485  34  
9091 312  488 
9092 284  534 
9093 980  747 
9094 655  513 
9095 618  396 
9096 971  756 
9097 733  973 
9098 719  654 
9099 78   258 
9100 189  687 
9101 85   622 
9102 87   48  
9103 149  477 
9104 993  721 
9105 405  579 
9106 691  834 
9107 91   802 
9108 972  873 
9109 63   392 
9110 651  644 
9111 471  695 
9112 812  657 
9113 948  113 
9114 143  401 
9115 791  517 
9116 687  724 
9117 482  479 
9118 200  840 
9119 4    88  
9120 195  975 
9121 972  301 
9122 8    234 
9123 607  3   
9124 554  157 
9125 517  279 
9126 916  868 
9127 895  772 
9128 867  319 
9129 210  742 
9130 239  518 
9131 866  876 
9132 442  356 
9133 988  319 
9134 951  421 
9135 923  396 
9136 895  344 
9137 254  80  
9138 572  941 
9139 646  620 
9140 941  32  
9141 927  93  
9142 272  393 
9143 675  29  
9144 401  912 
9145 698  230 
9146 474  489 
9147 935  676 
9148 310  147 
9149 586  642 
9150 402  653 
9151 918  717 
9152 171  456 
9153 581  653 
9154 323  149 
9155 489  701 
9156 270  428 
9157 846  867 
9158 719  531 
9159 152  267 
9160 786  950 
9161 403  122 
9162 96   760 
9163 797  86  
9164 308  5   
9165 137  187 
9166 907  907 
9167 764  414 
9168 584  748 
9169 930  488 
9170 40   586 
9171 132  122 
9172 743  816 
9173 835  445 
9174 715  211 
9175 346  658 
9176 136  460 
9177 528  958 
9178 484  548 
9179 583  984 
9180 290  877 
9181 578  248 
9182 672  492 
9183 529  437 
9184 921  515 
9185 210  861 
9186 620  144 
9187 892  877 
9188 749  564 
9189 809  359 
9190 396  345 
9191 352  101 
9192 119  929 
9193 266  780 
9194 879  712 
9195 842  475 
9196 609  444 
9197 828  666 
9198 150  394 
9199 279  722 
9200 581  958 
9201 680  385 
9202 138  85  
9203 357  47  
9204 864  861 
9205 977  466 
9206 940  226 
9207 536  495 
9208 100  406 
9209 358  986 
9210 623  26  
9211 964  398 
9212 217  775 
9213 369  76  
9214 281  822 
9215 440  145 
9216 320  423 
9217 308  392 
9218 511  643 
9219 363  392 
9220 40   949 
9221 476  681 
9222 455  440 
9223 948  335 
9224 625  206 
9225 316  241 
9226 761  510 
9227 869  971 
9228 378  950 
9229 691  20  
9230 714  159 
9231 218  846 
9232 903  731 
9233 188  42  
9234 598  485 
9235 538  272 
9236 704  8   
9237 960  162 
9238 176  753 
9239 33   856 
9240 254  398 
9241 724  170 
9242 120  942 
9243 505  756 
9244 567  780 
9245 272  307 
9246 719  113 
9247 25   413 
9248 968  331 
9249 442  126 
9250 760  237 
9251 430  535 
9252 324  126 
9253 875  748 
9254 236  802 
9255 257  419 
9256 3    579 
9257 243  70  
9258 854  954 
9259 637  298 
9260 720  570 
9261 745  153 
9262 996  366 
9263 445  736 
9264 392  500 
9265 371  859 
9266 968  775 
9267 659  406 
9268 366  98  
9269 582  806 
9270 255  878 
9271 354  557 
9272 815  648 
9273 137  17  
9274 213  358 
9275 660  923 
9276 494  369 
9277 964  625 
9278 203  225 
9279 122  787 
9280 428  965 
9281 866  261 
9282 771  298 
9283 517  306 
9284 28   257 
9285 895  867 
9286 761  267 
9287 445  360 
9288 943  217 
9289 265  962 
9290 505  453 
9291 73   154 
9292 679  832 
9293 684  942 
9294 813  718 
9295 529  159 
9296 40   380 
9297 554  762 
9298 651  396 
9299 10   540 
9300 192  343 
9301 957  576 
9302 724  829 
9303 175  647 
9304 846  328 
9305 615  181 
9306 945  905 
9307 230  157 
9308 447  263 
9309 659  871 
9310 98   867 
9311 105  69  
9312 589  427 
9313 183  446 
9314 370  355 
9315 868  742 
9316 160  557 
9317 828  928 
9318 46   989 
9319 971  580 
9320 636  360 
9321 85   478 
9322 507  420 
9323 825  15  
9324 751  905 
9325 345  178 
9326 725  671 
9327 109  74  
9328 19   158 
9329 826  530 
9330 95   907 
9331 337  583 
9332 692  127 
9333 971  128 
9334 161  610 
9335 145  165 
9336 553  288 
9337 809  846 
9338 311  720 
9339 13   870 
9340 804  631 
9341 135  663 
9342 31   582 
9343 706  736 
9344 840  690 
9345 390  626 
9346 196  677 
9347 452  719 
9348 454  373 
9349 991  534 
9350 887  961 
9351 13   298 
9352 126  141 
9353 684  545 
9354 227  778 
9355 301  111 
9356 785  418 
9357 738  629 
9358 385  222 
9359 846  471 
9360 251  539 
9361 682  691 
9362 617  926 
9363 564  691 
9364 582  588 
9365 674  62  
9366 432  957 
9367 363  867 
9368 547  820 
9369 798  903 
9370 752  657 
9371 846  915 
9372 539  642 
9373 80   173 
9374 705  702 
9375 170  35  
9376 105  526 
9377 626  408 
9378 331  124 
9379 958  43  
9380 381  826 
9381 365  341 
9382 554  92  
9383 351  134 
9384 579  931 
9385 523  856 
9386 182  771 
9387 643  303 
9388 889  502 
9389 317  869 
9390 529  69  
9391 623  889 
9392 990  148 
9393 925  791 
9394 625  621 
9395 982  859 
9396 475  499 
9397 645  793 
9398 887  858 
9399 463  338 
9400 546  738 
9401 945  247 
9402 410  330 
9403 968  336 
9404 186  245 
9405 68   241 
9406 884  115 
9407 831  596 
9408 471  69  
9409 699  174 
9410 224  782 
9411 390  53  
9412 987  235 
9413 129  829 
9414 590  52  
9415 869  195 
9416 484  167 
9417 94   802 
9418 142  724 
9419 695  504 
9420 739  568 
9421 372  707 
9422 674  181 
9423 33   59  
9424 416  173 
9425 199  370 
9426 879  252 
9427 275  98  
9428 646  183 
9429 268  809 
9430 512  183 
9431 436  215 
9432 313  501 
9433 539  543 
9434 578  59  
9435 564  122 
9436 433  712 
9437 947  882 
9438 677  421 
9439 972  231 
9440 407  180 
9441 942  571 
9442 531  224 
9443 326  428 
9444 861  569 
9445 990  967 
9446 812  783 
9447 736  717 
9448 420  176 
9449 701  1   
9450 867  233 
9451 908  812 
9452 343  905 
9453 306  154 
9454 329  75  
9455 776  390 
9456 644  645 
9457 533  907 
9458 992  227 
9459 913  573 
9460 325  305 
9461 48   154 
9462 659  842 
9463 917  14  
9464 873  450 
9465 582  490 
9466 158  994 
9467 181  259 
9468 370  380 
9469 372  402 
9470 764  940 
9471 600  693 
9472 305  495 
9473 141  833 
9474 660  215 
9475 932  604 
9476 962  395 
9477 413  65  
9478 920  939 
9479 975  975 
9480 996  254 
9481 712  269 
9482 569  388 
9483 200  481 
9484 901  333 
9485 603  165 
9486 368  722 
9487 100  233 
9488 402  7   
9489 441  731 
9490 565  146 
9491 203  113 
9492 913  290 
9493 991  121 
9494 576  612 
9495 1000 708 
9496 202  138 
9497 792  720 
9498 981  164 
9499 250  158 
9500 630  245 
9501 939  752 
9502 909  24  
9503 782  862 
9504 588  729 
9505 934  949 
9506 849  991 
9507 994  128 
9508 745  798 
9509 874  442 
9510 339  77  
9511 295  782 
9512 712  544 
9513 13   261 
9514 534  233 
9515 495  967 
9516 59   203 
9517 262  492 
9518 444  391 
9519 965  35  
9520 370  559 
9521 153  51  
9522 63   528 
9523 37   737 
9524 955  98  
9525 851  181 
9526 745  346 
9527 874  126 
9528 270  773 
9529 348  329 
9530 613  467 
9531 461  934 
9532 228  951 
9533 101  143 
9534 154  574 
9535 546  268 
9536 871  927 
9537 103  497 
9538 841  728 
9539 306  853 
9540 864  151 
9541 873  79  
9542 368  897 
9543 755  47  
9544 167  997 
9545 877  512 
9546 328  707 
9547 630  984 
9548 259  835 
9549 90   69  
9550 881  342 
9551 60   813 
9552 673  66  
9553 569  17  
9554 825  127 
9555 440  219 
9556 133  88  
9557 27   461 
9558 859  424 
9559 610  622 
9560 137  238 
9561 621  430 
9562 605  809 
9563 252  695 
9564 289  443 
9565 757  670 
9566 14   23  
9567 473  823 
9568 240  230 
9569 173  718 
9570 544  46  
9571 196  881 
9572 431  234 
9573 770  544 
9574 682  340 
9575 772  214 
9576 170  640 
9577 631  923 
9578 320  61  
9579 601  92  
9580 585  615 
9581 156  851 
9582 112  191 
9583 149  534 
9584 98   510 
9585 301  315 
9586 391  441 
9587 891  679 
9588 540  376 
9589 886  510 
9590 729  433 
9591 166  702 
9592 249  852 
9593 417  529 
9594 509  139 
9595 382  107 
9596 174  375 
9597 68   158 
9598 79   318 
9599 478  809 
9600 289  840 
9601 634  946 
9602 194  583 
9603 613  344 
9604 544  817 
9605 523  32  
9606 103  618 
9607 659  608 
9608 440  298 
9609 668  658 
9610 578  528 
9611 262  935 
9612 640  115 
9613 345  499 
9614 538  606 
9615 319  931 
9616 33   30  
9617 17   625 
9618 976  74  
9619 441  817 
9620 261  102 
9621 90   456 
9622 521  178 
9623 530  448 
9624 437  583 
9625 739  219 
9626 591  922 
9627 506  90  
9628 363  319 
9629 296  244 
9630 706  291 
9631 448  479 
9632 948  484 
9633 217  278 
9634 715  51  
9635 74   393 
9636 574  378 
9637 952  590 
9638 408  748 
9639 652  439 
9640 654  349 
9641 527  977 
9642 179  895 
9643 509  476 
9644 329  174 
9645 442  407 
9646 391  306 
9647 619  189 
9648 981  446 
9649 467  56  
9650 476  186 
9651 365  809 
9652 637  945 
9653 395  132 
9654 178  268 
9655 418  767 
9656 745  496 
9657 874  148 
9658 897  843 
9659 309  583 
9660 168  409 
9661 825  537 
9662 580  341 
9663 195  241 
9664 965  285 
9665 333  163 
9666 478  916 
9667 819  888 
9668 215  67  
9669 402  604 
9670 717  398 
9671 475  815 
9672 673  808 
9673 357  271 
9674 48   315 
9675 405  633 
9676 933  583 
9677 368  695 
9678 77   785 
9679 649  400 
9680 912  974 
9681 303  435 
9682 593  307 
9683 616  108 
9684 194  414 
9685 489  842 
9686 187  843 
9687 316  941 
9688 853  242 
9689 691  376 
9690 140  466 
9691 467  265 
9692 361  782 
9693 944  827 
9694 888  616 
9695 46   190 
9696 32   536 
9697 182  526 
9698 553  170 
9699 170  890 
9700 500  229 
9701 887  539 
9702 373  145 
9703 306  362 
9704 278  908 
9705 723  135 
9706 68   304 
9707 757  428 
9708 118  638 
9709 284  879 
9710 466  134 
9711 876  701 
9712 537  105 
9713 846  413 
9714 498  311 
9715 802  863 
9716 237  602 
9717 20   896 
9718 529  654 
9719 310  857 
9720 628  204 
9721 487  851 
9722 254  554 
9723 275  419 
9724 976  244 
9725 946  916 
9726 858  248 
9727 489  635 
9728 777  886 
9729 461  453 
9730 237  158 
9731 848  77  
9732 541  102 
9733 299  263 
9734 458  428 
9735 416  936 
9736 623  399 
9737 146  1   
9738 169  160 
9739 284  151 
9740 344  442 
9741 164  621 
9742 860  962 
9743 113  323 
9744 904  60  
9745 78   899 
9746 498  703 
9747 892  467 
9748 251  477 
9749 862  239 
9750 779  777 
9751 142  271 
9752 808  182 
9753 681  72  
9754 24   837 
9755 67   950 
9756 339  61  
9757 415  112 
9758 839  632 
9759 989  11  
9760 666  478 
9761 652  93  
9762 486  15  
9763 954  341 
9764 338  14  
9765 469  932 
9766 128  880 
9767 884  5   
9768 79   293 
9769 651  364 
9770 614  154 
9771 641  39  
9772 971  792 
9773 0    425 
9774 883  116 
9775 99   933 
9776 530  793 
9777 94   872 
9778 592  738 
9779 405  991 
9780 797  301 
9781 370  67  
9782 704  879 
9783 206  741 
9784 937  715 
9785 90   501 
9786 754  44  
9787 129  695 
9788 39   396 
9789 83   868 
9790 288  16  
9791 659  3   
9792 991  190 
9793 80   338 
9794 506  71  
9795 568  54  
9796 787  788 
9797 570  652 
9798 208  581 
9799 715  22  
9800 865  613 
9801 415  673 
9802 108  181 
9803 576  879 
9804 117  385 
9805 218  772 
9806 822  919 
9807 257  813 
9808 439  477 
9809 335  28  
9810 549  374 
9811 948  837 
9812 754  948 
9813 261  894 
9814 851  114 
9815 927  457 
9816 858  858 
9817 131  562 
9818 546  591 
9819 110  630 
9820 534  468 
9821 555  679 
9822 993  822 
9823 22   312 
9824 84   609 
9825 234  306 
9826 928  866 
9827 231  547 
9828 238  261 
9829 738  853 
9830 985  992 
9831 309  38  
9832 293  993 
9833 212  791 
9834 945  742 
9835 447  104 
9836 855  127 
9837 548  581 
9838 20   158 
9839 405  612 
9840 225  872 
9841 850  669 
9842 299  417 
9843 543  706 
9844 644  442 
9845 510  938 
9846 95   856 
9847 542  281 
9848 639  799 
9849 692  430 
9850 397  758 
9851 293  293 
9852 701  424 
9853 574  910 
9854 422  139 
9855 341  41  
9856 770  739 
9857 578  68  
9858 209  751 
9859 36   616 
9860 723  686 
9861 762  904 
9862 799  781 
9863 485  987 
9864 577  53  
9865 840  833 
9866 127  143 
9867 588  659 
9868 148  768 
9869 724  435 
9870 800  387 
9871 362  284 
9872 145  306 
9873 878  956 
9874 606  59  
9875 357  519 
9876 304  413 
9877 433  255 
9878 391  322 
9879 130  168 
9880 616  905 
9881 166  901 
9882 567  203 
9883 590  792 
9884 832  720 
9885 456  228 
9886 223  678 
9887 977  326 
9888 776  951 
9889 707  877 
9890 935  325 
9891 997  28  
9892 176  370 
9893 254  527 
9894 720  383 
9895 464  61  
9896 263  473 
9897 858  229 
9898 164  950 
9899 590  212 
9900 765  370 
9901 103  879 
9902 772  708 
9903 954  675 
9904 350  1000
9905 246  649 
9906 1000 445 
9907 679  55  
9908 651  606 
9909 238  972 
9910 900  183 
9911 618  790 
9912 731  733 
9913 307  213 
9914 330  862 
9915 717  930 
9916 97   569 
9917 226  927 
9918 212  350 
9919 57   623 
9920 424  422 
9921 502  227 
9922 216  8   
9923 783  440 
9924 465  863 
9925 630  30  
9926 637  882 
9927 35   426 
9928 480  235 
9929 597  816 
9930 620  247 
9931 309  952 
9932 438  852 
9933 809  320 
9934 629  79  
9935 214  783 
9936 382  81  
9937 292  825 
9938 610  300 
9939 421  923 
9940 979  993 
9941 488  580 
9942 607  681 
9943 432  59  
9944 720  686 
9945 632  42  
9946 171  742 
9947 941  502 
9948 55   360 
9949 392  616 
9950 341  587 
9951 682  649 
9952 147  510 
9953 495  470 
9954 246  856 
9955 566  15  
9956 845  124 
9957 635  552 
9958 254  698 
9959 937  750 
9960 501  695 
9961 526  600 
9962 194  193 
9963 411  723 
9964 143  8   
9965 892  159 
9966 530  502 
9967 470  493 
9968 311  811 
9969 373  542 
9970 463  668 
9971 262  537 
9972 949  369 
9973 700  953 
9974 815  344 
9975 319  553 
9976 835  519 
9977 909  308 
9978 231  438 
9979 754  461 
9980 867  182 
9981 634  151 
9982 657  180 
9983 362  434 
9984 691  117 
9985 550  264 
9986 407  809 
9987 121  26  
9988 734  196 
9989 554  598 
9990 766  757 
9991 88   508 
9992 72   961 
9993 948  866 
9994 851  89  
9995 83   195 
9996 966  378 
9997 288  893 
9998 823  135 
9999 373  406 
10000 903  252 
10001 965  323 
10002 241  681 
10003 3    672 
10004 153  339 
10005 462  455 
10006 637  459 
10007 863  793 
10008 21   460 
10009 208  333 
10010 46   625 
10011 731  187 
10012 78   262 
10013 599  992 
10014 426  190 
10015 156  459 
10016 730  992 
10017 986  406 
10018 972  869 
10019 423  863 
10020 750  86  
10021 579  170 
10022 156  911 
10023 449  179 
10024 179  470 
10025 933  193 
10026 329  453 
10027 38   431 
10028 658  88  
10029 787  900 
10030 526  483 
10031 268  311 
10032 830  949 
10033 136  641 
10034 83   272 
10035 883  761 
10036 585  839 
10037 306  160 
10038 594  527 
10039 248  175 
10040 819  723 
10041 289  620 
10042 572  937 
10043 41   704 
10044 975  333 
10045 922  379 
10046 825  620 
10047 788  352 
10048 811  577 
10049 845  802 
10050 93   541 
10051 95   532 
10052 738  965 
10053 0    212 
10054 113  893 
10055 885  771 
10056 871  752 
10057 765  365 
10058 267  590 
10059 945  630 
10060 659  320 
10061 569  450 
10062 894  595 
10063 73   819 
10064 412  240 
10065 165  408 
10066 697  471 
10067 773  106 
10068 856  688 
10069 30   605 
10070 240  181 
10071 9    838 
10072 874  828 
10073 636  819 
10074 518  577 
10075 350  73  
10076 117  322 
10077 424  459 
10078 467  220 
10079 340  86  
10080 900  272 
10081 782  788 
10082 957  306 
10083 468  353 
10084 996  931 
10085 931  984 
10086 903  294 
10087 135  184 
10088 227  811 
10089 220  32  
10090 612  866 
10091 63   554 
10092 651  294 
10093 58   438 
10094 298  633 
10095 632  15  
10096 23   628 
10097 390  409 
10098 175  809 
10099 567  123 
10100 129  129 
10101 975  726 
10102 993  563 
10103 59   689 
10104 444  909 
10105 271  844 
10106 591  407 
10107 974  261 
10108 884  387 
10109 372  607 
10110 780  710 
10111 160  967 
10112 609  636 
10113 159  680 
10114 588  270 
10115 270  319 
10116 694  823 
10117 664  454 
10118 899  730 
10119 389  804 
10120 857  324 
10121 126  963 
10122 181  642 
10123 619  718 
10124 381  987 
10125 683  849 
10126 501  278 
10127 344  79  
10128 705  219 
10129 502  275 
10130 857  768 
10131 239  868 
10132 421  727 
10133 84   119 
10134 40   501 
10135 3    139 
10136 757  136 
10137 600  205 
10138 201  6   
10139 83   38  
10140 590  603 
10141 832  799 
10142 408  279 
10143 463  307 
10144 373  433 
10145 230  26  
10146 103  232 
10147 292  905 
10148 262  289 
10149 54   903 
10150 257  423 
10151 409  796 
10152 245  536 
10153 547  2   
10154 298  748 
10155 134  126 
10156 962  535 
10157 445  764 
10158 9    480 
10159 396  780 
10160 555  285 
10161 926  132 
10162 656  920 
10163 347  375 
10164 720  122 
10165 65   811 
10166 99   468 
10167 998  788 
10168 514  899 
10169 235  532 
10170 899  583 
10171 652  821 
10172 601  171 
10173 716  172 
10174 467  438 
10175 160  286 
10176 711  107 
10177 771  302 
10178 718  957 
10179 826  975 
10180 402  439 
10181 501  155 
10182 145  360 
10183 168  23  
10184 576  180 
10185 193  612 
10186 352  451 
10187 336  824 
10188 232  889 
10189 488  643 
10190 748  289 
10191 884  865 
10192 614  446 
10193 478  534 
10194 12   254 
10195 162  719 
10196 699  412 
10197 992  130 
10198 475  173 
10199 76   664 
10200 85   934 
10201 534  441 
10202 578  873 
10203 225  503 
10204 172  26  
10205 656  343 
10206 988  916 
10207 354  888 
10208 116  847 
10209 102  814 
10210 600  660 
10211 95   563 
10212 828  956 
10213 390  131 
10214 814  635 
10215 881  762 
10216 629  696 
10217 152  308 
10218 696  689 
10219 324  929 
10220 808  713 
10221 130  973 
10222 42   1   
10223 208  793 
10224 632  737 
10225 192  702 
10226 969  986 
10227 881  6   
10228 498  590 
10229 982  260 
10230 795  227 
10231 587  69  
10232 329  341 
10233 739  414 
10234 725  223 
10235 672  453 
10236 469  401 
10237 17   240 
10238 79   854 
10239 727  970 
10240 761  148 
10241 733  326 
10242 527  668 
10243 783  774 
10244 419  19  
10245 366  640 
10246 905  908 
10247 407  530 
10248 771  855 
10249 928  902 
10250 266  789 
10251 432  117 
10252 953  565 
10253 291  442 
10254 104  589 
10255 858  634 
10256 525  574 
10257 140  540 
10258 419  431 
10259 647  111 
10260 640  199 
10261 91   103 
10262 128  491 
10263 100  511 
10264 63   245 
10265 600  799 
10266 683  424 
10267 104  9   
10268 858  190 
10269 233  683 
10270 830  312 
10271 189  400 
10272 869  286 
10273 800  763 
10274 657  678 
10275 87   305 
10276 313  364 
10277 186  994 
10278 52   15  
10279 753  142 
10280 368  364 
10281 248  818 
10282 326  309 
10283 471  948 
10284 895  961 
10285 291  687 
10286 53   532 
10287 551  309 
10288 122  41  
10289 251  391 
10290 991  451 
10291 615  599 
10292 691  63  
10293 89   337 
10294 790  433 
10295 573  63  
10296 442  547 
10297 287  345 
10298 109  767 
10299 40   26  
10300 335  77  
10301 865  210 
10302 867  572 
10303 46   387 
10304 763  767 
10305 809  507 
10306 258  403 
10307 283  972 
10308 569  839 
10309 232  623 
10310 552  290 
10311 3    618 
10312 8    832 
10313 851  479 
10314 708  60  
10315 157  338 
10316 113  574 
10317 355  585 
10318 523  65  
10319 85   688 
10320 945  695 
10321 394  183 
10322 940  366 
10323 82   642 
10324 836  303 
10325 589  81  
10326 536  99  
10327 522  26  
10328 704  937 
10329 252  421 
10330 275  102 
10331 812  711 
10332 941  997 
10333 639  940 
10334 233  528 
10335 99   443 
10336 251  212 
10337 913  425 
10338 645  114 
10339 151  862 
10340 522  606 
10341 598  173 
10342 377  287 
10343 31   740 
10344 252  617 
10345 109  816 
10346 577  102 
10347 946  277 
10348 883  771 
10349 666  295 
10350 405  290 
10351 213  709 
10352 144  84  
10353 254  2   
10354 275  891 
10355 270  898 
10356 876  553 
10357 590  715 
10358 163  191 
10359 594  137 
10360 723  343 
10361 345  669 
10362 414  12  
10363 702  739 
10364 868  719 
10365 508  238 
10366 141  893 
10367 720  462 
10368 669  411 
10369 7    788 
10370 814  604 
10371 634  856 
10372 475  780 
10373 371  719 
10374 9    368 
10375 705  600 
10376 322  8   
10377 587  540 
10378 536  238 
10379 612  441 
10380 522  897 
10381 393  243 
10382 801  222 
10383 416  60  
10384 365  247 
10385 476  868 
10386 743  998 
10387 143  296 
10388 904  80  
10389 136  58  
10390 726  899 
10391 938  883 
10392 170  281 
10393 647  793 
10394 359  767 
10395 382  548 
10396 98   103 
10397 813  918 
10398 635  436 
10399 377  420 
10400 965  747 
10401 222  220 
10402 810  472 
10403 588  725 
10404 457  429 
10405 791  16  
10406 904  748 
10407 984  265 
10408 89   939 
10409 783  813 
10410 511  452 
10411 135  882 
10412 619  23  
10413 642  66  
10414 1    330 
10415 326  987 
10416 409  989 
10417 796  735 
10418 245  729 
10419 448  629 
10420 893  861 
10421 870  228 
10422 14   772 
10423 519  281 
10424 7    453 
10425 429  371 
10426 528  244 
10427 846  508 
10428 431  894 
10429 419  434 
10430 292  652 
10431 882  259 
10432 310  824 
10433 815  853 
10434 12   658 
10435 416  267 
10436 570  228 
10437 660  102 
10438 517  955 
10439 789  838 
10440 989  799 
10441 906  373 
10442 855  186 
10443 638  574 
10444 530  585 
10445 493  21  
10446 901  62  
10447 463  717 
10448 670  373 
10449 781  728 
10450 527  404 
10451 677  519 
10452 227  6   
10453 467  631 
10454 393  376 
10455 160  93  
10456 621  426 
10457 886  822 
10458 501  348 
10459 505  138 
10460 784  625 
10461 18   825 
10462 631  919 
10463 36   853 
10464 663  152 
10465 317  860 
10466 232  952 
10467 504  829 
10468 1    539 
10469 236  268 
10470 653  51  
10471 526  259 
10472 508  652 
10473 201  76  
10474 187  417 
10475 641  580 
10476 438  786 
10477 274  787 
10478 244  37  
10479 894  187 
10480 714  261 
10481 89   816 
10482 225  304 
10483 375  738 
10484 965  148 
10485 271  551 
10486 439  877 
10487 374  834 
10488 510  386 
10489 298  530 
10490 353  581 
10491 323  125 
10492 620  765 
10493 929  269 
10494 507  377 
10495 968  245 
10496 931  459 
10497 4    599 
10498 850  777 
10499 940  139 
10500 963  58  
10501 232  48  
10502 730  851 
10503 38   946 
10504 204  398 
10505 884  472 
10506 674  170 
10507 489  961 
10508 473  452 
10509 498  913 
10510 189  256 
10511 380  429 
10512 643  743 
10513 472  187 
10514 271  351 
10515 278  457 
10516 84   264 
10517 208  548 
10518 30   893 
10519 383  141 
10520 574  382 
10521 120  587 
10522 687  69  
10523 145  422 
10524 537  932 
10525 387  481 
10526 795  492 
10527 691  175 
10528 585  912 
10529 568  529 
10530 222  950 
10531 499  335 
10532 729  514 
10533 487  278 
10534 576  266 
10535 357  887 
10536 124  582 
10537 968  420 
10538 894  38  
10539 121  524 
10540 439  998 
10541 983  229 
10542 879  436 
10543 556  121 
10544 346  141 
10545 55   551 
10546 422  750 
10547 161  112 
10548 509  576 
10549 578  739 
10550 142  840 
10551 247  18  
10552 360  942 
10553 588  238 
10554 740  433 
10555 136  31  
10556 592  376 
10557 334  829 
10558 924  95  
10559 140  462 
10560 329  387 
10561 852  809 
10562 245  128 
10563 526  473 
10564 224  389 
10565 62   729 
10566 302  40  
10567 541  661 
10568 50   144 
10569 841  235 
10570 61   496 
10571 151  370 
10572 317  614 
10573 983  570 
10574 141  521 
10575 508  410 
10576 367  337 
10577 150  313 
10578 837  401 
10579 332  607 
10580 447  382 
10581 140  598 
10582 901  517 
10583 684  411 
10584 564  705 
10585 806  642 
10586 347  171 
10587 831  341 
10588 229  131 
10589 176  273 
10590 711  771 
10591 674  496 
10592 363  913 
10593 56   839 
10594 254  558 
10595 720  350 
10596 494  25  
10597 828  777 
10598 632  378 
10599 655  968 
10600 60   774 
10601 371  639 
10602 108  634 
10603 696  774 
10604 532  244 
10605 795  586 
10606 179  289 
10607 933  968 
10608 165  350 
10609 725  374 
10610 971  107 
10611 551  367 
10612 558  697 
10613 353  432 
10614 286  924 
10615 887  292 
10616 389  585 
10617 283  474 
10618 269  35  
10619 700  265 
10620 882  612 
10621 451  765 
10622 197  257 
10623 697  969 
10624 476  344 
10625 487  120 
10626 849  867 
10627 404  540 
10628 888  759 
10629 115  934 
10630 177  63  
10631 179  601 
10632 571  363 
10633 239  457 
10634 262  368 
10635 70   477 
10636 266  206 
10637 996  441 
10638 534  665 
10639 684  14  
10640 557  280 
10641 587  989 
10642 822  132 
10643 732  258 
10644 54   306 
10645 439  716 
10646 778  470 
10647 780  648 
10648 416  379 
10649 734  815 
10650 381  605 
10651 109  290 
10652 240  430 
10653 920  682 
10654 846  552 
10655 735  272 
10656 647  606 
10657 308  334 
10658 695  882 
10659 511  833 
10660 271  378 
10661 716  67  
10662 144  578 
10663 568  58  
10664 577  188 
10665 540  32  
10666 51   21  
10667 127  262 
10668 136  309 
10669 302  134 
10670 514  566 
10671 288  464 
10672 908  866 
10673 322  755 
10674 767  455 
10675 843  319 
10676 308  898 
10677 575  972 
10678 317  972 
10679 836  716 
10680 248  323 
10681 746  590 
10682 912  244 
10683 896  745 
10684 70   140 
10685 644  715 
10686 176  703 
10687 969  118 
10688 791  277 
10689 337  396 
10690 157  697 
10691 90   716 
10692 304  162 
10693 633  291 
10694 488  814 
10695 951  241 
10696 383  864 
10697 918  597 
10698 872  707 
10699 574  630 
10700 742  824 
10701 281  513 
10702 800  543 
10703 548  577 
10704 788  48  
10705 938  357 
10706 977  137 
10707 603  115 
10708 234  754 
10709 808  792 
10710 427  406 
10711 14   218 
10712 588  203 
10713 346  746 
10714 445  230 
10715 874  936 
10716 507  789 
10717 200  875 
10718 246  498 
10719 783  307 
10720 308  721 
10721 792  670 
10722 605  554 
10723 476  482 
10724 916  775 
10725 222  10  
10726 616  561 
10727 895  801 
10728 969  679 
10729 466  347 
10730 874  620 
10731 763  403 
10732 885  108 
10733 193  546 
10734 255  164 
10735 679  774 
10736 649  759 
10737 444  469 
10738 488  733 
10739 693  970 
10740 838  237 
10741 515  154 
10742 847  81  
10743 206  331 
10744 614  324 
10745 849  597 
10746 480  400 
10747 23   512 
10748 888  13  
10749 978  115 
10750 194  642 
10751 284  768 
10752 943  723 
10753 950  245 
10754 182  99  
10755 348  159 
10756 968  52  
10757 788  263 
10758 954  107 
10759 917  101 
10760 760  950 
10761 769  86  
10762 347  78  
10763 257  378 
10764 884  287 
10765 423  429 
10766 621  924 
10767 162  185 
10768 72   295 
10769 699  898 
10770 171  45  
10771 590  216 
10772 994  993 
10773 431  644 
10774 878  87  
10775 260  508 
10776 133  10  
10777 428  698 
10778 949  488 
10779 398  102 
10780 227  240 
10781 56   488 
10782 402  172 
10783 296  439 
10784 902  609 
10785 464  637 
10786 526  781 
10787 946  561 
10788 122  216 
10789 505  208 
10790 415  583 
10791 924  463 
10792 783  388 
10793 142  308 
10794 38   325 
10795 114  983 
10796 465  851 
10797 799  626 
10798 363  60  
10799 628  960 
10800 810  629 
10801 616  700 
10802 28   474 
10803 72   602 
10804 953  951 
10805 143  827 
10806 314  763 
10807 791  127 
10808 390  572 
10809 505  268 
10810 749  529 
10811 274  969 
10812 258  450 
10813 281  99  
10814 366  702 
10815 737  58  
10816 956  284 
10817 45   27  
10818 926  700 
10819 1    157 
10820 854  834 
10821 450  399 
10822 332  943 
10823 638  983 
10824 663  986 
10825 299  207 
10826 695  421 
10827 458  868 
10828 354  693 
10829 711  659 
10830 967  549 
10831 699  543 
10832 683  498 
10833 494  137 
10834 886  671 
10835 994  628 
10836 431  265 
10837 274  52  
10838 313  426 
10839 96   790 
10840 938  95  
10841 790  819 
10842 460  414 
10843 630  301 
10844 902  732 
10845 743  710 
10846 729  12  
10847 51   56  
10848 807  593 
10849 23   422 
10850 429  907 
10851 438  635 
10852 832  178 
10853 562  359 
10854 50   83  
10855 585  990 
10856 472  257 
10857 571  543 
10858 880  142 
10859 737  779 
10860 981  384 
10861 538  383 
10862 796  571 
10863 268  252 
10864 687  451 
10865 136  854 
10866 747  220 
10867 90   745 
10868 235  256 
10869 55   53  
10870 756  166 
10871 629  208 
10872 509  82  
10873 571  219 
10874 954  193 
10875 917  443 
10876 186  183 
10877 667  733 
10878 997  894 
10879 817  200 
10880 711  960 
10881 125  19  
10882 937  899 
10883 812  69  
10884 685  977 
10885 964  152 
10886 858  391 
10887 362  566 
10888 452  436 
10889 113  708 
10890 765  468 
10891 601  712 
10892 121  918 
10893 739  630 
10894 455  202 
10895 19   54  
10896 494  276 
10897 895  712 
10898 673  422 
10899 645  72  
10900 518  718 
10901 527  180 
10902 435  68  
10903 430  329 
10904 160  317 
10905 400  364 
10906 757  954 
10907 939  581 
10908 178  177 
10909 821  681 
10910 611  221 
10911 966  41  
10912 408  517 
10913 871  356 
10914 396  478 
10915 253  973 
10916 188  856 
10917 603  891 
10918 810  879 
10919 909  873 
10920 125  356 
10921 291  46  
10922 480  501 
10923 233  195 
10924 477  472 
10925 25   207 
10926 371  77  
10927 343  499 
10928 979  763 
10929 564  779 
10930 29   640 
10931 543  26  
10932 158  60  
10933 513  211 
10934 63   865 
10935 824  551 
10936 132  558 
10937 775  196 
10938 941  732 
10939 590  253 
10940 459  333 
10941 777  800 
10942 9    142 
10943 636  395 
10944 765  361 
10945 493  102 
10946 479  151 
10947 502  732 
10948 13   767 
10949 216  501 
10950 458  414 
10951 199  165 
10952 646  492 
10953 388  500 
10954 558  647 
10955 740  366 
10956 353  398 
10957 265  720 
10958 138  686 
10959 680  753 
10960 274  286 
10961 356  885 
10962 250  208 
10963 605  602 
10964 658  203 
10965 515  878 
10966 856  240 
10967 268  422 
10968 595  333 
10969 505  375 
10970 491  836 
10971 878  816 
10972 297  515 
10973 857  635 
10974 426  796 
10975 776  719 
10976 278  853 
10977 852  314 
10978 822  662 
10979 54   780 
10980 1    176 
10981 384  312 
10982 224  918 
10983 210  153 
10984 565  545 
10985 106  454 
10986 664  782 
10987 975  722 
10988 11   217 
10989 251  572 
10990 594  450 
10991 578  991 
10992 774  198 
10993 979  516 
10994 746  281 
10995 232  159 
10996 536  503 
10997 702  548 
10998 815  783 
10999 750  304 
11000 632  463 
11001 284  372 
11002 346  941 
11003 650  165 
11004 9    59  
11005 800  794 
11006 364  825 
11007 809  604 
11008 901  116 
11009 744  935 
11010 617  447 
11011 449  93  
11012 714  707 
11013 345  28  
11014 619  706 
11015 515  543 
11016 660  604 
11017 28   134 
11018 565  345 
11019 777  361 
11020 438  668 
11021 576  829 
11022 744  611 
11023 818  982 
11024 472  294 
11025 202  115 
11026 956  72  
11027 352  332 
11028 84   115 
11029 875  152 
11030 785  176 
11031 577  310 
11032 379  978 
11033 305  971 
11034 692  737 
11035 895  58  
11036 715  640 
11037 44   432 
11038 482  549 
11039 106  137 
11040 876  405 
11041 590  607 
11042 537  337 
11043 883  467 
11044 645  870 
11045 666  119 
11046 334  409 
11047 961  689 
11048 396  708 
11049 179  748 
11050 714  347 
11051 110  576 
11052 555  853 
11053 598  953 
11054 870  473 
11055 432  143 
11056 510  472 
11057 450  319 
11058 360  417 
11059 694  90  
11060 16   605 
11061 318  382 
11062 555  273 
11063 59   590 
11064 68   656 
11065 384  767 
11066 621  673 
11067 990  622 
11068 40   748 
11069 540  649 
11070 192  551 
11071 708  983 
11072 434  476 
11073 969  849 
11074 164  693 
11075 816  560 
11076 982  397 
11077 749  142 
11078 108  282 
11079 744  786 
11080 230  781 
11081 269  383 
11082 179  449 
11083 753  36  
11084 868  499 
11085 614  886 
11086 26   455 
11087 577  71  
11088 692  816 
11089 58   980 
11090 496  297 
11091 353  144 
11092 279  136 
11093 173  389 
11094 620  50  
11095 691  233 
11096 601  363 
11097 412  926 
11098 163  256 
11099 993  465 
11100 663  87  
11101 149  733 
11102 174  128 
11103 476  120 
11104 547  375 
11105 35   171 
11106 879  554 
11107 185  538 
11108 699  400 
11109 687  435 
11110 943  549 
11111 339  289 
11112 323  868 
11113 768  535 
11114 779  425 
11115 110  463 
11116 730  600 
11117 693  596 
11118 451  89  
11119 815  993 
11120 266  46  
11121 713  415 
11122 660  242 
11123 312  352 
11124 556  67  
11125 567  349 
11126 113  852 
11127 802  462 
11128 419  866 
11129 795  699 
11130 119  203 
11131 670  233 
11132 216  538 
11133 68   539 
11134 414  555 
11135 882  115 
11136 584  761 
11137 471  575 
11138 19   166 
11139 810  103 
11140 132  143 
11141 960  536 
11142 192  690 
11143 344  493 
11144 648  229 
11145 99   69  
11146 415  905 
11147 809  950 
11148 170  760 
11149 795  231 
11150 398  1000
11151 352  534 
11152 829  28  
11153 430  441 
11154 490  748 
11155 967  370 
11156 706  760 
11157 178  1   
11158 904  651 
11159 279  285 
11160 913  835 
11161 168  134 
11162 230  452 
11163 608  660 
11164 382  3   
11165 75   745 
11166 488  626 
11167 345  911 
11168 896  521 
11169 927  213 
11170 332  609 
11171 689  416 
11172 394  12  
11173 548  365 
11174 389  375 
11175 320  1000
11176 121  855 
11177 114  184 
11178 467  984 
11179 690  861 
11180 630  831 
11181 632  436 
11182 155  631 
11183 941  620 
11184 233  687 
11185 20   506 
11186 820  97  
11187 702  69  
11188 227  39  
11189 139  790 
11190 985  64  
11191 701  132 
11192 226  100 
11193 537  824 
11194 80   737 
11195 585  516 
11196 322  674 
11197 70   95  
11198 130  384 
11199 554  920 
11200 831  920 
11201 12   92  
11202 969  391 
11203 992  864 
11204 224  218 
11205 761  37  
11206 120  923 
11207 657  290 
11208 417  566 
11209 804  166 
11210 594  782 
11211 29   577 
11212 345  788 
11213 732  128 
11214 257  94  
11215 370  449 
11216 37   819 
11217 618  442 
11218 16   626 
11219 673  944 
11220 48   419 
11221 696  527 
11222 659  389 
11223 592  672 
11224 20   201 
11225 216  692 
11226 488  441 
11227 843  625 
11228 702  436 
11229 393  74  
11230 132  289 
11231 388  203 
11232 330  614 
11233 459  86  
11234 228  281 
11235 915  427 
11236 276  759 
11237 117  527 
11238 695  948 
11239 520  488 
11240 596  595 
11241 672  35  
11242 545  811 
11243 593  615 
11244 577  122 
11245 960  366 
11246 722  901 
11247 307  505 
11248 143  615 
11249 256  905 
11250 249  74  
11251 106  581 
11252 693  955 
11253 197  76  
11254 831  781 
11255 840  464 
11256 729  611 
11257 291  24  
11258 510  108 
11259 662  121 
11260 519  672 
11261 957  563 
11262 136  779 
11263 505  620 
11264 422  845 
11265 115  237 
11266 357  872 
11267 470  601 
11268 290  179 
11269 223  883 
11270 573  628 
11271 721  765 
11272 760  101 
11273 889  583 
11274 564  861 
11275 907  433 
11276 215  124 
11277 826  195 
11278 789  957 
11279 480  523 
11280 501  927 
11281 962  387 
11282 337  918 
11283 708  163 
11284 99   620 
11285 800  601 
11286 401  514 
11287 20   348 
11288 954  734 
11289 647  337 
11290 6    347 
11291 940  477 
11292 209  365 
11293 963  900 
11294 730  953 
11295 38   840 
11296 310  749 
11297 333  644 
11298 372  862 
11299 838  931 
11300 17   707 
11301 56   23  
11302 132  148 
11303 526  892 
11304 946  576 
11305 503  357 
11306 865  880 
11307 355  178 
11308 85   5   
11309 599  399 
11310 839  412 
11311 952  832 
11312 41   487 
11313 207  534 
11314 585  738 
11315 308  651 
11316 165  14  
11317 368  150 
11318 882  528 
11319 889  340 
11320 317  195 
11321 190  595 
11322 896  994 
11323 342  638 
11324 19   585 
11325 386  988 
11326 549  121 
11327 491  894 
11328 770  233 
11329 27   752 
11330 945  341 
11331 440  875 
11332 202  374 
11333 956  179 
11334 6    590 
11335 965  43  
11336 490  77  
11337 220  118 
11338 681  764 
11339 702  982 
11340 884  925 
11341 344  650 
11342 953  540 
11343 201  263 
11344 976  651 
11345 21   244 
11346 558  453 
11347 196  14  
11348 823  931 
11349 129  83  
11350 590  858 
11351 244  274 
11352 214  638 
11353 401  819 
11354 292  648 
11355 149  257 
11356 225  635 
11357 29   811 
11358 414  255 
11359 513  102 
11360 845  137 
11361 884  337 
11362 335  667 
11363 764  831 
11364 416  271 
11365 289  119 
11366 342  397 
11367 826  342 
11368 759  756 
11369 466  681 
11370 821  465 
11371 752  878 
11372 627  414 
11373 664  404 
11374 590  278 
11375 385  693 
11376 78   554 
11377 696  805 
11378 555  26  
11379 43   974 
11380 924  845 
11381 820  142 
11382 504  645 
11383 531  66  
11384 289  435 
11385 388  417 
11386 178  845 
11387 782  113 
11388 881  138 
11389 203  482 
11390 60   361 
11391 415  537 
11392 438  682 
11393 862  178 
11394 424  100 
11395 4    352 
11396 631  915 
11397 75   829 
11398 619  824 
11399 838  474 
11400 303  805 
11401 400  12  
11402 93   177 
11403 921  478 
11404 588  580 
11405 662  967 
11406 791  161 
11407 353  925 
11408 724  132 
11409 634  262 
11410 956  454 
11411 797  966 
11412 45   97  
11413 375  766 
11414 785  554 
11415 257  113 
11416 810  911 
11417 831  571 
11418 353  601 
11419 941  312 
11420 466  984 
11421 376  934 
11422 286  119 
11423 475  938 
11424 55   686 
11425 560  84  
11426 885  747 
11427 313  36  
11428 901  747 
11429 105  330 
11430 986  453 
11431 589  168 
11432 935  444 
11433 596  900 
11434 868  993 
11435 146  271 
11436 402  933 
11437 21   573 
11438 925  23  
11439 964  547 
11440 512  164 
11441 551  125 
11442 189  284 
11443 906  484 
11444 530  312 
11445 454  992 
11446 825  268 
11447 41   285 
11448 721  419 
11449 947  865 
11450 126  824 
11451 815  286 
11452 838  661 
11453 706  315 
11454 134  816 
11455 501  173 
11456 60   252 
11457 23   488 
11458 369  619 
11459 2    293 
11460 117  110 
11461 64   22  
11462 11   561 
11463 728  61  
11464 158  563 
11465 693  934 
11466 808  4   
11467 741  874 
11468 409  127 
11469 690  472 
11470 49   416 
11471 176  862 
11472 625  757 
11473 687  389 
11474 874  156 
11475 528  18  
11476 106  34  
11477 196  416 
11478 733  71  
11479 537  484 
11480 975  446 
11481 827  127 
11482 873  493 
11483 232  483 
11484 345  644 
11485 326  705 
11486 727  271 
11487 909  766 
11488 789  920 
11489 501  954 
11490 450  328 
11491 0    7   
11492 807  260 
11493 717  390 
11494 498  124 
11495 371  758 
11496 177  913 
11497 124  6   
11498 18   407 
11499 96   559 
11500 977  234 
11501 216  548 
11502 910  678 
11503 859  202 
11504 829  558 
11505 545  95  
11506 854  451 
11507 711  462 
11508 713  769 
11509 697  388 
11510 759  450 
11511 427  503 
11512 604  685 
11513 934  506 
11514 574  941 
11515 83   914 
11516 355  153 
11517 48   895 
11518 765  990 
11519 606  450 
11520 820  356 
11521 195  881 
11522 956  868 
11523 605  523 
11524 808  307 
11525 93   471 
11526 840  868 
11527 420  8   
11528 574  489 
11529 92   640 
11530 631  633 
11531 562  416 
11532 712  525 
11533 783  724 
11534 444  500 
11535 338  147 
11536 845  672 
11537 600  497 
11538 12   167 
11539 805  622 
11540 404  201 
11541 390  492 
11542 768  700 
11543 491  721 
11544 371  7   
11545 871  882 
11546 11   118 
11547 237  594 
11548 301  993 
11549 241  480 
11550 741  467 
11551 674  12  
11552 72   326 
11553 171  10  
11554 671  457 
11555 830  362 
11556 138  800 
11557 103  904 
11558 267  652 
11559 364  648 
11560 290  743 
11561 403  444 
11562 811  75  
11563 170  81  
11564 186  564 
11565 375  8   
11566 522  797 
11567 545  212 
11568 363  465 
11569 921  901 
11570 630  433 
11571 321  997 
11572 35   819 
11573 53   550 
11574 551  363 
11575 346  592 
11576 574  216 
11577 253  708 
11578 677  162 
11579 377  24  
11580 967  281 
11581 914  423 
11582 439  320 
11583 494  917 
11584 351  628 
11585 616  667 
11586 376  463 
11587 475  389 
11588 689  847 
11589 841  20  
11590 970  880 
11591 827  217 
11592 186  195 
11593 686  140 
11594 211  364 
11595 345  802 
11596 10   356 
11597 817  124 
11598 870  104 
11599 563  624 
11600 955  234 
11601 314  222 
11602 685  957 
11603 581  892 
11604 747  396 
11605 551  532 
11606 537  254 
11607 445  681 
11608 599  776 
11609 251  742 
11610 161  210 
11611 569  717 
11612 915  953 
11613 698  43  
11614 262  944 
11615 910  636 
11616 935  411 
11617 778  466 
11618 418  453 
11619 494  168 
11620 782  421 
11621 747  968 
11622 844  166 
11623 890  612 
11624 138  599 
11625 894  792 
11626 811  452 
11627 463  633 
11628 209  618 
11629 591  905 
11630 981  109 
11631 540  60  
11632 434  179 
11633 904  943 
11634 175  248 
11635 749  291 
11636 260  922 
11637 417  861 
11638 520  878 
11639 45   813 
11640 709  326 
11641 453  24  
11642 326  798 
11643 628  682 
11644 741  885 
11645 729  553 
11646 37   426 
11647 611  525 
11648 81   618 
11649 749  871 
11650 71   895 
11651 689  196 
11652 548  137 
11653 278  686 
11654 746  14  
11655 529  556 
11656 257  481 
11657 997  927 
11658 600  711 
11659 261  314 
11660 194  975 
11661 837  631 
11662 966  805 
11663 860  312 
11664 498  89  
11665 78   357 
11666 800  531 
11667 998  394 
11668 85   535 
11669 440  418 
11670 557  393 
11671 656  998 
11672 52   247 
11673 345  363 
11674 716  302 
11675 446  43  
11676 768  462 
11677 648  820 
11678 108  348 
11679 463  962 
11680 728  369 
11681 29   404 
11682 382  534 
11683 813  840 
11684 522  567 
11685 990  96  
11686 65   337 
11687 434  38  
11688 535  396 
11689 166  497 
11690 120  703 
11691 466  343 
11692 46   171 
11693 399  953 
11694 387  373 
11695 11   641 
11696 177  153 
11697 804  450 
11698 608  707 
11699 59   157 
11700 331  656 
11701 151  357 
11702 554  696 
11703 335  873 
11704 35   101 
11705 120  123 
11706 798  386 
11707 249  601 
11708 429  293 
11709 551  766 
11710 242  690 
11711 115  128 
11712 998  197 
11713 431  844 
11714 638  44  
11715 894  442 
11716 401  873 
11717 36   488 
11718 479  560 
11719 557  186 
11720 617  983 
11721 488  157 
11722 451  19  
11723 628  241 
11724 439  530 
11725 868  672 
11726 794  527 
11727 727  255 
11728 487  806 
11729 471  445 
11730 111  138 
11731 224  614 
11732 519  147 
11733 155  932 
11734 694  927 
11735 971  518 
11736 551  770 
11737 703  967 
11738 544  564 
11739 468  532 
11740 507  102 
11741 274  189 
11742 518  472 
11743 977  890 
11744 389  156 
11745 781  650 
11746 414  609 
11747 972  59  
11748 368  319 
11749 238  980 
11750 937  293 
11751 683  825 
11752 425  217 
11753 743  841 
11754 669  870 
11755 164  626 
11756 346  637 
11757 551  326 
11758 189  1   
11759 482  13  
11760 69   571 
11761 657  823 
11762 961  217 
11763 322  533 
11764 329  279 
11765 292  365 
11766 476  369 
11767 743  269 
11768 503  884 
11769 339  40  
11770 468  396 
11771 664  689 
11772 832  999 
11773 827  188 
11774 903  259 
11775 361  450 
11776 305  315 
11777 141  661 
11778 492  899 
11779 634  896 
11780 618  13  
11781 980  628 
11782 157  415 
11783 242  809 
11784 816  24  
11785 998  368 
11786 431  977 
11787 225  718 
11788 82   721 
11789 543  364 
11790 564  637 
11791 52   393 
11792 621  525 
11793 146  709 
11794 962  163 
11795 104  71  
11796 268  880 
11797 53   146 
11798 359  535 
11799 243  858 
11800 264  245 
11801 787  771 
11802 990  798 
11803 655  312 
11804 597  9   
11805 890  5   
11806 763  369 
11807 710  280 
11808 883  884 
11809 705  184 
11810 804  292 
11811 663  227 
11812 903  560 
11813 278  71  
11814 211  160 
11815 446  793 
11816 734  204 
11817 628  599 
11818 79   921 
11819 934  653 
11820 330  385 
11821 775  651 
11822 7    285 
11823 966  370 
11824 477  351 
11825 140  785 
11826 417  508 
11827 276  305 
11828 956  403 
11829 559  630 
11830 672  858 
11831 667  721 
11832 499  217 
11833 826  114 
11834 148  90  
11835 556  175 
11836 738  838 
11837 565  663 
11838 422  728 
11839 237  855 
11840 661  277 
11841 691  846 
11842 907  522 
11843 893  509 
11844 683  99  
11845 118  388 
11846 180  239 
11847 256  567 
11848 187  797 
11849 60   517 
11850 200  884 
11851 541  355 
11852 209  762 
11853 299  632 
11854 820  430 
11855 179  478 
11856 165  95  
11857 264  352 
11858 84   353 
11859 672  109 
11860 144  982 
11861 118  64  
11862 840  814 
11863 178  173 
11864 572  381 
11865 316  35  
11866 120  676 
11867 295  855 
11868 991  650 
11869 447  872 
11870 841  213 
11871 783  670 
11872 608  568 
11873 382  183 
11874 956  226 
11875 529  880 
11876 197  2   
11877 490  28  
11878 810  875 
11879 222  623 
11880 280  754 
11881 118  524 
11882 139  137 
11883 508  616 
11884 992  165 
11885 353  893 
11886 104  549 
11887 429  448 
11888 876  623 
11889 733  146 
11890 606  640 
11891 516  680 
11892 385  186 
11893 906  844 
11894 802  813 
11895 915  758 
11896 901  567 
11897 668  966 
11898 543  6   
11899 497  948 
11900 416  446 
11901 289  928 
11902 570  19  
11903 208  176 
11904 480  565 
11905 925  243 
11906 980  898 
11907 46   772 
11908 588  403 
11909 380  197 
11910 850  549 
11911 428  723 
11912 472  867 
11913 384  553 
11914 995  369 
11915 575  117 
11916 338  948 
11917 734  558 
11918 810  70  
11919 411  945 
11920 60   408 
11921 687  877 
11922 597  239 
11923 394  816 
11924 94   171 
11925 43   603 
11926 908  989 
11927 89   297 
11928 398  971 
11929 204  558 
11930 481  407 
11931 444  29  
11932 24   791 
11933 5    956 
11934 282  211 
11935 247  761 
11936 503  659 
11937 805  133 
11938 553  197 
11939 643  71  
11940 945  147 
11941 871  21  
11942 790  5   
11943 979  972 
11944 324  255 
11945 310  446 
11946 257  34  
11947 24   723 
11948 116  121 
11949 162  353 
11950 618  22  
11951 784  332 
11952 620  584 
11953 76   558 
11954 719  820 
11955 334  210 
11956 101  205 
11957 871  985 
11958 177  693 
11959 684  60  
11960 668  857 
11961 449  533 
11962 285  391 
11963 195  25  
11964 898  766 
11965 333  443 
11966 280  313 
11967 102  632 
11968 711  682 
11969 397  559 
11970 574  881 
11971 242  198 
11972 998  657 
11973 198  549 
11974 412  67  
11975 910  454 
11976 264  218 
11977 672  183 
11978 688  722 
11979 847  990 
11980 494  562 
11981 812  883 
11982 192  876 
11983 736  873 
11984 696  283 
11985 576  817 
11986 52   558 
11987 398  598 
11988 679  707 
11989 861  833 
11990 296  903 
11991 478  403 
11992 600  213 
11993 127  904 
11994 597  680 
11995 466  90  
11996 258  334 
11997 629  199 
11998 645  866 
11999 253  211 
12000 573  512 
12001 520  660 
12002 172  415 
12003 746  52  
12004 79   504 
12005 245  992 
12006 637  318 
12007 824  645 
12008 215  136 
12009 148  71  
12010 858  428 
12011 936  642 
12012 103  676 
12013 200  413 
12014 225  830 
12015 670  102 
12016 211  895 
12017 391  515 
12018 695  465 
12019 935  70  
12020 130  846 
12021 863  736 
12022 134  434 
12023 872  77  
12024 639  841 
12025 602  122 
12026 969  853 
12027 865  772 
12028 203  157 
12029 994  736 
12030 920  707 
12031 740  460 
12032 69   764 
12033 431  389 
12034 652  813 
12035 285  576 
12036 472  121 
12037 255  342 
12038 22   541 
12039 331  142 
12040 460  490 
12041 123  288 
12042 252  900 
12043 400  261 
12044 623  631 
12045 476  560 
12046 577  91  
12047 305  696 
12048 14   288 
12049 37   193 
12050 429  791 
12051 350  299 
12052 398  733 
12053 658  561 
12054 750  854 
12055 224  116 
12056 482  692 
12057 641  275 
12058 55   417 
12059 112  808 
12060 940  120 
12061 285  301 
12062 105  49  
12063 319  210 
12064 803  257 
12065 932  635 
12066 466  533 
12067 461  270 
12068 525  837 
12069 631  443 
12070 170  160 
12071 204  71  
12072 612  68  
12073 651  512 
12074 713  991 
12075 386  635 
12076 26   658 
12077 535  535 
12078 701  267 
12079 62   351 
12080 122  170 
12081 108  393 
12082 38   311 
12083 331  315 
12084 361  972 
12085 838  334 
12086 697  638 
12087 37   374 
12088 876  315 
12089 235  197 
12090 897  602 
12091 809  374 
12092 244  189 
12093 80   950 
12094 463  477 
12095 165  611 
12096 797  850 
12097 799  228 
12098 949  663 
12099 515  309 
12100 951  41  
12101 137  959 
12102 791  497 
12103 44   154 
12104 724  980 
12105 157  469 
12106 249  556 
12107 67   331 
12108 537  47  
12109 422  539 
12110 673  575 
12111 431  795 
12112 698  90  
12113 488  50  
12114 822  203 
12115 128  483 
12116 882  350 
12117 935  296 
12118 538  562 
12119 868  797 
12120 884  432 
12121 416  302 
12122 273  619 
12123 146  763 
12124 132  442 
12125 270  296 
12126 39   469 
12127 703  50  
12128 198  574 
12129 470  435 
12130 454  596 
12131 825  160 
12132 403  502 
12133 924  172 
12134 308  441 
12135 294  124 
12136 702  73  
12137 333  986 
12138 584  616 
12139 490  923 
12140 1    956 
12141 56   321 
12142 478  120 
12143 563  306 
12144 187  518 
12145 648  20  
12146 431  147 
12147 288  387 
12148 477  849 
12149 495  701 
12150 956  929 
12151 278  157 
12152 248  502 
12153 836  671 
12154 451  699 
12155 453  105 
12156 328  285 
12157 595  449 
12158 957  698 
12159 740  830 
12160 874  264 
12161 735  613 
12162 615  19  
12163 27   554 
12164 11   865 
12165 954  275 
12166 186  249 
12167 495  881 
12168 426  680 
12169 384  172 
12170 220  424 
12171 524  176 
12172 729  854 
12173 715  807 
12174 745  168 
12175 936  679 
12176 521  543 
12177 461  244 
12178 975  590 
12179 64   866 
12180 689  337 
12181 177  517 
12182 659  393 
12183 924  611 
12184 156  405 
12185 582  823 
12186 831  28  
12187 471  669 
12188 692  485 
12189 360  774 
12190 627  712 
12191 256  577 
12192 521  219 
12193 83   806 
12194 825  301 
12195 311  846 
12196 308  268 
12197 255  701 
12198 347  814 
12199 545  815 
12200 451  1000
12201 123  263 
12202 967  16  
12203 517  449 
12204 178  227 
12205 360  706 
12206 88   93  
12207 969  756 
12208 53   737 
12209 316  117 
12210 300  658 
12211 106  577 
12212 92   748 
12213 364  265 
12214 553  6   
12215 311  306 
12216 705  323 
12217 405  298 
12218 649  644 
12219 598  609 
12220 303  591 
12221 54   707 
12222 607  509 
12223 499  304 
12224 651  415 
12225 782  539 
12226 328  136 
12227 745  473 
12228 173  96  
12229 567  176 
12230 906  690 
12231 945  920 
12232 124  609 
12233 486  376 
12234 555  729 
12235 315  352 
12236 405  238 
12237 135  437 
12238 820  707 
12239 15   611 
12240 607  945 
12241 100  345 
12242 817  311 
12243 342  266 
12244 111  59  
12245 759  639 
12246 272  891 
12247 364  628 
12248 682  913 
12249 539  824 
12250 260  335 
12251 170  205 
12252 133  967 
12253 933  608 
12254 769  711 
12255 38   844 
12256 213  474 
12257 912  805 
12258 70   573 
12259 939  288 
12260 669  983 
12261 178  978 
12262 627  597 
12263 256  732 
12264 311  707 
12265 938  891 
12266 677  222 
12267 889  344 
12268 465  800 
12269 619  963 
12270 568  259 
12271 19   589 
12272 683  594 
12273 923  227 
12274 653  950 
12275 240  803 
12276 865  304 
12277 23   130 
12278 274  916 
12279 576  60  
12280 857  517 
12281 993  69  
12282 336  960 
12283 338  114 
12284 965  23  
12285 54   862 
12286 914  727 
12287 499  445 
12288 851  321 
12289 339  405 
12290 694  281 
12291 258  629 
12292 500  640 
12293 154  514 
12294 945  789 
12295 525  529 
12296 172  162 
12297 513  122 
12298 363  882 
12299 21   692 
12300 427  133 
12301 542  14  
12302 671  430 
12303 293  724 
12304 189  387 
12305 885  934 
12306 87   292 
12307 952  403 
12308 848  36  
12309 170  48  
12310 557  580 
12311 527  412 
12312 804  823 
12313 22   732 
12314 584  589 
12315 697  306 
12316 425  23  
12317 731  543 
12318 445  445 
12319 800  148 
12320 325  903 
12321 438  686 
12322 592  470 
12323 408  877 
12324 1000 955 
12325 889  485 
12326 444  234 
12327 965  856 
12328 303  801 
12329 93   141 
12330 282  108 
12331 743  343 
12332 49   303 
12333 231  3   
12334 948  729 
12335 535  75  
12336 166  682 
12337 595  292 
12338 558  152 
12339 858  958 
12340 576  439 
12341 968  289 
12342 783  958 
12343 276  352 
12344 993  210 
12345 234  150 
12346 716  790 
12347 257  117 
12348 185  795 
12349 81   154 
12350 353  605 
12351 390  58  
12352 228  814 
12353 350  729 
12354 313  40  
12355 774  111 
12356 601  701 
12357 428  431 
12358 195  460 
12359 114  4   
12360 637  184 
12361 185  471 
12362 5    196 
12363 242  307 
12364 378  339 
12365 765  581 
12366 198  590 
12367 313  484 
12368 96   980 
12369 412  488 
12370 160  480 
12371 490  555 
12372 921  755 
12373 282  831 
12374 35   605 
12375 904  846 
12376 687  77  
12377 198  10  
12378 182  655 
12379 691  183 
12380 322  814 
12381 398  747 
12382 762  224 
12383 808  8   
12384 19   867 
12385 3    294 
12386 847  425 
12387 519  699 
12388 150  186 
12389 943  619 
12390 989  249 
12391 862  633 
12392 590  756 
12393 500  986 
12394 638  192 
12395 50   601 
12396 375  591 
12397 232  487 
12398 241  623 
12399 586  601 
12400 860  287 
12401 332  864 
12402 25   632 
12403 281  742 
12404 765  406 
12405 938  320 
12406 601  522 
12407 857  432 
12408 308  120 
12409 536  155 
12410 919  680 
12411 584  679 
12412 824  150 
12413 471  525 
12414 259  677 
12415 388  71  
12416 851  915 
12417 782  275 
12418 655  3   
12419 948  63  
12420 240  380 
12421 920  536 
12422 99   51  
12423 597  272 
12424 636  250 
12425 378  230 
12426 161  692 
12427 578  191 
12428 193  219 
12429 165  21  
12430 771  333 
12431 10   953 
12432 335  266 
12433 782  847 
12434 466  310 
12435 710  221 
12436 193  519 
12437 908  176 
12438 804  481 
12439 571  470 
12440 799  302 
12441 451  436 
12442 3    403 
12443 63   739 
12444 561  365 
12445 192  456 
12446 466  890 
12447 475  200 
12448 537  117 
12449 793  227 
12450 189  954 
12451 650  700 
12452 530  918 
12453 470  973 
12454 534  282 
12455 603  357 
12456 949  785 
12457 785  784 
12458 778  171 
12459 870  317 
12460 102  651 
12461 12   743 
12462 849  118 
12463 427  152 
12464 397  960 
12465 143  236 
12466 129  566 
12467 920  807 
12468 613  102 
12469 890  733 
12470 431  673 
12471 403  448 
12472 119  146 
12473 730  53  
12474 688  609 
12475 416  932 
12476 824  33  
12477 109  233 
12478 623  403 
12479 937  262 
12480 386  516 
12481 501  335 
12482 895  563 
12483 678  31  
12484 597  165 
12485 147  530 
12486 4    137 
12487 463  820 
12488 283  466 
12489 781  367 
12490 931  606 
12491 112  128 
12492 511  24  
12493 995  839 
12494 801  642 
12495 605  412 
12496 342  738 
12497 296  982 
12498 409  281 
12499 245  29  
12500 524  678 
12501 830  742 
12502 710  72  
12503 758  836 
12504 767  158 
12505 783  933 
12506 112  588 
12507 926  643 
12508 896  466 
12509 241  725 
12510 702  938 
12511 497  675 
12512 563  628 
12513 819  926 
12514 676  829 
12515 558  313 
12516 872  576 
12517 104  746 
12518 286  28  
12519 362  686 
12520 152  96  
12521 73   546 
12522 424  864 
12523 350  738 
12524 246  947 
12525 707  191 
12526 299  32  
12527 564  604 
12528 391  720 
12529 142  750 
12530 587  981 
12531 893  265 
12532 418  449 
12533 171  251 
12534 925  14  
12535 708  930 
12536 332  398 
12537 830  405 
12538 498  866 
12539 484  721 
12540 514  970 
12541 569  141 
12542 548  922 
12543 811  312 
12544 700  592 
12545 790  726 
12546 522  652 
12547 905  284 
12548 423  519 
12549 981  105 
12550 764  367 
12551 70   824 
12552 877  200 
12553 499  830 
12554 588  780 
12555 457  278 
12556 350  378 
12557 244  921 
12558 359  504 
12559 889  85  
12560 287  252 
12561 469  761 
12562 499  378 
12563 201  196 
12564 888  394 
12565 64   715 
12566 283  875 
12567 841  901 
12568 684  309 
12569 59   960 
12570 776  824 
12571 234  294 
12572 552  735 
12573 547  964 
12574 395  339 
12575 471  36  
12576 328  782 
12577 789  911 
12578 383  872 
12579 132  646 
12580 551  901 
12581 115  375 
12582 484  0   
12583 945  530 
12584 825  964 
12585 682  967 
12586 391  581 
12587 582  856 
12588 458  566 
12589 61   635 
12590 854  440 
12591 983  284 
12592 19   91  
12593 494  315 
12594 35   913 
12595 551  457 
12596 293  297 
12597 756  825 
12598 518  685 
12599 652  759 
12600 527  145 
12601 89   445 
12602 368  68  
12603 799  753 
12604 400  335 
12605 19   535 
12606 335  305 
12607 856  72  
12608 178  76  
12609 83   313 
12610 853  293 
12611 122  273 
12612 710  246 
12613 239  555 
12614 75   570 
12615 165  692 
12616 331  660 
12617 709  439 
12618 801  916 
12619 743  88  
12620 14   858 
12621 185  596 
12622 111  722 
12623 927  38  
12624 491  744 
12625 684  424 
12626 557  182 
12627 693  406 
12628 414  169 
12629 972  627 
12630 10   26  
12631 817  410 
12632 780  618 
12633 932  957 
12634 976  773 
12635 159  524 
12636 733  695 
12637 369  492 
12638 560  339 
12639 855  132 
12640 873  957 
12641 566  456 
12642 38   177 
12643 384  520 
12644 458  445 
12645 220  780 
12646 649  492 
12647 338  919 
12648 561  712 
12649 17   362 
12650 342  795 
12651 365  154 
12652 847  810 
12653 960  582 
12654 321  28  
12655 798  542 
12656 549  668 
12657 807  724 
12658 277  825 
12659 78   944 
12660 680  724 
12661 348  610 
12662 936  382 
12663 408  823 
12664 587  7   
12665 536  711 
12666 748  18  
12667 107  154 
12668 197  276 
12669 785  24  
12670 870  517 
12671 743  265 
12672 653  993 
12673 196  739 
12674 325  1   
12675 749  521 
12676 989  58  
12677 737  50  
12678 172  267 
12679 529  974 
12680 605  123 
12681 914  768 
12682 612  777 
12683 497  646 
12684 879  765 
12685 992  479 
12686 42   954 
12687 81   848 
12688 427  876 
12689 376  884 
12690 362  843 
12691 177  726 
12692 158  142 
12693 785  928 
12694 497  194 
12695 24   238 
12696 561  953 
12697 467  918 
12698 907  661 
12699 787  331 
12700 238  43  
12701 5    138 
12702 207  766 
12703 27   364 
12704 195  562 
12705 716  80  
12706 790  715 
12707 354  241 
12708 504  734 
12709 886  851 
12710 139  852 
12711 819  150 
12712 731  930 
12713 291  529 
12714 383  255 
12715 443  698 
12716 874  650 
12717 339  893 
12718 429  899 
12719 657  160 
12720 987  953 
12721 408  642 
12722 654  375 
12723 456  654 
12724 250  386 
12725 109  701 
12726 266  514 
12727 12   98  
12728 602  846 
12729 72   973 
12730 58   672 
12731 934  641 
12732 853  575 
12733 733  25  
12734 71   662 
12735 297  749 
12736 59   935 
12737 684  338 
12738 98   899 
12739 400  625 
12740 755  799 
12741 153  351 
12742 909  688 
12743 759  940 
12744 337  91  
12745 798  248 
12746 371  772 
12747 800  524 
12748 11   375 
12749 357  505 
12750 73   946 
12751 864  899 
12752 82   576 
12753 642  702 
12754 635  945 
12755 928  287 
12756 983  379 
12757 365  64  
12758 759  272 
12759 134  413 
12760 369  150 
12761 60   513 
12762 339  586 
12763 454  777 
12764 18   13  
12765 682  36  
12766 398  832 
12767 619  528 
12768 485  938 
12769 490  580 
12770 918  341 
12771 39   852 
12772 369  722 
12773 390  978 
12774 378  864 
12775 987  818 
12776 454  469 
12777 18   721 
12778 408  525 
12779 945  282 
12780 608  572 
12781 788  816 
12782 36   61  
12783 905  808 
12784 391  333 
12785 236  548 
12786 554  705 
12787 386  335 
12788 462  226 
12789 14   895 
12790 533  981 
12791 111  697 
12792 58   311 
12793 558  120 
12794 491  527 
12795 516  660 
12796 719  943 
12797 638  53  
12798 550  895 
12799 370  182 
12800 381  278 
12801 466  756 
12802 30   397 
12803 473  304 
12804 950  290 
12805 846  883 
12806 228  14  
12807 800  647 
12808 48   668 
12809 945  610 
12810 553  945 
12811 532  198 
12812 864  542 
12813 848  115 
12814 811  121 
12815 795  668 
12816 543  582 
12817 345  159 
12818 75   258 
12819 679  6   
12820 561  675 
12821 469  6   
12822 902  626 
12823 925  307 
12824 631  988 
12825 156  790 
12826 566  809 
12827 942  264 
12828 317  773 
12829 361  941 
12830 801  728 
12831 19   647 
12832 948  520 
12833 480  220 
12834 316  434 
12835 528  362 
12836 567  907 
12837 311  201 
12838 357  923 
12839 871  17  
12840 179  619 
12841 331  868 
12842 903  282 
12843 391  198 
12844 250  668 
12845 785  639 
12846 474  520 
12847 241  771 
12848 384  304 
12849 983  921 
12850 570  366 
12851 208  483 
12852 962  660 
12853 279  738 
12854 413  812 
12855 689  453 
12856 82   742 
12857 792  105 
12858 229  230 
12859 750  312 
12860 826  264 
12861 683  385 
12862 955  612 
12863 42   283 
12864 194  206 
12865 164  778 
12866 574  885 
12867 682  218 
12868 661  555 
12869 82   810 
12870 820  76  
12871 513  620 
12872 520  256 
12873 504  707 
12874 584  903 
12875 515  519 
12876 914  8   
12877 697  360 
12878 990  807 
12879 856  263 
12880 572  451 
12881 60   303 
12882 279  15  
12883 191  707 
12884 378  966 
12885 341  306 
12886 235  979 
12887 145  495 
12888 424  34  
12889 691  100 
12890 654  152 
12891 398  602 
12892 112  245 
12893 827  612 
12894 774  941 
12895 188  58  
12896 875  144 
12897 490  446 
12898 296  907 
12899 780  485 
12900 49   373 
12901 432  379 
12902 766  714 
12903 305  963 
12904 676  214 
12905 224  253 
12906 97   97  
12907 867  581 
12908 413  637 
12909 876  397 
12910 76   793 
12911 11   910 
12912 728  684 
12913 968  379 
12914 889  991 
12915 137  581 
12916 819  821 
12917 289  770 
12918 824  649 
12919 662  461 
12920 976  964 
12921 722  216 
12922 812  90  
12923 823  890 
12924 807  337 
12925 438  284 
12926 385  384 
12927 846  137 
12928 869  232 
12929 500  589 
12930 534  634 
12931 555  265 
12932 663  834 
12933 121  897 
12934 859  191 
12935 61   561 
12936 868  935 
12937 460  34  
12938 815  664 
12939 462  944 
12940 17   555 
12941 416  216 
12942 132  268 
12943 886  519 
12944 464  308 
12945 962  47  
12946 284  455 
12947 673  401 
12948 380  495 
12949 557  895 
12950 435  115 
12951 308  739 
12952 204  908 
12953 294  778 
12954 407  233 
12955 545  968 
12956 35   535 
12957 865  452 
12958 353  168 
12959 212  101 
12960 800  361 
12961 69   316 
12962 966  58  
12963 784  814 
12964 145  356 
12965 477  7   
12966 117  32  
12967 559  430 
12968 568  979 
12969 70   297 
12970 706  801 
12971 102  158 
12972 139  352 
12973 770  437 
12974 629  840 
12975 41   727 
12976 996  589 
12977 283  830 
12978 396  631 
12979 825  611 
12980 276  429 
12981 573  657 
12982 479  742 
12983 172  14  
12984 559  994 
12985 158  969 
12986 607  918 
12987 713  391 
12988 402  662 
12989 863  925 
12990 7    877 
12991 708  142 
12992 989  739 
12993 258  773 
12994 78   386 
12995 357  329 
12996 147  7   
12997 133  56  
12998 910  352 
12999 702  198 
13000 852  695 
13001 217  105 
13002 588  40  
13003 429  708 
13004 350  94  
13005 285  721 
13006 986  590 
13007 972  429 
13008 903  877 
13009 771  391 
13010 370  958 
13011 676  264 
13012 201  1000
13013 300  996 
13014 46   0   
13015 784  921 
13016 620  157 
13017 71   599 
13018 2    122 
13019 170  804 
13020 304  382 
13021 864  262 
13022 315  94  
13023 529  772 
13024 898  211 
13025 499  410 
13026 409  902 
13027 750  993 
13028 141  583 
13029 508  468 
13030 976  622 
13031 849  496 
13032 150  511 
13033 542  941 
13034 249  560 
13035 270  752 
13036 71   923 
13037 862  930 
13038 385  302 
13039 793  217 
13040 461  123 
13041 855  303 
13042 744  504 
13043 24   184 
13044 377  866 
13045 56   777 
13046 164  791 
13047 733  706 
13048 717  253 
13049 807  127 
13050 251  87  
13051 327  474 
13052 428  863 
13053 820  105 
13054 587  686 
13055 868  349 
13056 227  47  
13057 213  0   
13058 386  714 
13059 902  514 
13060 321  935 
13061 473  796 
13062 535  676 
13063 277  660 
13064 99   246 
13065 136  332 
13066 355  320 
13067 936  275 
13068 57   718 
13069 131  51  
13070 170  599 
13071 27   994 
13072 230  559 
13073 343  772 
13074 753  710 
13075 684  832 
13076 956  957 
13077 598  494 
13078 47   348 
13079 838  57  
13080 623  905 
13081 266  584 
13082 12   84  
13083 72   951 
13084 14   574 
13085 865  238 
13086 590  584 
13087 546  754 
13088 728  721 
13089 486  193 
13090 29   601 
13091 949  536 
13092 727  407 
13093 383  953 
13094 775  125 
13095 888  245 
13096 385  443 
13097 945  675 
13098 290  504 
13099 147  353 
13100 834  765 
13101 670  15  
13102 211  870 
13103 241  223 
13104 471  665 
13105 775  449 
13106 798  866 
13107 639  848 
13108 752  572 
13109 39   330 
13110 32   508 
13111 87   606 
13112 878  447 
13113 147  797 
13114 117  535 
13115 578  11  
13116 670  459 
13117 564  74  
13118 435  22  
13119 695  908 
13120 790  668 
13121 815  315 
13122 47   173 
13123 861  521 
13124 169  87  
13125 870  729 
13126 524  607 
13127 678  208 
13128 627  776 
13129 888  520 
13130 740  617 
13131 44   756 
13132 170  986 
13133 575  782 
13134 504  239 
13135 656  156 
13136 755  630 
13137 372  46  
13138 602  795 
13139 487  303 
13140 480  455 
13141 399  558 
13142 92   44  
13143 115  245 
13144 650  552 
13145 922  277 
13146 149  132 
13147 963  304 
13148 195  218 
13149 241  520 
13150 280  124 
13151 229  39  
13152 879  477 
13153 902  108 
13154 632  278 
13155 270  458 
13156 719  565 
13157 445  608 
13158 786  604 
13159 380  155 
13160 795  726 
13161 15   35  
13162 114  474 
13163 801  234 
13164 215  696 
13165 616  183 
13166 962  95  
13167 7    716 
13168 731  646 
13169 212  273 
13170 327  192 
13171 387  247 
13172 631  22  
13173 27   140 
13174 299  931 
13175 246  48  
13176 331  274 
13177 31   605 
13178 515  768 
13179 370  923 
13180 10   856 
13181 944  982 
13182 247  527 
13183 231  138 
13184 793  640 
13185 117  208 
13186 931  782 
13187 804  0   
13188 435  607 
13189 903  460 
13190 859  560 
13191 469  964 
13192 681  740 
13193 607  610 
13194 372  177 
13195 609  410 
13196 404  244 
13197 814  827 
13198 242  756 
13199 152  244 
13200 998  135 
13201 569  613 
13202 234  483 
13203 474  402 
13204 561  842 
13205 377  837 
13206 47   707 
13207 547  779 
13208 508  117 
13209 492  530 
13210 519  209 
13211 632  417 
13212 837  958 
13213 470  424 
13214 548  822 
13215 170  60  
13216 43   966 
13217 834  967 
13218 1000 483 
13219 963  761 
13220 324  805 
13221 458  499 
13222 649  42  
13223 264  8   
13224 619  756 
13225 531  74  
13226 222  507 
13227 565  375 
13228 969  598 
13229 136  337 
13230 592  458 
13231 689  672 
13232 396  242 
13233 792  939 
13234 942  349 
13235 836  672 
13236 84   77  
13237 130  437 
13238 349  63  
13239 921  422 
13240 499  718 
13241 524  837 
13242 139  417 
13243 374  658 
13244 602  945 
13245 268  11  
13246 383  320 
13247 58   723 
13248 775  596 
13249 44   482 
13250 724  140 
13251 168  286 
13252 562  242 
13253 675  465 
13254 841  57  
13255 698  914 
13256 571  128 
13257 163  5   
13258 954  376 
13259 149  986 
13260 965  152 
13261 859  653 
13262 935  624 
13263 898  323 
13264 741  673 
13265 319  287 
13266 840  206 
13267 146  835 
13268 572  669 
13269 828  631 
13270 399  260 
13271 76   407 
13272 537  163 
13273 647  499 
13274 156  398 
13275 502  520 
13276 513  971 
13277 474  25  
13278 727  54  
13279 102  545 
13280 416  146 
13281 56   249 
13282 185  475 
13283 298  90  
13284 480  809 
13285 717  845 
13286 899  637 
13287 624  682 
13288 38   106 
13289 596  576 
13290 61   971 
13291 84   284 
13292 199  957 
13293 351  774 
13294 722  918 
13295 134  808 
13296 565  508 
13297 454  420 
13298 387  493 
13299 908  825 
13300 843  468 
13301 596  4   
13302 979  244 
13303 151  269 
13304 732  964 
13305 605  370 
13306 896  704 
13307 199  513 
13308 734  142 
13309 40   406 
13310 741  914 
13311 49   472 
13312 344  556 
13313 201  229 
13314 291  103 
13315 330  451 
13316 519  695 
13317 611  558 
13318 957  550 
13319 438  101 
13320 920  484 
13321 793  922 
13322 615  159 
13323 673  764 
13324 979  816 
13325 552  702 
13326 898  470 
13327 257  454 
13328 24   503 
13329 358  750 
13330 78   328 
13331 523  205 
13332 392  345 
13333 470  246 
13334 878  243 
13335 327  667 
13336 608  467 
13337 682  934 
13338 424  970 
13339 972  931 
13340 497  5   
13341 63   498 
13342 983  317 
13343 342  175 
13344 471  521 
13345 937  413 
13346 113  198 
13347 339  516 
13348 786  61  
13349 491  321 
13350 661  779 
13351 682  506 
13352 170  278 
13353 834  209 
13354 283  93  
13355 433  584 
13356 917  790 
13357 737  538 
13358 425  781 
13359 796  772 
13360 307  369 
13361 404  669 
13362 166  532 
13363 210  668 
13364 505  424 
13365 862  428 
13366 809  288 
13367 13   272 
13368 956  160 
13369 442  298 
13370 603  957 
13371 875  944 
13372 605  199 
13373 681  655 
13374 63   751 
13375 662  225 
13376 150  309 
13377 971  927 
13378 664  965 
13379 25   141 
13380 894  473 
13381 343  77  
13382 306  862 
13383 564  725 
13384 234  396 
13385 591  456 
13386 725  966 
13387 33   500 
13388 418  326 
13389 722  504 
13390 113  823 
13391 226  526 
13392 523  326 
13393 661  476 
13394 20   468 
13395 437  749 
13396 333  524 
13397 734  744 
13398 937  266 
13399 722  828 
13400 618  893 
13401 602  358 
13402 30   903 
13403 692  228 
13404 551  355 
13405 740  296 
13406 431  225 
13407 878  698 
13408 4    373 
13409 705  0   
13410 338  442 
13411 361  619 
13412 213  906 
13413 658  777 
13414 282  21  
13415 653  2   
13416 692  600 
13417 625  587 
13418 420  443 
13419 918  430 
13420 867  530 
13421 62   880 
13422 966  474 
13423 219  611 
13424 76   936 
13425 304  291 
13426 73   490 
13427 167  545 
13428 79   309 
13429 63   912 
13430 162  419 
13431 254  773 
13432 148  242 
13433 828  620 
13434 427  845 
13435 293  876 
13436 113  608 
13437 332  966 
13438 168  895 
13439 650  303 
13440 890  936 
13441 87   108 
13442 509  826 
13443 555  486 
13444 133  772 
13445 536  57  
13446 356  34  
13447 342  501 
13448 955  686 
13449 708  942 
13450 837  846 
13451 950  615 
13452 9    121 
13453 913  467 
13454 87   400 
13455 899  512 
13456 647  594 
13457 8    14  
13458 905  256 
13459 227  386 
13460 942  529 
13461 174  639 
13462 545  889 
13463 144  958 
13464 847  924 
13465 939  545 
13466 902  695 
13467 208  565 
13468 985  227 
13469 397  53  
13470 226  201 
13471 274  723 
13472 403  781 
13473 795  31  
13474 306  192 
13475 329  161 
13476 98   382 
13477 236  656 
13478 400  916 
13479 540  504 
13480 10   607 
13481 999  53  
13482 420  302 
13483 978  496 
13484 337  504 
13485 427  634 
13486 168  430 
13487 48   196 
13488 940  971 
13489 760  55  
13490 529  548 
13491 893  86  
13492 33   338 
13493 803  338 
13494 65   673 
13495 581  745 
13496 157  241 
13497 994  894 
13498 394  276 
13499 698  326 
13500 117  878 
13501 691  947 
13502 66   444 
13503 38   830 
13504 554  296 
13505 646  328 
13506 812  608 
13507 427  386 
13508 911  92  
13509 791  570 
13510 777  408 
13511 207  544 
13512 705  942 
13513 43   707 
13514 140  479 
13515 716  234 
13516 806  108 
13517 695  987 
13518 914  197 
13519 109  975 
13520 95   268 
13521 731  796 
13522 473  572 
13523 992  540 
13524 265  776 
13525 362  268 
13526 11   697 
13527 818  11  
13528 292  166 
13529 559  352 
13530 70   375 
13531 305  134 
13532 418  895 
13533 261  723 
13534 443  272 
13535 542  636 
13536 194  662 
13537 182  127 
13538 475  227 
13539 855  348 
13540 177  349 
13541 929  474 
13542 253  42  
13543 276  103 
13544 225  585 
13545 262  86  
13546 707  861 
13547 451  27  
13548 264  566 
13549 12   760 
13550 162  205 
13551 141  988 
13552 955  520 
13553 872  442 
13554 590  292 
13555 648  619 
13556 39   102 
13557 60   887 
13558 25   748 
13559 650  217 
13560 906  175 
13561 394  411 
13562 834  925 
13563 66   51  
13564 322  169 
13565 910  350 
13566 688  634 
13567 483  70  
13568 838  972 
13569 593  691 
13570 653  601 
13571 178  955 
13572 30   936 
13573 731  557 
13574 588  114 
13575 0    715 
13576 286  941 
13577 710  421 
13578 493  643 
13579 297  168 
13580 373  989 
13581 728  196 
13582 601  122 
13583 739  452 
13584 762  47  
13585 905  570 
13586 672  283 
13587 875  260 
13588 822  781 
13589 605  435 
13590 109  580 
13591 630  110 
13592 499  536 
13593 662  789 
13594 330  258 
13595 535  25  
13596 443  993 
13597 466  450 
13598 943  820 
13599 512  846 
13600 140  918 
13601 442  154 
13602 633  133 
13603 172  263 
13604 799  186 
13605 693  675 
13606 197  852 
13607 144  352 
13608 474  747 
13609 907  205 
13610 508  286 
13611 381  8   
13612 367  469 
13613 888  164 
13614 659  570 
13615 440  260 
13616 262  973 
13617 559  809 
13618 465  215 
13619 603  489 
13620 806  526 
13621 241  360 
13622 333  344 
13623 932  812 
13624 441  783 
13625 298  896 
13626 81   272 
13627 150  993 
13628 445  832 
13629 318  214 
13630 643  669 
13631 592  51  
13632 682  189 
13633 677  486 
13634 414  724 
13635 919  425 
13636 481  645 
13637 248  888 
13638 725  490 
13639 503  413 
13640 291  533 
13641 959  670 
13642 161  949 
13643 622  700 
13644 728  79  
13645 304  631 
13646 640  773 
13647 255  2   
13648 594  648 
13649 460  854 
13650 24   965 
13651 162  623 
13652 35   199 
13653 572  38  
13654 597  597 
13655 980  323 
13656 429  67  
13657 756  170 
13658 332  658 
13659 334  448 
13660 534  473 
13661 278  667 
13662 82   504 
13663 375  669 
13664 488  831 
13665 451  181 
13666 538  775 
13667 803  441 
13668 842  657 
13669 132  687 
13670 309  465 
13671 295  162 
13672 765  488 
13673 622  339 
13674 380  74  
13675 772  622 
13676 4    752 
13677 276  893 
13678 578  653 
13679 264  812 
13680 812  637 
13681 65   768 
13682 941  799 
13683 284  38  
13684 549  638 
13685 332  282 
13686 740  495 
13687 364  907 
13688 207  591 
13689 647  994 
13690 283  151 
13691 910  48  
13692 75   201 
13693 956  694 
13694 529  300 
13695 909  473 
13696 519  798 
13697 978  572 
13698 62   563 
13699 339  906 
13700 938  522 
13701 244  789 
13702 154  61  
13703 615  774 
13704 970  955 
13705 36   57  
13706 988  267 
13707 1    311 
13708 483  981 
13709 819  547 
13710 457  806 
13711 867  751 
13712 763  974 
13713 182  144 
13714 92   22  
13715 816  250 
13716 214  545 
13717 894  391 
13718 417  257 
13719 850  985 
13720 963  266 
13721 391  781 
13722 250  969 
13723 882  454 
13724 370  178 
13725 958  563 
13726 831  259 
13727 868  693 
13728 358  595 
13729 125  188 
13730 215  62  
13731 418  284 
13732 953  145 
13733 427  86  
13734 588  395 
13735 733  686 
13736 816  774 
13737 419  779 
13738 276  896 
13739 207  924 
13740 472  875 
13741 38   142 
13742 835  401 
13743 459  901 
13744 763  211 
13745 131  167 
13746 645  289 
13747 631  984 
13748 359  309 
13749 435  221 
13750 458  70  
13751 22   847 
13752 658  831 
13753 605  430 
13754 476  358 
13755 222  134 
13756 630  3   
13757 386  922 
13758 921  535 
13759 10   798 
13760 448  207 
13761 247  753 
13762 782  740 
13763 895  165 
13764 567  903 
13765 749  544 
13766 309  947 
13767 348  991 
13768 885  224 
13769 728  805 
13770 435  665 
13771 292  822 
13772 785  627 
13773 107  753 
13774 77   409 
13775 370  613 
13776 727  547 
13777 547  137 
13778 337  133 
13779 671  40  
13780 615  383 
13781 447  473 
13782 103  555 
13783 585  312 
13784 327  631 
13785 472  698 
13786 806  739 
13787 243  269 
13788 704  777 
13789 854  767 
13790 252  69  
13791 185  388 
13792 685  559 
13793 81   299 
13794 143  7   
13795 55   987 
13796 214  120 
13797 915  71  
13798 260  112 
13799 652  946 
13800 66   163 
13801 700  934 
13802 38   5   
13803 22   670 
13804 635  91  
13805 19   344 
13806 886  840 
13807 374  28  
13808 964  958 
13809 58   853 
13810 496  426 
13811 44   864 
13812 424  38  
13813 758  33  
13814 779  876 
13815 541  581 
13816 156  741 
13817 841  443 
13818 774  929 
13819 490  442 
13820 589  926 
13821 3    251 
13822 886  308 
13823 586  80  
13824 969  424 
13825 533  567 
13826 701  865 
13827 175  526 
13828 968  383 
13829 954  318 
13830 958  745 
13831 63   975 
13832 766  138 
13833 609  349 
13834 941  374 
13835 272  739 
13836 422  693 
13837 777  906 
13838 410  881 
13839 507  319 
13840 198  972 
13841 417  43  
13842 894  697 
13843 555  269 
13844 172  987 
13845 707  86  
13846 873  866 
13847 488  384 
13848 167  208 
13849 190  179 
13850 137  5   
13851 764  12  
13852 492  463 
13853 146  333 
13854 111  407 
13855 593  508 
13856 510  896 
13857 860  654 
13858 574  996 
13859 890  441 
13860 661  700 
13861 133  371 
13862 818  573 
13863 216  215 
13864 566  715 
13865 481  757 
13866 875  453 
13867 946  296 
13868 307  478 
13869 201  871 
13870 528  648 
13871 286  680 
13872 87   931 
13873 938  535 
13874 984  361 
13875 931  674 
13876 956  215 
13877 248  164 
13878 529  131 
13879 474  938 
13880 628  719 
13881 153  151 
13882 305  124 
13883 434  600 
13884 789  290 
13885 376  183 
13886 943  553 
13887 903  124 
13888 813  254 
13889 875  589 
13890 347  20  
13891 497  903 
13892 868  658 
13893 333  25  
13894 637  75  
13895 547  959 
13896 517  539 
13897 441  72  
13898 556  55  
13899 768  47  
13900 399  195 
13901 793  396 
13902 205  176 
13903 959  27  
13904 403  117 
13905 412  253 
13906 716  403 
13907 368  737 
13908 294  249 
13909 243  739 
13910 289  479 
13911 492  322 
13912 990  705 
13913 593  361 
13914 976  383 
13915 450  842 
13916 673  290 
13917 657  869 
13918 221  702 
13919 592  318 
13920 140  388 
13921 216  34  
13922 640  964 
13923 36   757 
13924 84   217 
13925 467  211 
13926 342  657 
13927 999  849 
13928 321  618 
13929 279  273 
13930 339  122 
13931 528  259 
13932 620  153 
13933 286  535 
13934 106  787 
13935 214  981 
13936 306  288 
13937 253  945 
13938 73   59  
13939 970  779 
13940 112  543 
13941 663  508 
13942 121  295 
13943 197  154 
13944 607  579 
13945 741  605 
13946 429  328 
13947 233  95  
13948 876  759 
13949 590  957 
13950 922  507 
13951 244  377 
13952 894  279 
13953 396  998 
13954 751  362 
13955 94   939 
13956 135  267 
13957 695  371 
13958 266  345 
13959 930  160 
13960 492  625 
13961 254  656 
13962 773  278 
13963 540  551 
13964 466  640 
13965 897  474 
13966 69   922 
13967 341  229 
13968 274  222 
13969 772  353 
13970 260  413 
13971 707  332 
13972 995  201 
13973 481  595 
13974 905  209 
13975 333  978 
13976 467  544 
13977 658  395 
13978 109  171 
13979 902  518 
13980 192  793 
13981 49   896 
13982 551  293 
13983 113  313 
13984 187  542 
13985 717  573 
13986 498  757 
13987 544  93  
13988 101  973 
13989 887  738 
13990 781  177 
13991 640  863 
13992 36   888 
13993 933  502 
13994 292  450 
13995 255  116 
13996 31   935 
13997 287  329 
13998 861  884 
13999 19   763 
14000 206  443 
14001 614  532 
14002 690  124 
14003 12   80  
14004 588  611 
14005 81   563 
14006 120  935 
14007 175  629 
14008 982  879 
14009 318  819 
14010 779  271 
14011 101  385 
14012 615  11  
14013 654  765 
14014 707  545 
14015 504  292 
14016 181  394 
14017 63   938 
14018 637  273 
14019 12   404 
14020 842  583 
14021 987  255 
14022 272  760 
14023 807  424 
14024 629  558 
14025 48   351 
14026 721  56  
14027 836  287 
14028 769  322 
14029 815  643 
14030 778  400 
14031 213  349 
14032 713  701 
14033 570  798 
14034 42   407 
14035 835  366 
14036 692  493 
14037 39   326 
14038 744  803 
14039 728  424 
14040 322  329 
14041 433  764 
14042 359  634 
14043 123  287 
14044 155  24  
14045 65   410 
14046 51   91  
14047 662  713 
14048 528  685 
14049 657  79  
14050 198  105 
14051 205  771 
14052 539  47  
14053 4    434 
14054 322  781 
14055 767  397 
14056 73   145 
14057 61   400 
14058 822  557 
14059 144  68  
14060 706  982 
14061 749  805 
14062 920  451 
14063 186  20  
14064 285  320 
14065 361  234 
14066 414  124 
14067 882  444 
14068 483  603 
14069 907  429 
14070 102  819 
14071 531  521 
14072 162  124 
14073 238  467 
14074 298  876 
14075 634  872 
14076 745  29  
14077 627  481 
14078 994  804 
14079 869  100 
14080 357  336 
14081 327  376 
14082 366  486 
14083 603  137 
14084 271  81  
14085 688  393 
14086 462  804 
14087 377  632 
14088 605  928 
14089 930  458 
14090 937  510 
14091 367  617 
14092 835  475 
14093 925  325 
14094 74   651 
14095 97   762 
14096 703  336 
14097 9    828 
14098 265  650 
14099 221  601 
14100 493  724 
14101 486  615 
14102 126  718 
14103 481  357 
14104 504  962 
14105 568  267 
14106 416  520 
14107 236  393 
14108 19   597 
14109 439  292 
14110 884  557 
14111 948  606 
14112 420  87  
14113 404  700 
14114 581  412 
14115 468  315 
14116 514  327 
14117 18   630 
14118 952  648 
14119 878  778 
14120 883  668 
14121 408  422 
14122 163  412 
14123 993  93  
14124 59   223 
14125 172  342 
14126 317  667 
14127 603  922 
14128 345  958 
14129 310  460 
14130 167  589 
14131 372  189 
14132 374  967 
14133 803  93  
14134 713  223 
14135 805  567 
14136 510  263 
14137 798  448 
14138 214  394 
14139 788  461 
14140 405  891 
14141 77   19  
14142 997  66  
14143 690  938 
14144 720  297 
14145 595  539 
14146 411  528 
14147 768  223 
14148 588  496 
14149 269  436 
14150 15   176 
14151 995  172 
14152 47   771 
14153 951  809 
14154 847  1000
14155 374  42  
14156 35   728 
14157 740  719 
14158 830  841 
14159 597  66  
14160 445  437 
14161 516  56  
14162 131  218 
14163 781  140 
14164 156  703 
14165 587  197 
14166 986  762 
14167 255  83  
14168 202  45  
14169 52   632 
14170 421  269 
14171 905  624 
14172 169  333 
14173 72   896 
14174 291  254 
14175 918  73  
14176 171  852 
14177 249  872 
14178 413  655 
14179 818  324 
14180 214  837 
14181 225  320 
14182 119  856 
14183 287  936 
14184 107  676 
14185 515  333 
14186 914  834 
14187 628  450 
14188 771  983 
14189 393  669 
14190 928  774 
14191 766  112 
14192 932  674 
14193 671  199 
14194 452  271 
14195 205  113 
14196 78   193 
14197 392  466 
14198 177  528 
14199 772  957 
14200 350  705 
14201 172  781 
14202 933  718 
14203 843  576 
14204 128  363 
14205 38   930 
14206 690  801 
14207 711  585 
14208 623  141 
14209 533  373 
14210 593  426 
14211 134  480 
14212 703  138 
14213 548  933 
14214 18   216 
14215 677  444 
14216 933  770 
14217 329  518 
14218 437  595 
14219 575  349 
14220 460  468 
14221 725  416 
14222 446  643 
14223 213  252 
14224 808  436 
14225 130  704 
14226 499  995 
14227 616  401 
14228 49   528 
14229 139  658 
14230 178  244 
14231 692  846 
14232 226  232 
14233 249  185 
14234 286  854 
14235 69   366 
14236 364  286 
14237 244  964 
14238 728  9   
14239 156  562 
14240 359  21  
14241 398  755 
14242 580  653 
14243 529  185 
14244 490  471 
14245 552  102 
14246 718  535 
14247 932  401 
14248 865  82  
14249 210  105 
14250 279  538 
14251 749  832 
14252 599  630 
14253 776  987 
14254 430  636 
14255 15   534 
14256 234  261 
14257 368  799 
14258 38   669 
14259 884  255 
14260 8    960 
14261 741  338 
14262 674  397 
14263 863  835 
14264 275  298 
14265 722  129 
14266 542  172 
14267 846  806 
14268 599  954 
14269 705  579 
14270 479  872 
14271 543  659 
14272 15   458 
14273 513  836 
14274 61   664 
14275 317  270 
14276 123  67  
14277 623  278 
14278 275  230 
14279 939  319 
14280 925  352 
14281 798  758 
14282 288  218 
14283 783  356 
14284 587  431 
14285 739  120 
14286 294  883 
14287 282  138 
14288 448  190 
14289 247  550 
14290 856  43  
14291 201  986 
14292 457  416 
14293 597  860 
14294 581  423 
14295 191  943 
14296 583  345 
14297 362  367 
14298 41   946 
14299 975  211 
14300 410  153 
14301 700  202 
14302 979  5   
14303 693  831 
14304 215  444 
14305 572  867 
14306 353  691 
14307 67   381 
14308 694  266 
14309 897  980 
14310 498  291 
14311 779  8   
14312 557  147 
14313 686  457 
14314 428  329 
14315 612  741 
14316 817  447 
14317 342  370 
14318 95   606 
14319 556  988 
14320 404  273 
14321 39   7   
14322 461  497 
14323 265  94  
14324 311  903 
14325 94   557 
14326 276  954 
14327 652  961 
14328 156  144 
14329 91   973 
14330 421  212 
14331 520  339 
14332 190  915 
14333 803  824 
14334 706  85  
14335 155  473 
14336 620  258 
14337 913  166 
14338 553  335 
14339 350  503 
14340 165  898 
14341 421  360 
14342 248  456 
14343 109  549 
14344 476  296 
14345 95   470 
14346 321  573 
14347 586  483 
14348 549  253 
14349 992  950 
14350 496  517 
14351 62   884 
14352 876  344 
14353 311  15  
14354 525  469 
14355 177  47  
14356 140  949 
14357 866  693 
14358 589  627 
14359 861  462 
14360 741  648 
14361 983  863 
14362 150  580 
14363 44   63  
14364 323  112 
14365 710  524 
14366 551  520 
14367 399  303 
14368 779  133 
14369 101  11  
14370 668  667 
14371 578  537 
14372 105  345 
14373 949  238 
14374 972  769 
14375 974  339 
14376 483  340 
14377 351  341 
14378 821  85  
14379 726  210 
14380 929  956 
14381 894  772 
14382 322  287 
14383 195  535 
14384 216  262 
14385 804  911 
14386 739  210 
14387 575  312 
14388 868  310 
14389 460  433 
14390 123  361 
14391 386  659 
14392 464  963 
14393 572  385 
14394 369  634 
14395 406  449 
14396 943  26  
14397 505  10  
14398 622  607 
14399 643  182 
14400 168  86  
14401 313  915 
14402 933  417 
14403 135  931 
14404 418  740 
14405 775  736 
14406 872  887 
14407 987  582 
14408 332  689 
14409 712  815 
14410 181  293 
14411 769  41  
14412 681  997 
14413 423  296 
14414 162  50  
14415 441  249 
14416 177  608 
14417 310  567 
14418 264  971 
14419 556  714 
14420 939  210 
14421 284  5   
14422 973  431 
14423 839  458 
14424 161  679 
14425 809  883 
14426 147  884 
14427 961  88  
14428 195  896 
14429 598  262 
14430 250  112 
14431 160  360 
14432 490  675 
14433 478  128 
14434 88   250 
14435 434  986 
14436 473  512 
14437 588  703 
14438 918  264 
14439 867  368 
14440 279  198 
14441 157  986 
14442 191  906 
14443 728  953 
14444 50   157 
14445 36   88  
14446 917  689 
14447 684  604 
14448 838  221 
14449 988  234 
14450 845  687 
14451 139  174 
14452 932  481 
14453 556  437 
14454 512  563 
14455 106  422 
14456 272  476 
14457 258  643 
14458 101  353 
14459 251  604 
14460 712  986 
14461 239  247 
14462 977  426 
14463 543  495 
14464 582  515 
14465 972  619 
14466 591  499 
14467 974  489 
14468 100  318 
14469 635  675 
14470 264  570 
14471 531  604 
14472 501  830 
14473 581  602 
14474 971  562 
14475 293  514 
14476 989  805 
14477 152  382 
14478 816  805 
14479 751  991 
14480 311  930 
14481 493  59  
14482 186  549 
14483 68   577 
14484 610  688 
14485 882  941 
14486 700  818 
14487 891  89  
14488 319  720 
14489 912  834 
14490 660  764 
14491 985  61  
14492 625  102 
14493 551  378 
14494 286  913 
14495 251  452 
14496 553  338 
14497 857  996 
14498 785  16  
14499 257  607 
14500 476  325 
14501 593  883 
14502 102  395 
14503 162  980 
14504 932  208 
14505 413  709 
14506 272  139 
14507 295  737 
14508 253  887 
14509 571  350 
14510 75   687 
14511 594  853 
14512 211  351 
14513 589  590 
14514 222  701 
14515 58   89  
14516 367  465 
14517 957  807 
14518 978  214 
14519 279  799 
14520 376  892 
14521 82   709 
14522 603  493 
14523 15   267 
14524 181  63  
14525 716  644 
14526 854  286 
14527 907  653 
14528 570  833 
14529 863  580 
14530 759  663 
14531 775  402 
14532 263  702 
14533 360  221 
14534 756  603 
14535 138  932 
14536 541  226 
14537 527  51  
14538 52   977 
14539 702  15  
14540 672  238 
14541 467  474 
14542 847  903 
14543 759  219 
14544 14   444 
14545 662  632 
14546 701  222 
14547 978  965 
14548 18   850 
14549 956  99  
14550 121  46  
14551 377  148 
14552 128  648 
14553 697  841 
14554 365  843 
14555 704  123 
14556 690  2   
14557 508  745 
14558 895  463 
14559 676  241 
14560 46   457 
14561 415  252 
14562 182  281 
14563 131  717 
14564 179  729 
14565 6    858 
14566 84   602 
14567 716  891 
14568 128  244 
14569 116  811 
14570 577  815 
14571 499  165 
14572 824  684 
14573 185  886 
14574 556  163 
14575 300  353 
14576 270  569 
14577 203  630 
14578 574  587 
14579 308  138 
14580 181  900 
14581 972  913 
14582 649  370 
14583 367  542 
14584 941  795 
14585 526  955 
14586 369  142 
14587 152  596 
14588 9    973 
14589 991  58  
14590 207  587 
14591 156  923 
14592 359  700 
14593 91   758 
14594 423  655 
14595 875  418 
14596 118  92  
14597 754  620 
14598 136  693 
14599 235  33  
14600 408  533 
14601 170  924 
14602 781  108 
14603 675  761 
14604 822  747 
14605 651  465 
14606 127  730 
14607 510  214 
14608 185  583 
14609 44   254 
14610 980  466 
14611 323  817 
14612 25   223 
14613 751  262 
14614 301  907 
14615 949  815 
14616 845  206 
14617 3    769 
14618 483  405 
14619 358  599 
14620 432  981 
14621 76   371 
14622 316  706 
14623 315  878 
14624 834  946 
14625 601  933 
14626 963  842 
14627 181  777 
14628 462  866 
14629 928  162 
14630 469  14  
14631 930  496 
14632 900  200 
14633 743  856 
14634 155  275 
14635 247  137 
14636 104  425 
14637 291  755 
14638 196  828 
14639 131  171 
14640 571  649 
14641 843  236 
14642 739  431 
14643 903  846 
14644 596  300 
14645 340  98  
14646 236  467 
14647 79   775 
14648 425  676 
14649 577  393 
14650 305  846 
14651 240  869 
14652 295  764 
14653 629  70  
14654 408  480 
14655 177  229 
14656 20   565 
14657 594  878 
14658 831  764 
14659 997  708 
14660 690  300 
14661 215  267 
14662 902  345 
14663 717  342 
14664 664  798 
14665 348  287 
14666 816  105 
14667 663  961 
14668 68   797 
14669 52   442 
14670 863  611 
14671 720  243 
14672 902  165 
14673 247  478 
14674 30   352 
14675 159  644 
14676 971  386 
14677 535  797 
14678 330  518 
14679 113  926 
14680 369  116 
14681 62   81  
14682 161  352 
14683 532  337 
14684 848  230 
14685 596  755 
14686 787  242 
14687 925  640 
14688 305  575 
14689 503  436 
14690 201  766 
14691 611  39  
14692 943  108 
14693 198  221 
14694 4    302 
14695 601  494 
14696 790  352 
14697 460  815 
14698 444  164 
14699 875  136 
14700 340  501 
14701 697  812 
14702 102  283 
14703 379  994 
14704 729  451 
14705 948  667 
14706 35   302 
14707 849  646 
14708 187  507 
14709 814  68  
14710 129  422 
14711 818  266 
14712 89   894 
14713 698  852 
14714 624  453 
14715 269  578 
14716 292  933 
14717 223  979 
14718 901  849 
14719 428  37  
14720 598  969 
14721 603  593 
14722 732  123 
14723 944  75  
14724 215  156 
14725 918  947 
14726 208  342 
14727 104  775 
14728 360  401 
14729 385  408 
14730 447  78  
14731 638  855 
14732 696  570 
14733 161  177 
14734 668  544 
14735 156  460 
14736 271  45  
14737 787  451 
14738 111  403 
14739 42   118 
14740 217  996 
14741 597  329 
14742 786  136 
14743 553  659 
14744 643  529 
14745 271  481 
14746 995  915 
14747 815  228 
14748 264  369 
14749 446  601 
14750 47   78  
14751 400  369 
14752 771  258 
14753 847  567 
14754 773  688 
14755 277  582 
14756 904  816 
14757 173  501 
14758 528  652 
14759 800  353 
14760 325  202 
14761 165  738 
14762 98   711 
14763 619  107 
14764 303  628 
14765 568  987 
14766 766  377 
14767 487  328 
14768 586  195 
14769 418  817 
14770 42   869 
14771 367  278 
14772 104  566 
14773 862  575 
14774 645  987 
14775 922  368 
14776 484  417 
14777 396  623 
14778 564  768 
14779 873  407 
14780 271  754 
14781 423  407 
14782 312  368 
14783 169  681 
14784 132  571 
14785 902  67  
14786 60   837 
14787 756  666 
14788 498  182 
14789 371  700 
14790 163  648 
14791 938  270 
14792 668  443 
14793 834  943 
14794 320  553 
14795 527  368 
14796 377  537 
14797 467  667 
14798 891  147 
14799 104  334 
14800 330  816 
14801 173  678 
14802 853  68  
14803 606  388 
14804 553  280 
14805 151  0   
14806 446  964 
14807 529  432 
14808 1    767 
14809 999  845 
14810 305  801 
14811 519  938 
14812 302  118 
14813 288  704 
14814 364  475 
14815 936  236 
14816 297  534 
14817 500  43  
14818 486  66  
14819 301  87  
14820 183  87  
14821 77   496 
14822 538  66  
14823 222  747 
14824 614  217 
14825 953  585 
14826 148  301 
14827 388  764 
14828 427  798 
14829 182  4   
14830 85   711 
14831 929  417 
14832 110  362 
14833 827  334 
14834 276  56  
14835 721  839 
14836 45   389 
14837 806  760 
14838 591  398 
14839 704  802 
14840 623  25  
14841 593  30  
14842 104  125 
14843 503  111 
14844 90   48  
14845 129  628 
14846 982  251 
14847 661  542 
14848 848  251 
14849 373  560 
14850 216  373 
14851 368  400 
14852 151  977 
14853 605  790 
14854 734  682 
14855 577  253 
14856 302  321 
14857 378  939 
14858 288  415 
14859 2    389 
14860 795  64  
14861 931  512 
14862 511  218 
14863 45   754 
14864 476  274 
14865 884  663 
14866 185  640 
14867 685  307 
14868 558  195 
14869 747  6   
14870 461  676 
14871 27   550 
14872 343  320 
14873 992  444 
14874 941  269 
14875 360  438 
14876 419  716 
14877 573  947 
14878 557  334 
14879 15   422 
14880 310  614 
14881 575  190 
14882 967  960 
14883 713  673 
14884 955  748 
14885 706  170 
14886 503  224 
14887 860  679 
14888 256  605 
14889 959  829 
14890 636  158 
14891 982  118 
14892 389  928 
14893 908  656 
14894 36   555 
14895 880  295 
14896 806  51  
14897 967  4   
14898 655  347 
14899 175  326 
14900 359  58  
14901 179  944 
14902 790  208 
14903 663  66  
14904 776  446 
14905 889  27  
14906 232  882 
14907 681  359 
14908 176  873 
14909 418  810 
14910 480  479 
14911 422  893 
14912 793  127 
14913 295  449 
14914 228  548 
14915 871  786 
14916 638  235 
14917 50   624 
14918 774  369 
14919 59   770 
14920 232  462 
14921 820  727 
14922 513  249 
14923 771  673 
14924 637  418 
14925 485  181 
14926 976  844 
14927 987  76  
14928 498  147 
14929 461  285 
14930 73   877 
14931 94   641 
14932 527  287 
14933 68   528 
14934 806  482 
14935 333  692 
14936 227  177 
14937 997  413 
14938 252  324 
14939 807  797 
14940 597  313 
14941 173  833 
14942 48   778 
14943 182  945 
14944 666  962 
14945 924  398 
14946 322  472 
14947 352  539 
14948 114  918 
14949 460  622 
14950 891  818 
14951 644  940 
14952 296  50  
14953 886  75  
14954 231  130 
14955 503  697 
14956 162  903 
14957 390  639 
14958 32   587 
14959 966  66  
14960 295  822 
14961 412  798 
14962 783  825 
14963 440  891 
14964 202  358 
14965 520  607 
14966 262  468 
14967 45   988 
14968 407  533 
14969 693  784 
14970 951  472 
14971 845  629 
14972 974  875 
14973 280  787 
14974 794  405 
14975 690  354 
14976 637  755 
14977 33   621 
14978 720  737 
14979 699  16  
14980 701  610 
14981 962  674 
14982 323  996 
14983 78   126 
14984 85   802 
14985 712  20  
14986 417  232 
14987 290  86  
14988 239  41  
14989 774  236 
14990 668  871 
14991 686  488 
14992 29   827 
14993 746  319 
14994 497  779 
14995 884  417 
14996 506  555 
14997 967  618 
14998 824  396 
14999 734  883 
15000 342  413 
15001 376  743 
15002 39   36  
15003 355  915 
15004 34   676 
15005 705  697 
15006 412  105 
15007 22   744 
15008 778  694 
15009 619  748 
15010 891  3   
15011 213  115 
15012 485  766 
15013 515  569 
15014 381  829 
15015 743  647 
15016 611  17  
15017 173  566 
15018 959  555 
15019 855  650 
15020 348  572 
15021 922  767 
15022 154  357 
15023 679  553 
15024 278  130 
15025 227  758 
15026 1    623 
15027 183  771 
15028 805  868 
15029 383  328 
15030 918  77  
15031 671  655 
15032 309  970 
15033 793  789 
15034 885  135 
15035 908  450 
15036 931  931 
15037 428  95  
15038 949  523 
15039 935  616 
15040 439  889 
15041 409  830 
15042 662  275 
15043 798  179 
15044 860  152 
15045 152  71  
15046 87   9   
15047 253  353 
15048 751  230 
15049 557  361 
15050 513  963 
15051 843  580 
15052 739  567 
15053 635  998 
15054 545  466 
15055 160  816 
15056 787  397 
15057 510  882 
15058 42   444 
15059 685  598 
15060 411  865 
15061 473  472 
15062 436  212 
15063 256  626 
15064 749  180 
15065 622  962 
15066 834  82  
15067 75   26  
15068 815  302 
15069 799  853 
15070 515  674 
15071 155  51  
15072 946  282 
15073 782  972 
15074 549  975 
15075 143  530 
15076 164  291 
15077 113  397 
15078 876  110 
15079 350  349 
15080 546  950 
15081 843  460 
15082 511  170 
15083 594  586 
15084 421  702 
15085 278  25  
15086 559  504 
15087 836  531 
15088 845  731 
15089 600  374 
15090 692  654 
15091 510  97  
15092 535  208 
15093 888  433 
15094 872  854 
15095 482  670 
15096 505  615 
15097 145  982 
15098 438  125 
15099 163  182 
15100 970  522 
15101 864  25  
15102 522  322 
15103 584  23  
15104 824  614 
15105 937  969 
15106 609  676 
15107 722  381 
15108 775  133 
15109 634  849 
15110 911  453 
15111 189  765 
15112 546  62  
15113 161  4   
15114 507  390 
15115 878  251 
15116 454  643 
15117 80   84  
15118 299  498 
15119 449  257 
15120 398  458 
15121 522  902 
15122 12   932 
15123 259  657 
15124 881  96  
15125 627  580 
15126 459  982 
15127 498  560 
15128 703  315 
15129 99   63  
15130 71   61  
15131 454  847 
15132 477  742 
15133 140  506 
15134 688  814 
15135 326  36  
15136 616  512 
15137 856  47  
15138 925  928 
15139 397  199 
15140 830  615 
15141 196  583 
15142 71   385 
15143 463  491 
15144 675  691 
15145 440  864 
15146 917  722 
15147 68   296 
15148 384  359 
15149 628  352 
15150 386  269 
15151 706  834 
15152 305  219 
15153 676  958 
15154 895  266 
15155 549  392 
15156 662  249 
15157 763  908 
15158 883  195 
15159 110  432 
15160 96   270 
15161 564  733 
15162 12   667 
15163 983  10  
15164 609  561 
15165 7    912 
15166 74   835 
15167 293  547 
15168 129  514 
15169 627  405 
15170 583  582 
15171 431  693 
15172 493  28  
15173 419  969 
15174 117  976 
15175 260  451 
15176 142  939 
15177 930  566 
15178 750  175 
15179 803  828 
15180 199  95  
15181 960  701 
15182 155  477 
15183 291  653 
15184 346  544 
15185 869  948 
15186 477  891 
15187 117  276 
15188 675  992 
15189 239  801 
15190 700  277 
15191 451  721 
15192 197  509 
15193 914  407 
15194 586  495 
15195 953  992 
15196 480  158 
15197 904  528 
15198 761  3   
15199 982  825 
15200 288  789 
15201 219  635 
15202 680  247 
15203 989  19  
15204 862  259 
15205 913  742 
15206 809  405 
15207 41   547 
15208 269  531 
15209 36   226 
15210 663  327 
15211 141  682 
15212 627  162 
15213 498  466 
15214 9    421 
15215 177  751 
15216 327  565 
15217 661  181 
15218 403  157 
15219 313  31  
15220 495  259 
15221 668  663 
15222 617  41  
15223 859  100 
15224 271  914 
15225 536  1   
15226 266  318 
15227 252  395 
15228 517  807 
15229 104  146 
15230 985  303 
15231 982  76  
15232 431  318 
15233 991  150 
15234 647  586 
15235 347  756 
15236 644  99  
15237 425  915 
15238 28   216 
15239 450  614 
15240 911  663 
15241 113  480 
15242 463  141 
15243 804  335 
15244 340  303 
15245 250  429 
15246 183  947 
15247 667  846 
15248 26   122 
15249 282  480 
15250 653  175 
15251 141  411 
15252 201  240 
15253 457  862 
15254 599  617 
15255 659  812 
15256 548  185 
15257 550  795 
15258 149  82  
15259 776  804 
15260 979  799 
15261 799  8   
15262 965  272 
15263 197  934 
15264 958  683 
15265 741  313 
15266 704  518 
15267 462  314 
15268 12   637 
15269 510  518 
15270 872  311 
15271 360  491 
15272 911  480 
15273 768  914 
15274 733  566 
15275 399  188 
15276 703  834 
15277 189  728 
15278 392  422 
15279 751  86  
15280 788  204 
15281 760  763 
15282 797  394 
15283 983  272 
15284 937  424 
15285 185  339 
15286 321  147 
15287 217  34  
15288 694  604 
15289 703  262 
15290 890  507 
15291 869  746 
15292 528  778 
15293 484  584 
15294 424  275 
15295 601  245 
15296 204  974 
15297 446  535 
15298 621  155 
15299 506  226 
15300 863  226 
15301 95   372 
15302 870  698 
15303 162  861 
15304 443  876 
15305 528  726 
15306 212  167 
15307 982  903 
15308 650  841 
15309 714  112 
15310 440  837 
15311 864  333 
15312 278  905 
15313 619  53  
15314 310  286 
15315 499  467 
15316 23   556 
15317 337  365 
15318 814  777 
15319 853  877 
15320 943  751 
15321 71   992 
15322 334  178 
15323 929  466 
15324 585  336 
15325 931  188 
15326 977  430 
15327 225  577 
15328 797  731 
15329 234  401 
15330 319  24  
15331 803  711 
15332 586  733 
15333 95   609 
15334 272  924 
15335 846  858 
15336 484  959 
15337 649  24  
15338 561  708 
15339 907  976 
15340 169  163 
15341 217  175 
15342 443  573 
15343 226  935 
15344 929  602 
15345 532  545 
15346 348  630 
15347 64   165 
15348 924  475 
15349 585  581 
15350 433  464 
15351 396  220 
15352 114  963 
15353 559  185 
15354 248  433 
15355 190  564 
15356 672  275 
15357 981  279 
15358 467  145 
15359 123  627 
15360 416  593 
15361 681  75  
15362 895  70  
15363 201  942 
15364 143  791 
15365 918  411 
15366 740  881 
15367 927  347 
15368 987  740 
15369 645  706 
15370 477  218 
15371 373  281 
15372 562  32  
15373 239  448 
15374 917  322 
15375 22   430 
15376 119  878 
15377 907  197 
15378 305  299 
15379 842  530 
15380 715  864 
15381 609  485 
15382 427  856 
15383 565  530 
15384 664  893 
15385 332  987 
15386 357  120 
15387 394  242 
15388 640  149 
15389 665  710 
15390 826  307 
15391 402  843 
15392 208  6   
15393 450  95  
15394 302  707 
15395 749  234 
15396 878  502 
15397 682  165 
15398 652  845 
15399 181  767 
15400 22   701 
15401 497  314 
15402 522  669 
15403 709  797 
15404 773  812 
15405 478  34  
15406 499  817 
15407 134  862 
15408 807  637 
15409 44   835 
15410 597  25  
15411 657  156 
15412 553  451 
15413 991  369 
15414 410  36  
15415 13   73  
15416 269  991 
15417 456  698 
15418 679  660 
15419 22   249 
15420 294  626 
15421 529  235 
15422 642  266 
15423 455  965 
15424 245  401 
15425 653  138 
15426 766  749 
15427 508  741 
15428 969  77  
15429 148  566 
15430 224  148 
15431 634  355 
15432 581  184 
15433 106  216 
15434 272  378 
15435 537  258 
15436 422  780 
15437 417  396 
15438 110  627 
15439 149  61  
15440 262  244 
15441 119  739 
15442 949  934 
15443 547  983 
15444 289  827 
15445 586  563 
15446 492  870 
15447 641  191 
15448 950  419 
15449 385  505 
15450 885  662 
15451 890  800 
15452 544  942 
15453 228  143 
15454 696  729 
15455 454  697 
15456 661  293 
15457 954  785 
15458 493  221 
15459 993  765 
15460 707  59  
15461 704  999 
15462 199  284 
15463 699  700 
15464 692  419 
15465 35   992 
15466 807  946 
15467 848  816 
15468 652  704 
15469 230  988 
15470 781  420 
15471 626  381 
15472 347  868 
15473 368  85  
15474 882  723 
15475 951  965 
15476 706  340 
15477 501  72  
15478 139  765 
15479 625  268 
15480 473  559 
15481 519  790 
15482 724  432 
15483 173  470 
15484 581  489 
15485 606  52  
15486 454  449 
15487 27   817 
15488 852  451 
15489 762  321 
15490 732  873 
15491 40   307 
15492 222  607 
15493 116  454 
15494 651  469 
15495 547  260 
15496 231  791 
15497 842  328 
15498 275  969 
15499 187  149 
15500 194  651 
15501 943  714 
15502 270  844 
15503 64   631 
15504 548  265 
15505 827  466 
15506 543  502 
15507 590  209 
15508 406  856 
15509 228  50  
15510 198  670 
15511 366  416 
15512 534  936 
15513 117  998 
15514 13   747 
15515 114  280 
15516 264  95  
15517 997  467 
15518 63   337 
15519 469  10  
15520 713  996 
15521 109  19  
15522 122  209 
15523 71   232 
15524 772  29  
15525 818  847 
15526 654  25  
15527 140  423 
15528 126  520 
15529 344  792 
15530 678  397 
15531 918  508 
15532 46   43  
15533 512  891 
15534 505  267 
15535 129  301 
15536 456  464 
15537 112  562 
15538 700  147 
15539 421  926 
15540 875  863 
15541 859  626 
15542 896  504 
15543 628  445 
15544 999  310 
15545 379  681 
15546 713  153 
15547 328  121 
15548 148  204 
15549 902  349 
15550 632  39  
15551 286  54  
15552 987  327 
15553 152  54  
15554 777  517 
15555 394  223 
15556 267  807 
15557 751  151 
15558 825  785 
15559 287  569 
15560 789  648 
15561 556  901 
15562 321  348 
15563 270  279 
15564 459  234 
15565 648  995 
15566 740  73  
15567 228  421 
15568 878  475 
15569 237  49  
15570 961  285 
15571 834  5   
15572 679  175 
15573 921  808 
15574 630  298 
15575 386  677 
15576 902  741 
15577 321  920 
15578 819  137 
15579 74   368 
15580 166  288 
15581 9    747 
15582 966  187 
15583 770  974 
15584 848  550 
15585 4    298 
15586 818  962 
15587 486  860 
15588 456  671 
15589 774  921 
15590 114  851 
15591 47   261 
15592 70   174 
15593 453  62  
15594 757  96  
15595 870  897 
15596 33   868 
15597 639  76  
15598 16   133 
15599 235  267 
15600 41   598 
15601 408  367 
15602 244  107 
15603 283  945 
15604 124  513 
15605 110  596 
15606 559  621 
15607 949  577 
15608 741  751 
15609 137  625 
15610 409  756 
15611 907  85  
15612 824  661 
15613 65   759 
15614 159  433 
15615 641  82  
15616 270  550 
15617 309  452 
15618 989  610 
15619 629  523 
15620 431  593 
15621 177  594 
15622 712  217 
15623 548  551 
15624 4    517 
15625 774  33  
15626 977  171 
15627 850  699 
15628 686  685 
15629 730  997 
15630 285  236 
15631 15   391 
15632 271  41  
15633 739  625 
15634 591  752 
15635 545  408 
15636 734  948 
15637 616  19  
15638 192  523 
15639 194  89  
15640 549  577 
15641 791  516 
15642 703  200 
15643 191  420 
15644 583  870 
15645 325  626 
15646 899  959 
15647 991  205 
15648 285  592 
15649 271  493 
15650 672  82  
15651 886  223 
15652 397  152 
15653 994  52  
15654 353  164 
15655 574  296 
15656 814  283 
15657 376  259 
15658 67   882 
15659 69   288 
15660 507  703 
15661 714  38  
15662 511  364 
15663 663  99  
15664 301  478 
15665 488  763 
15666 898  80  
15667 220  210 
15668 130  198 
15669 72   841 
15670 291  41  
15671 867  762 
15672 44   279 
15673 337  283 
15674 671  970 
15675 415  136 
15676 664  956 
15677 719  990 
15678 417  380 
15679 163  880 
15680 20   975 
15681 262  132 
15682 845  805 
15683 607  922 
15684 137  766 
15685 141  906 
15686 480  570 
15687 694  933 
15688 629  656 
15689 890  656 
15690 906  157 
15691 200  568 
15692 788  153 
15693 57   145 
15694 686  824 
15695 882  927 
15696 497  507 
15697 190  38  
15698 485  618 
15699 109  46  
15700 937  451 
15701 976  375 
15702 39   660 
15703 99   121 
15704 48   809 
15705 311  564 
15706 221  694 
15707 424  456 
15708 527  816 
15709 804  619 
15710 919  170 
15711 446  968 
15712 469  425 
15713 658  208 
15714 257  617 
15715 130  281 
15716 925  870 
15717 953  913 
15718 473  607 
15719 240  894 
15720 81   702 
15721 184  789 
15722 131  782 
15723 922  15  
15724 926  606 
15725 589  640 
15726 1    191 
15727 923  536 
15728 780  135 
15729 556  350 
15730 722  114 
15731 279  749 
15732 219  148 
15733 719  803 
15734 613  492 
15735 650  358 
15736 998  350 
15737 410  671 
15738 984  824 
15739 417  137 
15740 426  361 
15741 979  639 
15742 564  663 
15743 974  262 
15744 63   237 
15745 976  166 
15746 194  255 
15747 53   168 
15748 332  81  
15749 445  814 
15750 468  625 
15751 834  62  
15752 213  20  
15753 674  518 
15754 861  648 
15755 914  25  
15756 153  761 
15757 759  233 
15758 819  172 
15759 821  966 
15760 148  964 
15761 890  219 
15762 800  207 
15763 431  163 
15764 364  134 
15765 147  600 
15766 645  441 
15767 66   536 
15768 601  405 
15769 931  516 
15770 112  198 
15771 993  323 
15772 723  934 
15773 799  517 
15774 273  483 
15775 718  751 
15776 183  864 
15777 628  617 
15778 266  636 
15779 602  920 
15780 496  579 
15781 115  884 
15782 885  152 
15783 500  954 
15784 253  222 
15785 723  482 
15786 861  304 
15787 176  62  
15788 775  113 
15789 985  937 
15790 710  590 
15791 318  375 
15792 447  81  
15793 894  650 
15794 845  463 
15795 77   933 
15796 190  156 
15797 441  874 
15798 964  626 
15799 413  276 
15800 189  333 
15801 228  309 
15802 207  665 
15803 947  846 
15804 566  740 
15805 829  398 
15806 723  759 
15807 697  740 
15808 639  408 
15809 844  732 
15810 574  269 
15811 44   744 
15812 904  793 
15813 279  115 
15814 390  772 
15815 634  248 
15816 800  346 
15817 892  688 
15818 719  385 
15819 795  465 
15820 435  478 
15821 59   346 
15822 465  615 
15823 628  764 
15824 524  919 
15825 49   497 
15826 487  291 
15827 166  892 
15828 611  631 
15829 106  117 
15830 645  994 
15831 675  99  
15832 548  243 
15833 915  720 
15834 698  192 
15835 603  709 
15836 128  157 
15837 3    719 
15838 741  383 
15839 393  815 
15840 621  985 
15841 930  30  
15842 828  929 
15843 0    246 
15844 461  281 
15845 636  361 
15846 802  439 
15847 696  686 
15848 721  173 
15849 207  942 
15850 635  784 
15851 561  661 
15852 273  845 
15853 886  899 
15854 973  625 
15855 673  285 
15856 892  391 
15857 401  50  
15858 477  711 
15859 41   475 
15860 207  482 
15861 585  662 
15862 566  883 
15863 882  572 
15864 829  3   
15865 739  413 
15866 658  237 
15867 469  404 
15868 847  675 
15869 549  21  
15870 397  232 
15871 514  351 
15872 272  94  
15873 18   622 
15874 2    107 
15875 461  518 
15876 650  783 
15877 541  834 
15878 585  210 
15879 359  171 
15880 783  773 
15881 714  438 
15882 59   215 
15883 866  733 
15884 582  129 
15885 474  546 
15886 609  406 
15887 441  260 
15888 763  941 
15889 145  812 
15890 770  313 
15891 78   66  
15892 500  656 
15893 788  469 
15894 493  441 
15895 901  594 
15896 617  925 
15897 859  968 
15898 626  981 
15899 384  898 
15900 497  783 
15901 77   11  
15902 273  638 
15903 132  439 
15904 849  67  
15905 812  337 
15906 233  678 
15907 489  588 
15908 436  77  
15909 551  244 
15910 756  534 
15911 170  32  
15912 834  987 
15913 670  365 
15914 857  362 
15915 958  40  
15916 778  690 
15917 174  539 
15918 471  955 
15919 476  711 
15920 678  42  
15921 551  312 
15922 830  881 
15923 339  694 
15924 122  42  
15925 784  601 
15926 583  107 
15927 913  123 
15928 507  636 
15929 2    442 
15930 142  454 
15931 382  971 
15932 610  182 
15933 792  951 
15934 504  853 
15935 644  787 
15936 990  149 
15937 741  785 
15938 939  841 
15939 918  65  
15940 166  730 
15941 154  805 
15942 410  331 
15943 714  317 
15944 550  911 
15945 239  506 
15946 96   124 
15947 776  856 
15948 797  978 
15949 375  714 
15950 232  620 
15951 128  807 
15952 439  885 
15953 116  230 
15954 153  404 
15955 764  538 
15956 676  832 
15957 885  711 
15958 431  923 
15959 696  520 
15960 375  782 
15961 836  300 
15962 345  463 
15963 753  506 
15964 898  667 
15965 919  807 
15966 958  795 
15967 393  65  
15968 879  255 
15969 902  834 
15970 263  764 
15971 837  791 
15972 574  986 
15973 532  298 
15974 320  296 
15975 91   699 
15976 891  912 
15977 697  719 
15978 139  650 
15979 395  740 
15980 268  366 
15981 454  400 
15982 781  57  
15983 358  94  
15984 533  906 
15985 789  496 
15986 58   362 
15987 957  570 
15988 235  446 
15989 71   844 
15990 521  963 
15991 629  866 
15992 371  142 
15993 906  655 
15994 417  330 
15995 262  178 
15996 234  269 
15997 160  515 
15998 586  585 
15999 826  56  
16000 618  294 
16001 323  222 
16002 217  583 
16003 971  602 
16004 0    235 
16005 560  499 
16006 800  578 
16007 405  669 
16008 744  255 
16009 797  107 
16010 105  427 
16011 317  262 
16012 854  471 
16013 506  321 
16014 893  435 
16015 833  296 
16016 192  592 
16017 616  72  
16018 155  324 
16019 856  759 
16020 62   181 
16021 161  580 
16022 910  246 
16023 905  470 
16024 981  163 
16025 545  943 
16026 515  787 
16027 681  63  
16028 517  321 
16029 478  359 
16030 524  547 
16031 496  642 
16032 994  129 
16033 353  15  
16034 761  250 
16035 348  774 
16036 205  907 
16037 975  219 
16038 758  217 
16039 795  321 
16040 779  580 
16041 931  769 
16042 555  925 
16043 112  449 
16044 774  697 
16045 59   202 
16046 633  33  
16047 889  143 
16048 414  312 
16049 568  948 
16050 554  651 
16051 10   493 
16052 999  455 
16053 125  310 
16054 328  8   
16055 249  522 
16056 512  534 
16057 703  592 
16058 968  71  
16059 419  433 
16060 663  626 
16061 409  532 
16062 713  614 
16063 953  215 
16064 826  335 
16065 254  582 
16066 261  240 
16067 731  70  
16068 0    870 
16069 242  137 
16070 523  370 
16071 890  749 
16072 470  409 
16073 961  334 
16074 105  528 
16075 497  430 
16076 815  396 
16077 47   886 
16078 303  216 
16079 808  598 
16080 570  541 
16081 296  394 
16082 678  15  
16083 844  483 
16084 611  504 
16085 800  153 
16086 341  375 
16087 145  52  
16088 131  233 
16089 299  815 
16090 389  673 
16091 165  906 
16092 801  658 
16093 785  245 
16094 17   131 
16095 856  190 
16096 72   621 
16097 678  459 
16098 37   465 
16099 353  900 
16100 740  784 
16101 196  310 
16102 69   64  
16103 883  532 
16104 984  657 
16105 659  935 
16106 336  576 
16107 940  836 
16108 172  478 
16109 119  847 
16110 301  254 
16111 656  403 
16112 667  565 
16113 462  435 
16114 125  75  
16115 471  163 
16116 180  535 
16117 890  956 
16118 355  555 
16119 689  319 
16120 659  611 
16121 594  372 
16122 502  569 
16123 158  213 
16124 437  386 
16125 812  737 
16126 194  8   
16127 397  613 
16128 551  68  
16129 129  659 
16130 228  383 
16131 318  249 
16132 235  589 
16133 924  201 
16134 769  988 
16135 790  742 
16136 511  889 
16137 796  162 
16138 134  825 
16139 946  371 
16140 164  308 
16141 302  158 
16142 620  493 
16143 32   910 
16144 784  745 
16145 468  130 
16146 899  200 
16147 500  275 
16148 714  201 
16149 649  610 
16150 896  753 
16151 644  675 
16152 499  330 
16153 886  330 
16154 667  834 
16155 379  928 
16156 72   792 
16157 328  354 
16158 842  228 
16159 16   207 
16160 629  141 
16161 306  568 
16162 327  870 
16163 760  67  
16164 559  551 
16165 589  480 
16166 914  970 
16167 755  968 
16168 370  342 
16169 280  18  
16170 141  859 
16171 150  747 
16172 194  987 
16173 422  747 
16174 447  140 
16175 267  538 
16176 124  15  
16177 507  497 
16178 57   66  
16179 366  52  
16180 403  42  
16181 901  343 
16182 670  172 
16183 359  789 
16184 204  6   
16185 497  20  
16186 337  636 
16187 604  726 
16188 53   328 
16189 173  883 
16190 514  849 
16191 147  892 
16192 117  694 
16193 557  953 
16194 463  990 
16195 285  534 
16196 8    165 
16197 190  653 
16198 672  412 
16199 123  762 
16200 326  61  
16201 515  822 
16202 49   664 
16203 411  337 
16204 563  34  
16205 434  978 
16206 240  781 
16207 865  286 
16208 314  524 
16209 353  226 
16210 830  588 
16211 62   730 
16212 258  87  
16213 885  68  
16214 207  104 
16215 239  571 
16216 331  644 
16217 575  873 
16218 384  400 
16219 720  799 
16220 132  933 
16221 558  423 
16222 413  908 
16223 436  595 
16224 560  775 
16225 493  495 
16226 366  775 
16227 744  435 
16228 963  211 
16229 195  125 
16230 533  446 
16231 542  36  
16232 985  585 
16233 256  309 
16234 904  481 
16235 968  1000
16236 472  850 
16237 38   161 
16238 8    404 
16239 243  677 
16240 377  731 
16241 144  724 
16242 757  696 
16243 678  992 
16244 648  83  
16245 765  858 
16246 514  676 
16247 680  708 
16248 952  809 
16249 991  392 
16250 424  386 
16251 66   971 
16252 739  496 
16253 227  676 
16254 107  138 
16255 490  286 
16256 951  703 
16257 782  719 
16258 210  800 
16259 606  898 
16260 516  430 
16261 862  296 
16262 666  479 
16263 500  105 
16264 818  178 
16265 119  874 
16266 965  178 
16267 898  365 
16268 386  441 
16269 547  174 
16270 833  941 
16271 46   518 
16272 355  526 
16273 85   761 
16274 929  355 
16275 622  464 
16276 548  467 
16277 426  303 
16278 444  948 
16279 128  445 
16280 116  620 
16281 229  779 
16282 928  404 
16283 81   268 
16284 775  394 
16285 872  17  
16286 588  341 
16287 934  297 
16288 844  175 
16289 786  880 
16290 364  772 
16291 401  278 
16292 345  81  
16293 716  64  
16294 352  819 
16295 739  161 
16296 61   917 
16297 151  791 
16298 748  817 
16299 70   717 
16300 273  109 
16301 563  380 
16302 992  754 
16303 888  963 
16304 210  595 
16305 362  406 
16306 749  298 
16307 629  372 
16308 922  788 
16309 357  657 
16310 818  997 
16311 931  734 
16312 813  670 
16313 831  974 
16314 425  630 
16315 625  727 
16316 805  987 
16317 267  53  
16318 200  16  
16319 963  397 
16320 868  566 
16321 928  867 
16322 879  406 
16323 37   997 
16324 457  737 
16325 7    205 
16326 279  936 
16327 941  335 
16328 964  240 
16329 233  906 
16330 641  179 
16331 272  826 
16332 258  869 
16333 461  170 
16334 945  741 
16335 698  439 
16336 938  358 
16337 246  563 
16338 375  213 
16339 234  759 
16340 446  32  
16341 109  410 
16342 872  156 
16343 503  166 
16344 256  539 
16345 952  131 
16346 57   993 
16347 117  721 
16348 564  16  
16349 329  481 
16350 511  969 
16351 38   459 
16352 916  772 
16353 478  173 
16354 335  300 
16355 653  887 
16356 563  201 
16357 819  115 
16358 731  783 
16359 240  994 
16360 187  749 
16361 136  701 
16362 46   160 
16363 339  918 
16364 943  146 
16365 733  314 
16366 258  112 
16367 728  934 
16368 790  146 
16369 993  6   
16370 22   8   
16371 225  124 
16372 995  624 
16373 317  580 
16374 799  320 
16375 213  659 
16376 462  242 
16377 720  820 
16378 662  203 
16379 58   455 
16380 171  620 
16381 413  935 
16382 436  632 
16383 0    372 
16384 168  554 
16385 629  829 
16386 975  289 
16387 525  722 
16388 915  522 
16389 495  76  
16390 8    957 
16391 997  27  
16392 674  494 
16393 967  695 
16394 238  401 
16395 798  87  
16396 104  981 
16397 360  127 
16398 489  669 
16399 39   113 
16400 613  92  
16401 788  184 
16402 534  940 
16403 424  619 
16404 850  529 
16405 744  20  
16406 797  54  
16407 156  162 
16408 389  147 
16409 13   743 
16410 308  485 
16411 716  426 
16412 665  988 
16413 561  723 
16414 711  353 
16415 363  511 
16416 455  39  
16417 847  801 
16418 351  86  
16419 411  901 
16420 284  141 
16421 782  180 
16422 777  276 
16423 175  85  
16424 878  652 
16425 735  13  
16426 592  277 
16427 207  420 
16428 670  760 
16429 820  269 
16430 269  1   
16431 550  402 
16432 792  870 
16433 776  171 
16434 278  305 
16435 204  602 
16436 361  925 
16437 607  212 
16438 349  228 
16439 616  697 
16440 321  579 
16441 791  98  
16442 81   671 
16443 67   988 
16444 106  890 
16445 348  979 
16446 629  78  
16447 357  907 
16448 267  415 
16449 50   869 
16450 124  906 
16451 896  508 
16452 144  369 
16453 400  651 
16454 162  397 
16455 962  740 
16456 655  699 
16457 2    661 
16458 629  898 
16459 613  269 
16460 124  334 
16461 767  564 
16462 940  194 
16463 105  143 
16464 68   773 
16465 640  142 
16466 513  944 
16467 695  424 
16468 220  584 
16469 538  613 
16470 388  787 
16471 464  425 
16472 369  108 
16473 657  623 
16474 350  852 
16475 811  482 
16476 901  108 
16477 781  518 
16478 963  703 
16479 29   289 
16480 91   616 
16481 497  273 
16482 522  738 
16483 568  28  
16484 605  883 
16485 17   490 
16486 964  930 
16487 302  356 
16488 767  289 
16489 126  443 
16490 571  538 
16491 801  869 
16492 130  79  
16493 153  790 
16494 690  23  
16495 948  867 
16496 148  543 
16497 747  219 
16498 159  121 
16499 823  134 
16500 520  648 
16501 850  115 
16502 797  920 
16503 79   468 
16504 976  948 
16505 480  675 
16506 703  816 
16507 431  605 
16508 214  327 
16509 34   953 
16510 417  39  
16511 698  400 
16512 313  118 
16513 806  394 
16514 665  634 
16515 831  45  
16516 815  680 
16517 393  159 
16518 623  207 
16519 699  663 
16520 51   452 
16521 588  165 
16522 807  901 
16523 39   287 
16524 648  786 
16525 973  413 
16526 394  642 
16527 795  882 
16528 105  816 
16529 820  423 
16530 382  752 
16531 623  643 
16532 93   404 
16533 19   497 
16534 960  337 
16535 870  756 
16536 579  745 
16537 625  283 
16538 62   512 
16539 378  861 
16540 645  527 
16541 80   815 
16542 410  80  
16543 871  363 
16544 357  737 
16545 527  623 
16546 767  426 
16547 174  152 
16548 361  375 
16549 718  597 
16550 607  450 
16551 116  495 
16552 653  278 
16553 625  679 
16554 291  45  
16555 489  100 
16556 850  998 
16557 31   309 
16558 949  978 
16559 771  642 
16560 863  909 
16561 955  478 
16562 579  474 
16563 542  210 
16564 263  503 
16565 53   47  
16566 256  335 
16567 355  779 
16568 959  15  
16569 147  23  
16570 186  627 
16571 336  172 
16572 262  708 
16573 158  501 
16574 38   159 
16575 958  92  
16576 688  416 
16577 997  442 
16578 545  41  
16579 757  718 
16580 351  125 
16581 731  755 
16582 473  231 
16583 892  422 
16584 108  501 
16585 915  361 
16586 592  298 
16587 403  573 
16588 705  77  
16589 13   134 
16590 813  991 
16591 188  428 
16592 852  891 
16593 107  196 
16594 349  159 
16595 95   431 
16596 526  367 
16597 946  83  
16598 948  517 
16599 254  260 
16600 865  353 
16601 791  89  
16602 987  690 
16603 309  930 
16604 348  968 
16605 205  593 
16606 996  940 
16607 779  654 
16608 908  106 
16609 788  944 
16610 864  278 
16611 331  875 
16612 426  785 
16613 211  433 
16614 619  476 
16615 488  618 
16616 900  853 
16617 127  594 
16618 572  829 
16619 655  678 
16620 837  335 
16621 733  878 
16622 115  43  
16623 816  70  
16624 281  509 
16625 11   164 
16626 945  806 
16627 251  571 
16628 486  390 
16629 548  389 
16630 163  993 
16631 440  346 
16632 901  691 
16633 149  318 
16634 924  756 
16635 617  126 
16636 963  134 
16637 656  558 
16638 536  500 
16639 612  679 
16640 423  0   
16641 116  566 
16642 764  874 
16643 95   664 
16644 976  154 
16645 367  871 
16646 501  721 
16647 941  596 
16648 950  674 
16649 551  149 
16650 78   537 
16651 461  431 
16652 318  8   
16653 265  412 
16654 85   259 
16655 380  321 
16656 809  607 
16657 592  89  
16658 345  31  
16659 165  268 
16660 679  134 
16661 61   875 
16662 100  983 
16663 672  176 
16664 605  878 
16665 914  21  
16666 856  316 
16667 178  792 
16668 330  943 
16669 9    754 
16670 131  35  
16671 154  320 
16672 875  167 
16673 107  49  
16674 642  348 
16675 644  754 
16676 741  818 
16677 879  932 
16678 918  96  
16679 390  713 
16680 196  264 
16681 537  332 
16682 304  153 
16683 707  557 
16684 859  742 
16685 102  944 
16686 909  662 
16687 662  310 
16688 224  814 
16689 747  570 
16690 309  491 
16691 629  562 
16692 15   430 
16693 271  976 
16694 38   965 
16695 114  87  
16696 481  824 
16697 462  933 
16698 356  232 
16699 803  555 
16700 927  650 
16701 74   520 
16702 659  89  
16703 894  842 
16704 783  248 
16705 47   189 
16706 623  622 
16707 870  713 
16708 448  26  
16709 201  886 
16710 148  843 
16711 844  728 
16712 740  537 
16713 355  509 
16714 544  228 
16715 69   311 
16716 966  207 
16717 408  551 
16718 633  949 
16719 135  989 
16720 232  890 
16721 211  11  
16722 68   384 
16723 568  968 
16724 24   614 
16725 409  44  
16726 616  948 
16727 192  428 
16728 224  125 
16729 150  341 
16730 466  214 
16731 728  556 
16732 283  805 
16733 119  650 
16734 195  202 
16735 453  526 
16736 10   93  
16737 132  584 
16738 851  516 
16739 581  659 
16740 217  672 
16741 622  304 
16742 553  879 
16743 509  521 
16744 834  832 
16745 781  839 
16746 428  753 
16747 527  359 
16748 882  116 
16749 935  194 
16750 298  148 
16751 139  920 
16752 450  891 
16753 187  884 
16754 574  96  
16755 145  152 
16756 237  306 
16757 403  544 
16758 244  754 
16759 705  96  
16760 834  260 
16761 984  169 
16762 481  369 
16763 886  67  
16764 944  966 
16765 835  771 
16766 752  99  
16767 97   178 
16768 687  135 
16769 175  467 
16770 177  203 
16771 22   477 
16772 426  826 
16773 442  209 
16774 836  993 
16775 552  440 
16776 847  227 
16777 561  446 
16778 372  129 
16779 328  39  
16780 427  813 
16781 279  708 
16782 604  107 
16783 567  17  
16784 92   183 
16785 883  164 
16786 816  91  
16787 11   187 
16788 320  917 
16789 889  740 
16790 215  921 
16791 104  10  
16792 376  751 
16793 484  893 
16794 657  677 
16795 682  240 
16796 769  928 
16797 672  149 
16798 854  141 
16799 863  465 
16800 540  916 
16801 65   60  
16802 655  453 
16803 346  527 
16804 302  306 
16805 325  883 
16806 622  763 
16807 274  691 
16808 645  320 
16809 343  883 
16810 880  69  
16811 352  686 
16812 481  14  
16813 460  793 
16814 965  820 
16815 912  320 
16816 801  691 
16817 623  900 
16818 425  711 
16819 247  656 
16820 572  105 
16821 814  26  
16822 67   627 
16823 339  246 
16824 323  541 
16825 516  608 
16826 27   597 
16827 594  787 
16828 135  203 
16829 158  888 
16830 236  820 
16831 93   861 
16832 243  112 
16833 319  271 
16834 12   485 
16835 471  64  
16836 715  814 
16837 789  43  
16838 775  8   
16839 55   694 
16840 890  991 
16841 392  478 
16842 599  821 
16843 811  845 
16844 133  873 
16845 760  659 
16846 924  612 
16847 324  708 
16848 933  754 
16849 398  327 
16850 589  80  
16851 882  218 
16852 702  433 
16853 151  661 
16854 167  62  
16855 868  921 
16856 981  742 
16857 748  695 
16858 812  704 
16859 323  405 
16860 0    976 
16861 55   890 
16862 445  154 
16863 576  750 
16864 518  257 
16865 645  113 
16866 711  129 
16867 771  308 
16868 183  552 
16869 540  111 
16870 374  445 
16871 247  929 
16872 231  284 
16873 602  720 
16874 383  161 
16875 60   132 
16876 874  560 
16877 108  248 
16878 862  17  
16879 297  351 
16880 304  557 
16881 818  939 
16882 433  143 
16883 73   224 
16884 757  7   
16885 667  803 
16886 706  967 
16887 999  78  
16888 549  267 
16889 932  389 
16890 418  799 
16891 337  469 
16892 581  122 
16893 927  386 
16894 604  269 
16895 664  586 
16896 304  105 
16897 580  181 
16898 361  249 
16899 884  195 
16900 56   984 
16901 275  310 
16902 955  424 
16903 501  914 
16904 78   344 
16905 553  882 
16906 322  9   
16907 603  184 
16908 587  543 
16909 345  344 
16910 488  289 
16911 649  432 
16912 545  103 
16913 86   65  
16914 750  40  
16915 660  784 
16916 192  596 
16917 768  433 
16918 657  911 
16919 578  139 
16920 679  395 
16921 273  160 
16922 95   337 
16923 763  600 
16924 839  999 
16925 288  658 
16926 244  851 
16927 908  92  
16928 880  875 
16929 149  832 
16930 667  956 
16931 282  338 
16932 139  199 
16933 418  914 
16934 992  115 
16935 558  454 
16936 295  329 
16937 78   107 
16938 832  539 
16939 945  796 
16940 394  106 
16941 112  897 
16942 739  665 
16943 609  585 
16944 132  472 
16945 337  782 
16946 466  682 
16947 270  330 
16948 588  449 
16949 897  492 
16950 498  795 
16951 341  831 
16952 177  822 
16953 864  744 
16954 359  943 
16955 126  910 
16956 421  216 
16957 61   801 
16958 672  138 
16959 531  65  
16960 95   6   
16961 49   874 
16962 247  843 
16963 187  996 
16964 2    467 
16965 438  727 
16966 101  935 
16967 1000 948 
16968 527  843 
16969 278  255 
16970 559  90  
16971 467  178 
16972 895  99  
16973 953  1000
16974 97   34  
16975 480  150 
16976 466  409 
16977 235  348 
16978 989  107 
16979 2    23  
16980 205  572 
16981 124  972 
16982 827  225 
16983 702  862 
16984 280  907 
16985 909  588 
16986 457  533 
16987 23   706 
16988 719  762 
16989 78   246 
16990 168  879 
16991 816  43  
16992 281  400 
16993 615  437 
16994 530  889 
16995 94   840 
16996 4    592 
16997 52   324 
16998 859  124 
16999 128  412 
17000 458  703 
17001 794  961 
17002 86   943 
17003 56   238 
17004 81   365 
17005 261  97  
17006 946  811 
17007 971  324 
17008 717  856 
17009 599  340 
17010 4    916 
17011 75   105 
17012 829  320 
17013 815  285 
17014 144  942 
17015 199  968 
17016 471  807 
17017 960  256 
17018 706  316 
17019 701  247 
17020 904  839 
17021 288  508 
17022 770  944 
17023 253  609 
17024 804  375 
17025 917  560 
17026 709  318 
17027 453  240 
17028 351  721 
17029 432  309 
17030 503  954 
17031 37   578 
17032 480  33  
17033 745  507 
17034 429  408 
17035 339  358 
17036 131  530 
17037 675  81  
17038 306  564 
17039 901  927 
17040 903  193 
17041 873  488 
17042 326  706 
17043 310  199 
17044 591  370 
17045 884  232 
17046 206  916 
17047 699  789 
17048 337  948 
17049 696  764 
17050 87   241 
17051 518  85  
17052 117  894 
17053 582  844 
17054 68   706 
17055 589  32  
17056 958  239 
17057 358  831 
17058 363  611 
17059 455  147 
17060 97   716 
17061 459  37  
17062 369  167 
17063 528  770 
17064 468  861 
17065 539  386 
17066 647  823 
17067 299  589 
17068 700  759 
17069 909  494 
17070 821  738 
17071 390  941 
17072 634  81  
17073 943  179 
17074 823  409 
17075 770  775 
17076 463  30  
17077 357  551 
17078 214  912 
17079 50   145 
17080 366  719 
17081 465  654 
17082 139  218 
17083 358  34  
17084 289  553 
17085 533  774 
17086 849  433 
17087 120  147 
17088 284  868 
17089 943  759 
17090 219  857 
17091 823  93  
17092 348  355 
17093 920  356 
17094 998  237 
17095 246  813 
17096 345  524 
17097 462  649 
17098 674  497 
17099 86   757 
17100 773  491 
17101 367  788 
17102 171  9   
17103 65   526 
17104 376  697 
17105 67   200 
17106 242  158 
17107 371  638 
17108 583  597 
17109 359  906 
17110 640  350 
17111 748  954 
17112 303  195 
17113 365  134 
17114 752  268 
17115 164  618 
17116 53   473 
17117 346  597 
17118 297  152 
17119 779  780 
17120 689  654 
17121 502  195 
17122 36   819 
17123 292  389 
17124 596  331 
17125 778  824 
17126 430  15  
17127 771  49  
17128 990  199 
17129 130  475 
17130 939  775 
17131 706  518 
17132 457  60  
17133 865  175 
17134 81   760 
17135 413  729 
17136 269  742 
17137 942  247 
17138 324  202 
17139 296  555 
17140 690  711 
17141 646  666 
17142 51   924 
17143 846  109 
17144 228  780 
17145 447  482 
17146 968  219 
17147 825  822 
17148 682  617 
17149 133  799 
17150 924  574 
17151 582  746 
17152 859  19  
17153 773  336 
17154 941  922 
17155 203  821 
17156 530  470 
17157 696  914 
17158 894  789 
17159 539  556 
17160 652  837 
17161 66   150 
17162 15   211 
17163 437  621 
17164 77   566 
17165 407  133 
17166 928  84  
17167 485  849 
17168 623  543 
17169 921  781 
17170 833  41  
17171 139  888 
17172 450  539 
17173 97   982 
17174 763  281 
17175 196  910 
17176 463  176 
17177 857  893 
17178 232  969 
17179 123  900 
17180 681  312 
17181 478  614 
17182 351  764 
17183 282  405 
17184 586  103 
17185 533  604 
17186 83   227 
17187 71   642 
17188 871  219 
17189 110  635 
17190 442  49  
17191 119  763 
17192 232  389 
17193 430  598 
17194 695  94  
17195 515  492 
17196 499  177 
17197 983  195 
17198 750  570 
17199 613  211 
17200 357  277 
17201 534  533 
17202 811  240 
17203 495  379 
17204 192  622 
17205 14   219 
17206 904  155 
17207 445  229 
17208 491  363 
17209 938  934 
17210 832  429 
17211 670  625 
17212 165  119 
17213 368  77  
17214 8    142 
17215 725  15  
17216 810  271 
17217 524  529 
17218 911  527 
17219 291  910 
17220 715  390 
17221 249  24  
17222 265  771 
17223 784  893 
17224 514  394 
17225 839  793 
17226 258  76  
17227 795  415 
17228 970  939 
17229 292  179 
17230 776  608 
17231 875  986 
17232 847  80  
17233 192  406 
17234 289  524 
17235 508  624 
17236 35   96  
17237 715  962 
17238 37   722 
17239 685  230 
17240 436  580 
17241 823  120 
17242 675  33  
17243 970  623 
17244 880  737 
17245 656  658 
17246 552  579 
17247 224  611 
17248 985  624 
17249 964  359 
17250 950  310 
17251 226  596 
17252 366  424 
17253 186  530 
17254 873  948 
17255 693  65  
17256 972  56  
17257 702  145 
17258 649  491 
17259 47   836 
17260 570  623 
17261 757  687 
17262 441  561 
17263 374  145 
17264 268  518 
17265 436  508 
17266 353  426 
17267 198  338 
17268 883  998 
17269 311  529 
17270 744  724 
17271 142  309 
17272 739  475 
17273 981  378 
17274 213  992 
17275 914  325 
17276 10   782 
17277 526  334 
17278 586  477 
17279 508  839 
17280 106  870 
17281 477  205 
17282 297  639 
17283 679  954 
17284 603  976 
17285 340  554 
17286 488  585 
17287 845  563 
17288 944  460 
17289 448  667 
17290 231  640 
17291 909  514 
17292 383  965 
17293 404  190 
17294 314  60  
17295 23   660 
17296 851  271 
17297 78   188 
17298 85   736 
17299 659  561 
17300 54   340 
17301 919  976 
17302 884  483 
17303 377  787 
17304 727  119 
17305 506  617 
17306 464  429 
17307 178  759 
17308 512  251 
17309 588  302 
17310 904  373 
17311 62   93  
17312 726  164 
17313 276  539 
17314 117  627 
17315 924  159 
17316 502  951 
17317 412  427 
17318 511  687 
17319 114  647 
17320 891  965 
17321 570  754 
17322 259  441 
17323 395  681 
17324 344  47  
17325 805  494 
17326 867  189 
17327 687  910 
17328 643  364 
17329 938  656 
17330 412  623 
17331 843  277 
17332 202  407 
17333 774  913 
17334 151  434 
17335 799  486 
17336 875  132 
17337 183  861 
17338 886  260 
17339 374  552 
17340 33   892 
17341 201  38  
17342 906  730 
17343 64   745 
17344 728  640 
17345 675  411 
17346 343  377 
17347 239  312 
17348 186  180 
17349 866  530 
17350 98   904 
17351 949  585 
17352 822  457 
17353 806  962 
17354 628  8   
17355 167  700 
17356 409  764 
17357 485  41  
17358 674  304 
17359 432  171 
17360 826  119 
17361 81   212 
17362 480  679 
17363 920  31  
17364 299  443 
17365 472  533 
17366 552  825 
17367 474  175 
17368 33   228 
17369 17   543 
17370 803  968 
17371 623  203 
17372 365  71  
17373 683  110 
17374 65   779 
17375 798  845 
17376 344  382 
17377 648  790 
17378 703  240 
17379 943  321 
17380 484  698 
17381 288  133 
17382 454  790 
17383 327  28  
17384 184  342 
17385 751  740 
17386 781  439 
17387 181  631 
17388 333  796 
17389 584  806 
17390 169  416 
17391 969  649 
17392 911  554 
17393 805  19  
17394 443  830 
17395 761  303 
17396 581  508 
17397 286  664 
17398 576  148 
17399 403  880 
17400 670  982 
17401 329  4   
17402 504  30  
17403 589  771 
17404 400  809 
17405 483  936 
17406 791  388 
17407 337  275 
17408 339  317 
17409 0    365 
17410 936  937 
17411 920  302 
17412 115  162 
17413 396  611 
17414 571  87  
17415 188  669 
17416 702  702 
17417 10   124 
17418 584  89  
17419 824  552 
17420 259  791 
17421 941  731 
17422 376  643 
17423 489  676 
17424 664  64  
17425 648  581 
17426 25   522 
17427 103  833 
17428 555  246 
17429 313  263 
17430 795  647 
17431 262  696 
17432 13   766 
17433 15   16  
17434 218  140 
17435 38   147 
17436 204  111 
17437 123  25  
17438 803  885 
17439 189  255 
17440 523  707 
17441 327  145 
17442 493  681 
17443 938  822 
17444 334  855 
17445 986  602 
17446 737  592 
17447 649  906 
17448 762  5   
17449 886  418 
17450 939  817 
17451 953  921 
17452 842  12  
17453 201  924 
17454 611  841 
17455 136  561 
17456 205  589 
17457 689  768 
17458 714  469 
17459 336  915 
17460 693  889 
17461 965  228 
17462 234  126 
17463 54   781 
17464 928  934 
17465 162  354 
17466 81   882 
17467 150  387 
17468 641  496 
17469 189  780 
17470 548  385 
17471 163  997 
17472 573  818 
17473 559  771 
17474 986  297 
17475 345  423 
17476 206  692 
17477 808  984 
17478 976  158 
17479 646  28  
17480 759  701 
17481 542  93  
17482 74   897 
17483 228  394 
17484 251  123 
17485 878  452 
17486 276  512 
17487 578  384 
17488 541  12  
17489 421  158 
17490 469  130 
17491 26   625 
17492 939  494 
17493 457  347 
17494 973  643 
17495 957  30  
17496 191  730 
17497 800  199 
17498 696  280 
17499 786  486 
17500 643  371 
17501 705  222 
17502 550  486 
17503 421  722 
17504 278  165 
17505 211  130 
17506 598  498 
17507 545  742 
17508 31   919 
17509 377  238 
17510 718  759 
17511 395  840 
17512 275  782 
17513 150  210 
17514 943  915 
17515 779  319 
17516 64   654 
17517 304  157 
17518 608  971 
17519 663  641 
17520 617  659 
17521 543  191 
17522 54   920 
17523 432  128 
17524 275  714 
17525 720  563 
17526 171  365 
17527 300  399 
17528 452  338 
17529 971  706 
17530 55   663 
17531 242  954 
17532 613  153 
17533 20   237 
17534 59   577 
17535 760  690 
17536 119  369 
17537 693  130 
17538 167  223 
17539 787  434 
17540 381  551 
17541 365  98  
17542 95   777 
17543 42   391 
17544 351  403 
17545 976  9   
17546 962  212 
17547 856  591 
17548 30   764 
17549 129  733 
17550 811  374 
17551 977  514 
17552 304  896 
17553 852  985 
17554 981  59  
17555 965  582 
17556 912  606 
17557 930  779 
17558 183  521 
17559 667  452 
17560 616  508 
17561 978  610 
17562 966  195 
17563 92   756 
17564 4    418 
17565 575  826 
17566 889  39  
17567 746  760 
17568 439  103 
17569 667  768 
17570 300  190 
17571 71   809 
17572 55   420 
17573 2    848 
17574 258  710 
17575 371  115 
17576 103  408 
17577 366  954 
17578 903  11  
17579 707  922 
17580 345  765 
17581 695  229 
17582 755  902 
17583 24   38  
17584 289  902 
17585 789  977 
17586 81   100 
17587 980  876 
17588 985  574 
17589 768  84  
17590 641  218 
17591 521  444 
17592 371  687 
17593 392  360 
17594 855  193 
17595 401  494 
17596 426  75  
17597 52   129 
17598 949  445 
17599 898  973 
17600 702  223 
17601 612  89  
17602 778  311 
17603 356  287 
17604 854  10  
17605 967  809 
17606 471  574 
17607 798  733 
17608 180  156 
17609 950  904 
17610 113  151 
17611 166  155 
17612 544  439 
17613 387  235 
17614 705  100 
17615 728  259 
17616 1000 552 
17617 585  670 
17618 13   157 
17619 368  178 
17620 559  246 
17621 123  696 
17622 236  505 
17623 554  786 
17624 870  632 
17625 706  761 
17626 791  48  
17627 961  606 
17628 509  274 
17629 98   587 
17630 707  715 
17631 338  90  
17632 896  522 
17633 384  350 
17634 570  320 
17635 660  450 
17636 185  934 
17637 828  648 
17638 23   622 
17639 851  345 
17640 814  847 
17641 145  804 
17642 101  171 
17643 698  95  
17644 225  647 
17645 299  248 
17646 873  19  
17647 926  39  
17648 972  673 
17649 792  7   
17650 24   177 
17651 393  988 
17652 416  299 
17653 879  114 
17654 238  110 
17655 312  236 
17656 798  908 
17657 489  564 
17658 604  939 
17659 189  427 
17660 696  961 
17661 686  944 
17662 433  842 
17663 142  914 
17664 123  393 
17665 658  404 
17666 623  460 
17667 614  989 
17668 579  938 
17669 892  530 
17670 883  957 
17671 919  18  
17672 748  64  
17673 257  913 
17674 653  83  
17675 162  558 
17676 344  949 
17677 254  408 
17678 383  380 
17679 339  250 
17680 230  112 
17681 124  979 
17682 140  840 
17683 880  517 
17684 421  881 
17685 82   59  
17686 926  726 
17687 197  794 
17688 716  830 
17689 241  666 
17690 102  905 
17691 33   758 
17692 953  453 
17693 976  994 
17694 224  775 
17695 627  139 
17696 129  820 
17697 438  318 
17698 108  876 
17699 539  938 
17700 96   432 
17701 43   219 
17702 707  112 
17703 66   280 
17704 836  276 
17705 324  704 
17706 243  432 
17707 787  409 
17708 21   593 
17709 960  931 
17710 579  219 
17711 65   833 
17712 985  272 
17713 240  489 
17714 523  512 
17715 9    906 
17716 325  672 
17717 562  909 
17718 285  638 
17719 458  146 
17720 852  966 
17721 407  207 
17722 340  146 
17723 877  149 
17724 718  939 
17725 886  237 
17726 208  516 
17727 139  642 
17728 563  186 
17729 51   78  
17730 468  173 
17731 424  203 
17732 525  219 
17733 818  935 
17734 308  837 
17735 737  861 
17736 407  883 
17737 70   203 
17738 1    496 
17739 974  909 
17740 743  240 
17741 510  109 
17742 353  822 
17743 300  219 
17744 913  564 
17745 25   20  
17746 689  13  
17747 841  858 
17748 977  266 
17749 741  322 
17750 711  878 
17751 586  625 
17752 492  672 
17753 863  947 
17754 918  528 
17755 464  129 
17756 980  841 
17757 985  545 
17758 858  337 
17759 452  482 
17760 362  608 
17761 846  822 
17762 99   623 
17763 212  854 
17764 800  602 
17765 124  42  
17766 177  957 
17767 751  127 
17768 811  58  
17769 6    344 
17770 91   832 
17771 700  850 
17772 190  20  
17773 42   23  
17774 51   287 
17775 14   145 
17776 355  181 
17777 290  824 
17778 221  580 
17779 297  12  
17780 117  659 
17781 647  788 
17782 239  928 
17783 596  487 
17784 135  677 
17785 407  64  
17786 264  466 
17787 151  238 
17788 31   596 
17789 107  242 
17790 787  990 
17791 464  777 
17792 162  884 
17793 911  577 
17794 973  904 
17795 874  419 
17796 726  576 
17797 818  218 
17798 267  288 
17799 103  36  
17800 89   942 
17801 917  742 
17802 610  344 
17803 797  880 
17804 598  761 
17805 361  302 
17806 197  176 
17807 900  923 
17808 741  563 
17809 201  262 
17810 976  652 
17811 44   180 
17812 337  326 
17813 512  750 
17814 971  899 
17815 64   905 
17816 525  532 
17817 54   135 
17818 829  771 
17819 243  330 
17820 63   223 
17821 289  118 
17822 72   354 
17823 609  589 
17824 185  69  
17825 224  557 
17826 581  559 
17827 450  35  
17828 860  634 
17829 78   555 
17830 191  200 
17831 177  810 
17832 956  607 
17833 958  53  
17834 868  179 
17835 764  508 
17836 229  615 
17837 303  224 
17838 757  613 
17839 999  744 
17840 360  633 
17841 35   815 
17842 436  438 
17843 302  283 
17844 620  370 
17845 749  402 
17846 883  928 
17847 500  400 
17848 834  432 
17849 767  370 
17850 47   434 
17851 642  366 
17852 1    542 
17853 257  948 
17854 607  298 
17855 886  503 
17856 10   708 
17857 176  548 
17858 508  649 
17859 37   473 
17860 590  618 
17861 205  568 
17862 244  34  
17863 500  84  
17864 804  140 
17865 970  660 
17866 917  363 
17867 663  347 
17868 760  192 
17869 559  666 
17870 582  265 
17871 31   29  
17872 785  553 
17873 236  973 
17874 538  995 
17875 280  911 
17876 824  716 
17877 842  573 
17878 157  328 
17879 323  96  
17880 180  543 
17881 876  780 
17882 115  450 
17883 816  47  
17884 998  315 
17885 546  152 
17886 855  390 
17887 251  642 
17888 396  835 
17889 557  376 
17890 977  124 
17891 158  221 
17892 859  112 
17893 716  735 
17894 665  687 
17895 575  148 
17896 264  880 
17897 416  155 
17898 713  667 
17899 155  742 
17900 30   682 
17901 858  43  
17902 747  948 
17903 807  982 
17904 717  852 
17905 523  487 
17906 816  619 
17907 470  300 
17908 57   889 
17909 661  637 
17910 223  44  
17911 811  288 
17912 986  774 
17913 91   598 
17914 181  728 
17915 264  140 
17916 199  964 
17917 759  140 
17918 298  407 
17919 909  373 
17920 187  629 
17921 888  998 
17922 18   681 
17923 117  109 
17924 207  239 
17925 945  434 
17926 546  935 
17927 691  178 
17928 329  85  
17929 633  903 
17930 232  808 
17931 709  314 
17932 287  212 
17933 439  57  
17934 349  443 
17935 49   423 
17936 840  438 
17937 166  802 
17938 480  37  
17939 83   128 
17940 376  118 
17941 16   199 
17942 115  787 
17943 666  129 
17944 650  522 
17945 297  802 
17946 816  286 
17947 548  173 
17948 534  392 
17949 112  751 
17950 206  920 
17951 478  925 
17952 741  301 
17953 33   358 
17954 750  725 
17955 941  684 
17956 25   635 
17957 265  164 
17958 103  790 
17959 87   141 
17960 223  477 
17961 96   544 
17962 285  170 
17963 649  415 
17964 333  670 
17965 725  748 
17966 713  768 
17967 787  9   
17968 962  97  
17969 247  233 
17970 731  676 
17971 768  426 
17972 74   609 
17973 588  235 
17974 756  785 
17975 422  175 
17976 445  6   
17977 853  249 
17978 212  759 
17979 839  442 
17980 507  821 
17981 576  530 
17982 804  546 
17983 843  12  
17984 995  985 
17985 17   33  
17986 326  53  
17987 773  762 
17988 939  654 
17989 335  265 
17990 464  814 
17991 662  674 
17992 581  434 
17993 636  675 
17994 378  671 
17995 491  148 
17996 862  421 
17997 864  345 
17998 239  579 
17999 594  974 
18000 400  883 
18001 1    352 
18002 667  983 
18003 561  360 
18004 395  40  
18005 789  360 
18006 558  431 
18007 888  45  
18008 106  406 
18009 777  673 
18010 281  306 
18011 394  115 
18012 772  876 
18013 901  512 
18014 963  219 
18015 746  233 
18016 665  325 
18017 264  554 
18018 870  318 
18019 584  403 
18020 254  595 
18021 312  310 
18022 902  5   
18023 155  896 
18024 925  188 
18025 498  240 
18026 996  119 
18027 329  759 
18028 368  347 
18029 38   217 
18030 919  544 
18031 167  319 
18032 354  258 
18033 990  655 
18034 155  460 
18035 701  345 
18036 574  217 
18037 514  700 
18038 154  319 
18039 204  629 
18040 294  755 
18041 981  283 
18042 838  508 
18043 785  0   
18044 17   158 
18045 24   846 
18046 79   1000
18047 939  891 
18048 409  276 
18049 743  305 
18050 856  171 
18051 978  642 
18052 390  540 
18053 874  307 
18054 32   684 
18055 583  473 
18056 309  996 
18057 168  316 
18058 154  243 
18059 124  933 
18060 638  315 
18061 827  216 
18062 617  764 
18063 469  939 
18064 1    253 
18065 400  750 
18066 220  487 
18067 497  686 
18068 847  186 
18069 79   300 
18070 215  316 
18071 275  635 
18072 37   888 
18073 955  237 
18074 556  280 
18075 489  403 
18076 717  363 
18077 498  419 
18078 544  815 
18079 871  998 
18080 350  767 
18081 299  47  
18082 428  457 
18083 142  747 
18084 739  749 
18085 167  108 
18086 780  645 
18087 12   799 
18088 425  486 
18089 807  45  
18090 989  906 
18091 60   662 
18092 332  403 
18093 673  457 
18094 532  260 
18095 811  455 
18096 377  360 
18097 764  364 
18098 616  331 
18099 503  617 
18100 434  176 
18101 717  755 
18102 791  876 
18103 44   823 
18104 316  76  
18105 814  439 
18106 415  680 
18107 643  333 
18108 537  978 
18109 364  192 
18110 117  392 
18111 500  256 
18112 373  62  
18113 1000 968 
18114 675  636 
18115 435  407 
18116 889  80  
18117 905  731 
18118 79   125 
18119 851  125 
18120 576  292 
18121 906  765 
18122 654  651 
18123 585  58  
18124 880  618 
18125 20   867 
18126 866  565 
18127 633  294 
18128 619  279 
18129 271  594 
18130 243  11  
18131 333  181 
18132 125  51  
18133 517  743 
18134 337  67  
18135 120  429 
18136 450  354 
18137 950  447 
18138 309  45  
18139 544  954 
18140 161  110 
18141 419  690 
18142 66   421 
18143 449  299 
18144 820  846 
18145 285  197 
18146 368  645 
18147 241  137 
18148 755  307 
18149 868  114 
18150 750  122 
18151 939  217 
18152 708  554 
18153 74   586 
18154 0    633 
18155 881  74  
18156 85   74  
18157 92   890 
18158 327  253 
18159 195  919 
18160 179  58  
18161 271  458 
18162 813  839 
18163 688  788 
18164 981  241 
18165 734  475 
18166 282  160 
18167 911  523 
18168 625  312 
18169 148  777 
18170 224  511 
18171 957  473 
18172 316  455 
18173 724  452 
18174 583  131 
18175 606  32  
18176 650  838 
18177 652  312 
18178 306  380 
18179 292  191 
18180 575  892 
18181 596  109 
18182 889  221 
18183 250  545 
18184 935  824 
18185 335  872 
18186 690  425 
18187 775  864 
18188 171  612 
18189 92   226 
18190 408  33  
18191 569  554 
18192 253  17  
18193 594  47  
18194 116  910 
18195 319  235 
18196 492  717 
18197 533  417 
18198 953  165 
18199 194  835 
18200 263  464 
18201 159  515 
18202 272  941 
18203 60   888 
18204 378  407 
18205 765  265 
18206 954  680 
18207 479  247 
18208 760  631 
18209 806  292 
18210 497  412 
18211 460  224 
18212 377  710 
18213 393  297 
18214 485  691 
18215 199  133 
18216 902  602 
18217 282  627 
18218 284  133 
18219 627  999 
18220 277  828 
18221 496  35  
18222 87   673 
18223 57   630 
18224 4    171 
18225 117  302 
18226 541  476 
18227 691  499 
18228 1000 610 
18229 179  135 
18230 566  817 
18231 98   461 
18232 771  472 
18233 19   671 
18234 10   778 
18235 503  887 
18236 37   271 
18237 46   55  
18238 378  527 
18239 966  388 
18240 770  179 
18241 89   961 
18242 993  171 
18243 850  244 
18244 278  885 
18245 642  232 
18246 681  534 
18247 349  672 
18248 997  756 
18249 141  660 
18250 254  231 
18251 388  711 
18252 872  610 
18253 46   755 
18254 964  18  
18255 90   931 
18256 16   962 
18257 436  715 
18258 309  323 
18259 385  275 
18260 998  369 
18261 850  824 
18262 603  400 
18263 241  375 
18264 252  81  
18265 824  338 
18266 697  196 
18267 646  255 
18268 501  702 
18269 88   589 
18270 920  852 
18271 597  468 
18272 212  566 
18273 493  955 
18274 502  907 
18275 114  643 
18276 575  274 
18277 356  580 
18278 623  518 
18279 217  299 
18280 113  458 
18281 978  974 
18282 191  763 
18283 784  667 
18284 408  703 
18285 924  351 
18286 804  293 
18287 52   514 
18288 813  689 
18289 658  926 
18290 944  575 
18291 819  337 
18292 120  982 
18293 373  413 
18294 776  794 
18295 617  652 
18296 709  164 
18297 965  330 
18298 552  737 
18299 474  375 
18300 102  855 
18301 323  23  
18302 544  927 
18303 401  594 
18304 608  278 
18305 859  135 
18306 716  260 
18307 294  374 
18308 981  664 
18309 33   248 
18310 955  793 
18311 902  768 
18312 692  476 
18313 434  508 
18314 934  433 
18315 203  185 
18316 899  939 
18317 57   972 
18318 313  570 
18319 27   228 
18320 550  240 
18321 942  638 
18322 688  873 
18323 356  719 
18324 361  803 
18325 771  370 
18326 752  11  
18327 625  275 
18328 482  788 
18329 122  511 
18330 175  363 
18331 145  332 
18332 27   800 
18333 447  875 
18334 396  475 
18335 767  82  
18336 36   50  
18337 398  697 
18338 336  796 
18339 926  991 
18340 340  648 
18341 748  381 
18342 755  555 
18343 384  418 
18344 196  478 
18345 823  19  
18346 475  129 
18347 115  166 
18348 546  436 
18349 548  282 
18350 569  525 
18351 864  223 
18352 573  697 
18353 6    218 
18354 538  643 
18355 725  771 
18356 967  714 
18357 328  667 
18358 134  201 
18359 65   600 
18360 337  979 
18361 360  12  
18362 143  181 
18363 475  845 
18364 885  778 
18365 355  819 
18366 281  692 
18367 216  506 
18368 220  814 
18369 665  975 
18370 958  68  
18371 446  440 
18372 86   131 
18373 803  889 
18374 155  262 
18375 669  896 
18376 708  698 
18377 782  161 
18378 717  948 
18379 277  807 
18380 97   555 
18381 251  302 
18382 809  918 
18383 94   168 
18384 961  243 
18385 619  904 
18386 914  346 
18387 884  540 
18388 900  281 
18389 425  703 
18390 835  996 
18391 178  33  
18392 533  665 
18393 754  748 
18394 740  943 
18395 724  52  
18396 505  378 
18397 364  459 
18398 899  464 
18399 945  146 
18400 366  676 
18401 59   12  
18402 232  712 
18403 167  610 
18404 349  347 
18405 819  935 
18406 261  634 
18407 300  16  
18408 309  366 
18409 242  771 
18410 689  448 
18411 530  964 
18412 133  705 
18413 232  132 
18414 506  606 
18415 842  896 
18416 7    974 
18417 194  243 
18418 76   243 
18419 459  253 
18420 740  90  
18421 742  568 
18422 96   768 
18423 804  846 
18424 142  109 
18425 700  943 
18426 204  798 
18427 481  615 
18428 243  832 
18429 778  605 
18430 319  575 
18431 912  743 
18432 448  391 
18433 835  533 
18434 692  170 
18435 457  351 
18436 37   91  
18437 166  305 
18438 60   300 
18439 62   486 
18440 235  990 
18441 587  146 
18442 149  595 
18443 792  926 
18444 84   120 
18445 430  100 
18446 250  352 
18447 831  952 
18448 478  400 
18449 344  916 
18450 254  443 
18451 934  615 
18452 277  352 
18453 542  692 
18454 46   423 
18455 69   14  
18456 362  24  
18457 585  96  
18458 110  581 
18459 737  173 
18460 428  50  
18461 333  235 
18462 432  132 
18463 457  727 
18464 309  499 
18465 521  571 
18466 484  79  
18467 470  174 
18468 479  820 
18469 158  283 
18470 640  54  
18471 859  186 
18472 642  732 
18473 243  401 
18474 907  736 
18475 109  456 
18476 476  973 
18477 759  306 
18478 796  312 
18479 337  709 
18480 904  201 
18481 613  857 
18482 62   209 
18483 302  544 
18484 682  66  
18485 283  181 
18486 601  178 
18487 456  863 
18488 347  778 
18489 446  594 
18490 923  114 
18491 563  155 
18492 835  670 
18493 516  370 
18494 258  158 
18495 115  657 
18496 887  579 
18497 112  365 
18498 656  132 
18499 310  325 
18500 644  621 
18501 118  550 
18502 289  606 
18503 141  469 
18504 962  831 
18505 46   306 
18506 415  155 
18507 272  411 
18508 92   52  
18509 309  644 
18510 689  46  
18511 214  515 
18512 382  341 
18513 760  901 
18514 940  121 
18515 889  615 
18516 216  931 
18517 910  801 
18518 91   485 
18519 54   235 
18520 771  657 
18521 778  255 
18522 547  950 
18523 162  136 
18524 492  647 
18525 593  180 
18526 556  56  
18527 683  310 
18528 980  872 
18529 30   403 
18530 323  167 
18531 869  400 
18532 998  636 
18533 548  699 
18534 142  779 
18535 368  746 
18536 377  524 
18537 743  770 
18538 985  510 
18539 969  961 
18540 436  258 
18541 627  561 
18542 890  325 
18543 643  401 
18544 922  632 
18545 624  872 
18546 458  56  
18547 776  157 
18548 98   3   
18549 633  654 
18550 377  72  
18551 361  947 
18552 616  619 
18553 586  399 
18554 473  590 
18555 224  324 
18556 830  562 
18557 175  475 
18558 987  673 
18559 269  691 
18560 149  877 
18561 45   972 
18562 232  749 
18563 236  953 
18564 923  523 
18565 893  889 
18566 803  113 
18567 879  698 
18568 224  896 
18569 738  518 
18570 763  953 
18571 327  917 
18572 292  680 
18573 993  557 
18574 43   354 
18575 986  350 
18576 15   712 
18577 785  985 
18578 769  508 
18579 587  865 
18580 310  796 
18581 497  827 
18582 372  589 
18583 764  863 
18584 711  704 
18585 485  298 
18586 215  913 
18587 275  484 
18588 540  552 
18589 298  975 
18590 194  236 
18591 67   134 
18592 657  669 
18593 864  651 
18594 631  271 
18595 961  295 
18596 834  47  
18597 66   69  
18598 449  75  
18599 126  941 
18600 566  414 
18601 421  229 
18602 649  66  
18603 190  930 
18604 492  62  
18605 351  245 
18606 51   201 
18607 717  516 
18608 636  948 
18609 553  408 
18610 834  403 
18611 931  535 
18612 550  511 
18613 993  306 
18614 211  237 
18615 504  865 
18616 356  962 
18617 84   101 
18618 439  389 
18619 296  941 
18620 116  310 
18621 690  69  
18622 33   846 
18623 432  349 
18624 588  612 
18625 150  203 
18626 837  131 
18627 620  789 
18628 145  585 
18629 645  780 
18630 410  351 
18631 654  762 
18632 276  260 
18633 188  600 
18634 713  376 
18635 927  837 
18636 710  607 
18637 286  87  
18638 823  788 
18639 203  695 
18640 11   300 
18641 712  143 
18642 493  290 
18643 66   276 
18644 195  424 
18645 15   349 
18646 204  426 
18647 591  526 
18648 199  353 
18649 554  368 
18650 602  100 
18651 639  855 
18652 971  281 
18653 761  829 
18654 726  13  
18655 583  652 
18656 929  877 
18657 749  164 
18658 327  82  
18659 811  257 
18660 43   667 
18661 114  748 
18662 407  203 
18663 725  444 
18664 808  424 
18665 916  947 
18666 494  675 
18667 766  923 
18668 395  528 
18669 692  858 
18670 51   82  
18671 268  354 
18672 800  331 
18673 302  193 
18674 567  719 
18675 641  841 
18676 447  861 
18677 149  707 
18678 465  630 
18679 979  140 
18680 93   102 
18681 554  520 
18682 923  469 
18683 893  735 
18684 805  921 
18685 687  421 
18686 597  551 
18687 281  134 
18688 816  317 
18689 154  956 
18690 193  978 
18691 306  723 
18692 864  41  
18693 345  740 
18694 128  142 
18695 764  929 
18696 238  456 
18697 185  188 
18698 918  532 
18699 759  638 
18700 390  157 
18701 120  487 
18702 300  283 
18703 30   436 
18704 950  357 
18705 447  213 
18706 530  715 
18707 525  863 
18708 696  671 
18709 327  643 
18710 859  298 
18711 114  479 
18712 596  815 
18713 490  830 
18714 605  935 
18715 803  931 
18716 312  902 
18717 247  206 
18718 798  746 
18719 53   433 
18720 191  519 
18721 832  491 
18722 541  269 
18723 269  202 
18724 239  940 
18725 22   898 
18726 942  723 
18727 709  588 
18728 123  659 
18729 141  97  
18730 731  833 
18731 459  514 
18732 226  267 
18733 67   789 
18734 641  966 
18735 89   946 
18736 167  596 
18737 519  272 
18738 941  446 
18739 943  656 
18740 569  608 
18741 555  597 
18742 979  597 
18743 449  546 
18744 77   26  
18745 674  44  
18746 916  465 
18747 773  456 
18748 798  917 
18749 551  199 
18750 590  283 
18751 129  530 
18752 32   323 
18753 929  971 
18754 682  773 
18755 246  716 
18756 686  921 
18757 91   977 
18758 787  179 
18759 579  949 
18760 950  828 
18761 97   638 
18762 60   358 
18763 869  932 
18764 892  523 
18765 502  294 
18766 84   66  
18767 123  556 
18768 988  488 
18769 349  34  
18770 305  900 
18771 819  318 
18772 162  519 
18773 879  886 
18774 844  987 
18775 482  628 
18776 797  961 
18777 875  789 
18778 241  753 
18779 577  899 
18780 923  699 
18781 840  203 
18782 676  849 
18783 812  145 
18784 427  949 
18785 807  398 
18786 793  324 
18787 998  319 
18788 198  899 
18789 4    600 
18790 834  667 
18791 836  317 
18792 769  364 
18793 792  187 
18794 190  246 
18795 683  51  
18796 498  902 
18797 401  239 
18798 403  361 
18799 901  170 
18800 320  473 
18801 543  869 
18802 433  734 
18803 820  30  
18804 970  399 
18805 165  239 
18806 458  379 
18807 688  696 
18808 252  607 
18809 226  209 
18810 784  741 
18811 348  700 
18812 311  296 
18813 525  178 
18814 304  570 
18815 75   941 
18816 573  166 
18817 956  18  
18818 813  759 
18819 109  646 
18820 681  285 
18821 572  977 
18822 420  326 
18823 314  961 
18824 828  331 
18825 978  472 
18826 853  1000
18827 175  732 
18828 991  798 
18829 371  129 
18830 281  169 
18831 103  334 
18832 548  169 
18833 836  236 
18834 335  568 
18835 176  159 
18836 708  181 
18837 46   948 
18838 980  818 
18839 466  584 
18840 560  452 
18841 569  378 
18842 96   548 
18843 564  443 
18844 677  740 
18845 345  331 
18846 467  728 
18847 674  822 
18848 930  428 
18849 835  505 
18850 925  359 
18851 88   658 
18852 535  1000
18853 203  67  
18854 415  958 
18855 260  169 
18856 977  681 
18857 887  426 
18858 209  711 
18859 50   325 
18860 986  905 
18861 329  394 
18862 866  227 
18863 250  140 
18864 273  179 
18865 162  877 
18866 678  301 
18867 867  356 
18868 406  96  
18869 943  187 
18870 69   234 
18871 362  356 
18872 399  921 
18873 952  742 
18874 306  287 
18875 550  762 
18876 864  349 
18877 684  584 
18878 421  574 
18879 619  37  
18880 70   351 
18881 236  627 
18882 667  939 
18883 713  57  
18884 586  777 
18885 418  903 
18886 992  96  
18887 314  84  
18888 618  230 
18889 251  608 
18890 465  66  
18891 38   529 
18892 898  558 
18893 831  348 
18894 828  770 
18895 722  509 
18896 911  325 
18897 821  455 
18898 436  923 
18899 521  283 
18900 869  459 
18901 9    207 
18902 212  962 
18903 765  298 
18904 341  802 
18905 696  783 
18906 555  52  
18907 350  944 
18908 96   703 
18909 260  472 
18910 963  795 
18911 543  543 
18912 338  891 
18913 852  513 
18914 854  83  
18915 713  945 
18916 455  508 
18917 132  33  
18918 886  800 
18919 706  90  
18920 639  680 
18921 203  508 
18922 959  525 
18923 339  652 
18924 726  776 
18925 364  73  
18926 41   122 
18927 961  185 
18928 502  219 
18929 329  311 
18930 790  388 
18931 495  646 
18932 61   216 
18933 529  110 
18934 416  609 
18935 607  317 
18936 321  548 
18937 443  9   
18938 710  73  
18939 182  406 
18940 92   272 
18941 922  73  
18942 34   409 
18943 804  149 
18944 509  249 
18945 419  241 
18946 993  180 
18947 225  290 
18948 172  495 
18949 979  905 
18950 451  288 
18951 361  418 
18952 439  771 
18953 819  993 
18954 254  774 
18955 44   64  
18956 286  29  
18957 362  687 
18958 0    422 
18959 860  162 
18960 717  359 
18961 2    588 
18962 613  342 
18963 350  739 
18964 665  726 
18965 688  337 
18966 997  169 
18967 467  946 
18968 229  831 
18969 621  749 
18970 824  369 
18971 185  441 
18972 962  131 
18973 307  970 
18974 521  128 
18975 18   250 
18976 848  181 
18977 27   328 
18978 373  710 
18979 156  108 
18980 428  777 
18981 472  169 
18982 181  719 
18983 995  55  
18984 321  885 
18985 805  395 
18986 44   819 
18987 839  156 
18988 438  607 
18989 4    509 
18990 156  720 
18991 984  465 
18992 36   942 
18993 520  787 
18994 294  610 
18995 490  393 
18996 54   542 
18997 697  861 
18998 455  949 
18999 33   785 
19000 46   477 
19001 514  115 
19002 325  362 
19003 399  759 
19004 64   716 
19005 998  67  
19006 138  335 
19007 380  686 
19008 440  619 
19009 495  207 
19010 22   309 
19011 135  110 
19012 29   743 
19013 31   425 
19014 859  824 
19015 949  950 
19016 845  837 
19017 591  353 
19018 676  673 
19019 916  144 
19020 632  221 
19021 812  33  
19022 752  930 
19023 966  798 
19024 459  500 
19025 295  74  
19026 371  736 
19027 712  228 
19028 968  846 
19029 682  964 
19030 848  484 
19031 43   2   
19032 225  891 
19033 262  800 
19034 77   799 
19035 61   634 
19036 243  587 
19037 838  850 
19038 748  724 
19039 542  266 
19040 798  656 
19041 360  956 
19042 895  660 
19043 450  802 
19044 143  453 
19045 459  48  
19046 242  384 
19047 523  619 
19048 325  583 
19049 915  261 
19050 652  752 
19051 246  459 
19052 322  411 
19053 868  434 
19054 672  397 
19055 875  406 
19056 340  235 
19057 425  787 
19058 464  839 
19059 715  446 
19060 865  269 
19061 615  814 
19062 841  245 
19063 624  195 
19064 54   661 
19065 757  474 
19066 508  392 
19067 353  669 
19068 798  391 
19069 0    320 
19070 936  908 
19071 25   179 
19072 698  138 
19073 105  14  
19074 430  741 
19075 718  120 
19076 508  76  
19077 272  929 
19078 129  552 
19079 521  510 
19080 830  368 
19081 560  340 
19082 214  245 
19083 643  815 
19084 82   923 
19085 797  10  
19086 986  197 
19087 271  231 
19088 437  651 
19089 241  58  
19090 310  651 
19091 481  523 
19092 743  836 
19093 999  734 
19094 436  452 
19095 763  251 
19096 765  841 
19097 431  195 
19098 643  491 
19099 373  976 
19100 299  981 
19101 140  343 
19102 294  712 
19103 905  565 
19104 967  307 
19105 588  571 
19106 662  790 
19107 240  649 
19108 918  396 
19109 330  263 
19110 480  248 
19111 383  393 
19112 761  89  
19113 429  209 
19114 230  391 
19115 624  382 
19116 555  828 
19117 149  931 
19118 760  142 
19119 707  649 
19120 236  899 
19121 222  698 
19122 487  530 
19123 833  988 
19124 81   855 
19125 851  279 
19126 489  442 
19127 115  16  
19128 154  604 
19129 73   516 
19130 573  879 
19131 149  359 
19132 744  463 
19133 617  71  
19134 642  552 
19135 734  825 
19136 722  397 
19137 261  31  
19138 501  698 
19139 411  686 
19140 946  793 
19141 971  438 
19142 865  943 
19143 378  294 
19144 659  245 
19145 899  546 
19146 209  512 
19147 617  387 
19148 857  172 
19149 566  580 
19150 52   970 
19151 739  176 
19152 522  662 
19153 169  35  
19154 5    333 
19155 217  303 
19156 830  827 
19157 205  859 
19158 848  534 
19159 299  846 
19160 433  336 
19161 866  998 
19162 211  167 
19163 121  37  
19164 875  124 
19165 197  408 
19166 144  28  
19167 515  63  
19168 787  706 
19169 667  872 
19170 351  643 
19171 62   989 
19172 131  708 
19173 154  879 
19174 585  1   
19175 50   908 
19176 619  302 
19177 414  452 
19178 181  455 
19179 506  832 
19180 395  297 
19181 828  961 
19182 261  448 
19183 595  822 
19184 300  362 
19185 360  389 
19186 258  914 
19187 189  702 
19188 394  370 
19189 251  877 
19190 34   973 
19191 684  151 
19192 850  683 
19193 1000 196 
19194 77   890 
19195 591  704 
19196 213  266 
19197 358  877 
19198 773  232 
19199 21   915 
19200 5    126 
19201 351  508 
19202 178  610 
19203 51   464 
19204 277  926 
19205 761  763 
19206 904  232 
19207 378  173 
19208 373  886 
19209 359  647 
19210 382  764 
19211 368  90  
19212 47   90  
19213 674  688 
19214 257  748 
19215 667  441 
19216 706  321 
19217 503  533 
19218 676  441 
19219 487  176 
19220 397  136 
19221 14   256 
19222 934  881 
19223 865  480 
19224 994  196 
19225 641  951 
19226 680  971 
19227 145  320 
19228 571  419 
19229 308  827 
19230 956  255 
19231 135  826 
19232 799  339 
19233 490  25  
19234 24   589 
19235 462  227 
19236 780  60  
19237 231  994 
19238 715  977 
19239 111  696 
19240 480  398 
19241 978  389 
19242 634  739 
19243 671  954 
19244 768  715 
19245 608  121 
19246 776  905 
19247 54   202 
19248 831  262 
19249 116  951 
19250 584  65  
19251 738  982 
19252 950  291 
19253 309  89  
19254 994  979 
19255 740  211 
19256 830  341 
19257 959  51  
19258 103  889 
19259 403  397 
19260 797  37  
19261 670  205 
19262 820  250 
19263 345  158 
19264 933  549 
19265 972  13  
19266 734  531 
19267 743  803 
19268 856  701 
19269 680  762 
19270 977  732 
19271 45   617 
19272 213  979 
19273 416  571 
19274 757  790 
19275 5    935 
19276 434  947 
19277 53   939 
19278 791  109 
19279 261  930 
19280 150  95  
19281 558  840 
19282 763  538 
19283 288  724 
19284 862  322 
19285 899  468 
19286 793  889 
19287 991  634 
19288 417  605 
19289 880  941 
19290 571  316 
19291 663  260 
19292 633  235 
19293 903  277 
19294 220  53  
19295 607  699 
19296 206  192 
19297 125  496 
19298 215  370 
19299 162  378 
19300 300  12  
19301 466  804 
19302 694  196 
19303 0    496 
19304 385  266 
19305 332  957 
19306 357  94  
19307 977  449 
19308 315  550 
19309 336  471 
19310 730  651 
19311 324  696 
19312 287  564 
19313 522  191 
19314 356  105 
19315 893  350 
19316 416  334 
19317 916  395 
19318 321  327 
19319 270  264 
19320 904  322 
19321 318  52  
19322 378  259 
19323 468  641 
19324 638  637 
19325 119  56  
19326 449  84  
19327 587  330 
19328 891  48  
19329 469  138 
19330 914  9   
19331 411  1   
19332 406  260 
19333 279  14  
19334 491  108 
19335 680  869 
19336 592  401 
19337 705  214 
19338 260  969 
19339 781  217 
19340 126  392 
19341 550  286 
19342 59   465 
19343 981  498 
19344 326  201 
19345 900  648 
19346 895  45  
19347 715  699 
19348 805  821 
19349 978  299 
19350 362  4   
19351 899  321 
19352 624  462 
19353 110  585 
19354 20   689 
19355 172  404 
19356 340  930 
19357 414  489 
19358 642  148 
19359 771  552 
19360 538  805 
19361 153  321 
19362 909  650 
19363 824  650 
19364 724  639 
19365 461  148 
19366 765  454 
19367 403  231 
19368 156  501 
19369 393  110 
19370 510  925 
19371 789  520 
19372 134  439 
19373 602  71  
19374 574  993 
19375 385  835 
19376 18   39  
19377 41   350 
19378 518  728 
19379 276  659 
19380 795  869 
19381 744  795 
19382 566  756 
19383 123  295 
19384 877  370 
19385 236  126 
19386 973  816 
19387 574  317 
19388 120  654 
19389 943  232 
19390 288  574 
19391 553  102 
19392 905  818 
19393 317  558 
19394 619  114 
19395 430  247 
19396 704  148 
19397 944  643 
19398 727  648 
19399 395  253 
19400 215  468 
19401 125  342 
19402 127  824 
19403 699  427 
19404 97   509 
19405 159  253 
19406 55   444 
19407 154  927 
19408 594  97  
19409 257  271 
19410 494  81  
19411 941  750 
19412 733  588 
19413 60   846 
19414 507  439 
19415 20   376 
19416 848  393 
19417 412  226 
19418 612  65  
19419 605  904 
19420 215  604 
19421 425  138 
19422 632  750 
19423 284  91  
19424 346  652 
19425 406  738 
19426 982  273 
19427 915  344 
19428 290  855 
19429 313  686 
19430 744  646 
19431 412  678 
19432 527  815 
19433 827  705 
19434 227  353 
19435 718  789 
19436 386  952 
19437 23   162 
19438 892  859 
19439 145  720 
19440 491  850 
19441 119  943 
19442 407  545 
19443 211  416 
19444 439  240 
19445 840  383 
19446 275  556 
19447 261  513 
19448 390  431 
19449 284  934 
19450 376  831 
19451 837  350 
19452 205  484 
19453 281  492 
19454 85   830 
19455 998  163 
19456 802  150 
19457 470  776 
19458 449  515 
19459 68   819 
19460 345  594 
19461 181  252 
19462 958  924 
19463 780  720 
19464 215  941 
19465 812  321 
19466 722  451 
19467 501  704 
19468 155  590 
19469 618  752 
19470 821  61  
19471 989  887 
19472 461  446 
19473 869  257 
19474 265  403 
19475 431  346 
19476 878  49  
19477 94   480 
19478 555  126 
19479 848  4   
19480 811  392 
19481 707  331 
19482 797  213 
19483 513  518 
19484 504  681 
19485 144  522 
19486 40   971 
19487 259  363 
19488 856  301 
19489 602  337 
19490 950  799 
19491 420  830 
19492 883  901 
19493 131  50  
19494 887  737 
19495 389  758 
19496 398  636 
19497 236  356 
19498 787  652 
19499 808  125 
19500 116  306 
19501 245  466 
19502 102  325 
19503 162  550 
19504 35   268 
19505 254  384 
19506 418  668 
19507 849  672 
19508 888  314 
19509 452  931 
19510 438  202 
19511 809  486 
19512 408  265 
19513 318  780 
19514 564  979 
19515 391  81  
19516 746  986 
19517 806  944 
19518 870  43  
19519 674  286 
19520 471  84  
19521 699  177 
19522 595  768 
19523 980  718 
19524 67   443 
19525 756  309 
19526 43   211 
19527 336  103 
19528 158  288 
19529 702  445 
19530 47   616 
19531 547  592 
19532 252  442 
19533 242  339 
19534 816  526 
19535 48   920 
19536 322  330 
19537 179  495 
19538 398  143 
19539 181  517 
19540 17   393 
19541 416  890 
19542 960  359 
19543 796  149 
19544 706  279 
19545 14   334 
19546 397  126 
19547 678  209 
19548 235  98  
19549 297  331 
19550 571  637 
19551 580  741 
19552 107  445 
19553 453  217 
19554 589  881 
19555 554  756 
19556 600  330 
19557 969  59  
19558 390  341 
19559 466  231 
19560 371  158 
19561 659  861 
19562 495  1   
19563 875  623 
19564 368  775 
19565 354  870 
19566 462  357 
19567 432  776 
19568 713  489 
19569 556  81  
19570 21   298 
19571 902  109 
19572 171  501 
19573 300  279 
19574 798  18  
19575 927  970 
19576 664  18  
19577 78   420 
19578 786  605 
19579 873  781 
19580 582  935 
19581 68   553 
19582 398  478 
19583 882  69  
19584 725  649 
19585 981  895 
19586 877  958 
19587 109  84  
19588 646  275 
19589 203  96  
19590 339  544 
19591 394  867 
19592 929  766 
19593 553  314 
19594 237  321 
19595 57   555 
19596 576  629 
19597 645  234 
19598 408  999 
19599 193  187 
19600 105  983 
19601 442  650 
19602 792  801 
19603 98   120 
19604 446  550 
19605 930  883 
19606 109  920 
19607 93   307 
19608 773  711 
19609 870  597 
19610 178  19  
19611 249  990 
19612 641  986 
19613 170  846 
19614 11   718 
19615 304  340 
19616 993  88  
19617 331  849 
19618 760  317 
19619 98   700 
19620 813  333 
19621 426  843 
19622 709  396 
19623 326  980 
19624 220  79  
19625 386  281 
19626 483  775 
19627 547  206 
19628 572  779 
19629 23   605 
19630 46   678 
19631 950  136 
19632 590  931 
19633 834  512 
19634 52   453 
19635 190  335 
19636 600  785 
19637 358  513 
19638 252  28  
19639 879  97  
19640 367  829 
19641 314  427 
19642 261  224 
19643 360  165 
19644 821  472 
19645 733  764 
19646 717  215 
19647 69   952 
19648 34   685 
19649 221  877 
19650 834  964 
19651 368  382 
19652 229  623 
19653 734  708 
19654 53   514 
19655 175  19  
19656 463  788 
19657 744  534 
19658 857  985 
19659 684  862 
19660 421  256 
19661 723  896 
19662 559  110 
19663 169  328 
19664 593  832 
19665 939  860 
19666 932  227 
19667 736  484 
19668 576  396 
19669 25   442 
19670 804  180 
19671 202  738 
19672 580  467 
19673 135  218 
19674 859  652 
19675 935  627 
19676 393  664 
19677 379  611 
19678 56   702 
19679 37   773 
19680 104  714 
19681 897  137 
19682 272  666 
19683 664  172 
19684 445  709 
19685 281  412 
19686 684  230 
19687 713  643 
19688 808  885 
19689 960  848 
19690 178  693 
19691 323  420 
19692 217  937 
19693 34   544 
19694 380  418 
19695 820  26  
19696 880  261 
19697 753  9   
19698 919  470 
19699 70   792 
19700 363  302 
19701 400  308 
19702 861  547 
19703 19   426 
19704 411  212 
19705 565  507 
19706 291  554 
19707 761  352 
19708 454  421 
19709 438  574 
19710 2    314 
19711 387  492 
19712 675  513 
19713 36   973 
19714 202  469 
19715 165  815 
19716 993  422 
19717 822  579 
19718 3    301 
19719 900  549 
19720 923  460 
19721 616  874 
19722 374  622 
19723 662  107 
19724 754  968 
19725 23   935 
19726 770  456 
19727 334  59  
19728 479  683 
19729 686  319 
19730 333  82  
19731 690  533 
19732 328  814 
19733 720  464 
19734 148  25  
19735 65   653 
19736 194  811 
19737 581  717 
19738 565  712 
19739 971  673 
19740 39   145 
19741 756  677 
19742 392  346 
19743 82   519 
19744 543  662 
19745 151  537 
19746 928  346 
19747 838  957 
19748 125  532 
19749 381  650 
19750 722  710 
19751 851  918 
19752 846  671 
19753 332  289 
19754 532  426 
19755 57   526 
19756 645  245 
19757 518  653 
19758 728  341 
19759 36   700 
19760 382  570 
19761 545  914 
19762 748  255 
19763 40   198 
19764 810  470 
19765 886  21  
19766 946  150 
19767 549  75  
19768 224  402 
19769 657  474 
19770 809  295 
19771 975  214 
19772 463  482 
19773 103  59  
19774 585  776 
19775 857  563 
19776 343  520 
19777 36   112 
19778 59   177 
19779 405  421 
19780 903  490 
19781 197  195 
19782 490  95  
19783 718  415 
19784 130  156 
19785 24   647 
19786 923  601 
19787 547  213 
19788 888  53  
19789 542  600 
19790 927  6   
19791 76   762 
19792 385  251 
19793 758  654 
19794 357  239 
19795 341  746 
19796 825  693 
19797 94   978 
19798 366  791 
19799 534  287 
19800 405  857 
19801 209  40  
19802 677  977 
19803 513  16  
19804 896  152 
19805 345  536 
19806 271  768 
19807 690  904 
19808 877  522 
19809 450  212 
19810 696  787 
19811 809  532 
19812 497  433 
19813 942  907 
19814 47   877 
19815 734  745 
19816 630  398 
19817 42   175 
19818 934  110 
19819 277  857 
19820 498  684 
19821 189  61  
19822 890  154 
19823 32   248 
19824 899  850 
19825 4    374 
19826 387  6   
19827 615  572 
19828 654  200 
19829 306  74  
19830 331  485 
19831 725  189 
19832 688  930 
19833 930  995 
19834 374  692 
19835 653  1   
19836 72   610 
19837 508  894 
19838 496  514 
19839 44   504 
19840 581  303 
19841 67   937 
19842 606  882 
19843 664  661 
19844 477  294 
19845 461  737 
19846 758  857 
19847 827  208 
19848 29   622 
19849 121  501 
19850 15   943 
19851 988  69  
19852 614  139 
19853 374  880 
19854 720  634 
19855 21   107 
19856 957  847 
19857 413  785 
19858 966  935 
19859 189  842 
19860 560  162 
19861 786  668 
19862 290  463 
19863 440  288 
19864 223  639 
19865 389  425 
19866 320  822 
19867 474  3   
19868 882  132 
19869 690  831 
19870 584  262 
19871 808  922 
19872 498  927 
19873 687  627 
19874 869  380 
19875 890  621 
19876 265  454 
19877 138  604 
19878 530  458 
19879 786  864 
19880 87   403 
19881 313  466 
19882 811  319 
19883 283  230 
19884 1000 372 
19885 986  811 
19886 398  213 
19887 437  625 
19888 792  608 
19889 623  547 
19890 351  812 
19891 821  524 
19892 447  771 
19893 269  971 
19894 843  298 
19895 520  791 
19896 130  34  
19897 948  854 
19898 275  848 
19899 330  429 
19900 106  52  
19901 557  60  
19902 287  831 
19903 642  858 
19904 328  819 
19905 609  646 
19906 872  304 
19907 362  542 
19908 987  1   
19909 521  629 
19910 650  83  
19911 394  277 
19912 952  343 
19913 73   850 
19914 682  960 
19915 479  778 
19916 375  165 
19917 642  670 
19918 354  480 
19919 100  204 
19920 983  283 
19921 967  886 
19922 939  209 
19923 489  860 
19924 890  496 
19925 751  525 
19926 991  18  
19927 539  437 
19928 387  160 
19929 89   384 
19930 587  385 
19931 904  707 
19932 249  36  
19933 491  163 
19934 735  844 
19935 779  558 
19936 27   773 
19937 149  794 
19938 301  47  
19939 232  672 
19940 361  348 
19941 732  885 
19942 658  624 
19943 280  726 
19944 372  68  
19945 524  73  
19946 374  926 
19947 150  303 
19948 337  372 
19949 279  649 
19950 710  695 
19951 876  587 
19952 276  96  
19953 59   848 
19954 426  437 
19955 444  814 
19956 730  743 
19957 582  524 
19958 458  994 
19959 349  999 
19960 229  145 
19961 586  722 
19962 492  709 
19963 789  799 
19964 132  502 
19965 722  274 
19966 872  443 
19967 565  888 
19968 180  282 
19969 768  22  
19970 436  908 
19971 0    128 
19972 664  423 
19973 622  250 
19974 313  296 
19975 133  125 
19976 647  759 
19977 527  429 
19978 38   170 
19979 935  184 
19980 220  777 
19981 907  987 
19982 808  624 
19983 890  135 
19984 853  113 
19985 161  575 
19986 770  583 
19987 2    509 
19988 536  716 
19989 866  111 
19990 815  26  
19991 545  514 
19992 912  267 
19993 568  733 
19994 494  903 
19995 95   496 
19996 487  74  
19997 279  350 
19998 67   972 
19999 892  925 
20000 76   902 
20001 541  792 
20002 140  919 
20003 435  757 
20004 326  633 
20005 702  944 
20006 510  373 
20007 353  558 
20008 985  781 
20009 498  436 
20010 11   241 
20011 530  803 
20012 929  342 
20013 954  899 
20014 232  231 
20015 656  633 
20016 916  426 
20017 833  540 
20018 7    555 
20019 321  288 
20020 911  241 
20021 83   858 
20022 507  138 
20023 532  361 
20024 15   194 
20025 398  254 
20026 829  298 
20027 204  825 
20028 868  272 
20029 764  321 
20030 86   317 
20031 273  112 
20032 169  39  
20033 616  344 
20034 139  843 
20035 819  157 
20036 639  548 
20037 985  133 
20038 397  15  
20039 627  888 
20040 87   818 
20041 71   329 
20042 299  834 
20043 566  900 
20044 753  643 
20045 919  108 
20046 338  331 
20047 554  583 
20048 616  788 
20049 653  145 
20050 909  231 
20051 602  843 
20052 872  793 
20053 83   210 
20054 784  95  
20055 555  685 
20056 760  29  
20057 6    871 
20058 529  574 
20059 755  994 
20060 665  14  
20061 229  503 
20062 395  301 
20063 125  38  
20064 720  522 
20065 738  863 
20066 911  390 
20067 85   633 
20068 103  704 
20069 94   745 
20070 539  876 
20071 647  281 
20072 933  700 
20073 769  651 
20074 474  179 
20075 372  790 
20076 432  739 
20077 877  783 
20078 342  122 
20079 734  936 
20080 618  957 
20081 482  488 
20082 191  464 
20083 765  555 
20084 749  102 
20085 514  887 
20086 518  699 
20087 320  354 
20088 677  362 
20089 181  635 
20090 38   476 
20091 813  858 
20092 688  865 
20093 658  73  
20094 5    574 
20095 944  870 
20096 840  855 
20097 141  46  
20098 805  7   
20099 127  133 
20100 74   19  
20101 611  200 
20102 733  293 
20103 680  975 
20104 848  645 
20105 795  398 
20106 689  903 
20107 880  822 
20108 610  387 
20109 495  903 
20110 465  688 
20111 153  115 
20112 909  924 
20113 586  251 
20114 533  976 
20115 789  326 
20116 867  750 
20117 512  597 
20118 346  503 
20119 950  251 
20120 906  885 
20121 138  475 
20122 304  47  
20123 486  315 
20124 746  135 
20125 836  5   
20126 31   293 
20127 234  435 
20128 24   13  
20129 229  124 
20130 342  309 
20131 824  564 
20132 775  315 
20133 337  971 
20134 376  655 
20135 837  526 
20136 272  954 
20137 189  591 
20138 355  827 
20139 122  530 
20140 673  130 
20141 800  668 
20142 161  470 
20143 695  646 
20144 635  193 
20145 56   474 
20146 5    495 
20147 736  983 
20148 867  3   
20149 696  153 
20150 772  22  
20151 592  282 
20152 477  824 
20153 887  333 
20154 908  982 
20155 820  314 
20156 472  424 
20157 986  558 
20158 239  994 
20159 19   650 
20160 616  590 
20161 508  816 
20162 328  438 
20163 533  673 
20164 934  992 
20165 496  764 
20166 219  572 
20167 883  597 
20168 735  732 
20169 373  315 
20170 970  815 
20171 75   641 
20172 926  690 
20173 799  192 
20174 605  17  
20175 384  309 
20176 58   71  
20177 902  346 
20178 443  387 
20179 627  231 
20180 189  768 
20181 357  90  
20182 431  967 
20183 366  232 
20184 901  675 
20185 6    73  
20186 225  696 
20187 121  895 
20188 582  668 
20189 988  707 
20190 88   634 
20191 639  975 
20192 934  279 
20193 622  106 
20194 262  547 
20195 857  347 
20196 105  734 
20197 308  357 
20198 423  628 
20199 190  833 
20200 667  327 
20201 51   42  
20202 344  32  
20203 934  211 
20204 710  298 
20205 986  693 
20206 571  513 
20207 331  584 
20208 794  147 
20209 960  183 
20210 685  283 
20211 83   57  
20212 876  394 
20213 749  916 
20214 664  554 
20215 334  490 
20216 818  271 
20217 306  635 
20218 880  604 
20219 633  372 
20220 543  163 
20221 914  909 
20222 665  49  
20223 116  213 
20224 478  980 
20225 584  191 
20226 932  761 
20227 30   44  
20228 450  304 
20229 205  58  
20230 417  42  
20231 350  664 
20232 426  200 
20233 252  473 
20234 554  351 
20235 402  992 
20236 312  30  
20237 796  304 
20238 397  731 
20239 226  879 
20240 189  345 
20241 394  671 
20242 327  47  
20243 147  829 
20244 170  358 
20245 91   744 
20246 407  228 
20247 762  879 
20248 84   343 
20249 905  378 
20250 711  90  
20251 808  395 
20252 60   191 
20253 528  649 
20254 878  923 
20255 64   425 
20256 525  244 
20257 790  248 
20258 684  923 
20259 123  871 
20260 896  651 
20261 128  549 
20262 130  207 
20263 690  407 
20264 576  321 
20265 43   481 
20266 375  524 
20267 949  973 
20268 907  457 
20269 674  436 
20270 160  562 
20271 328  872 
20272 441  79  
20273 828  845 
20274 812  458 
20275 775  214 
20276 835  123 
20277 964  285 
20278 664  113 
20279 332  167 
20280 673  229 
20281 553  863 
20282 163  647 
20283 315  832 
20284 1000 88  
20285 857  497 
20286 949  385 
20287 218  189 
20288 882  100 
20289 755  462 
20290 801  138 
20291 877  927 
20292 492  323 
20293 593  360 
20294 646  498 
20295 796  395 
20296 134  550 
20297 104  331 
20298 30   599 
20299 397  336 
20300 535  558 
20301 394  770 
20302 972  426 
20303 739  433 
20304 317  251 
20305 123  692 
20306 245  73  
20307 305  812 
20308 782  782 
20309 88   140 
20310 932  159 
20311 519  937 
20312 404  592 
20313 122  375 
20314 505  357 
20315 862  363 
20316 585  198 
20317 426  810 
20318 465  704 
20319 301  90  
20320 605  12  
20321 515  316 
20322 439  204 
20323 614  218 
20324 561  430 
20325 335  783 
20326 12   354 
20327 289  739 
20328 141  578 
20329 533  832 
20330 81   769 
20331 413  834 
20332 537  54  
20333 228  839 
20334 124  272 
20335 110  359 
20336 96   305 
20337 663  931 
20338 299  244 
20339 898  528 
20340 349  818 
20341 891  495 
20342 146  752 
20343 51   533 
20344 265  407 
20345 929  1000
20346 534  769 
20347 424  752 
20348 670  321 
20349 89   228 
20350 75   393 
20351 354  192 
20352 227  82  
20353 174  559 
20354 900  93  
20355 632  893 
20356 743  687 
20357 139  773 
20358 28   176 
20359 231  411 
20360 305  541 
20361 692  223 
20362 23   399 
20363 800  200 
20364 583  87  
20365 182  788 
20366 573  78  
20367 326  230 
20368 884  660 
20369 757  130 
20370 280  570 
20371 886  302 
20372 503  794 
20373 609  139 
20374 58   755 
20375 240  754 
20376 210  982 
20377 505  754 
20378 182  336 
20379 2    970 
20380 438  206 
20381 585  115 
20382 470  735 
20383 504  293 
20384 8    881 
20385 614  81  
20386 997  855 
20387 231  739 
20388 565  676 
20389 113  557 
20390 281  637 
20391 48   336 
20392 324  564 
20393 368  588 
20394 674  222 
20395 510  874 
20396 65   861 
20397 514  909 
20398 380  449 
20399 652  771 
20400 714  580 
20401 571  949 
20402 398  147 
20403 700  535 
20404 188  355 
20405 649  247 
20406 868  461 
20407 227  479 
20408 282  795 
20409 134  776 
20410 247  945 
20411 856  444 
20412 503  555 
20413 867  284 
20414 966  208 
20415 938  561 
20416 334  606 
20417 871  333 
20418 525  207 
20419 66   660 
20420 788  775 
20421 843  500 
20422 573  195 
20423 338  244 
20424 340  346 
20425 462  173 
20426 923  429 
20427 448  971 
20428 893  727 
20429 766  351 
20430 862  605 
20431 585  504 
20432 401  945 
20433 276  407 
20434 225  505 
20435 428  186 
20436 910  850 
20437 453  537 
20438 437  132 
20439 347  10  
20440 780  950 
20441 337  897 
20442 671  300 
20443 452  470 
20444 823  737 
20445 115  308 
20446 371  734 
20447 871  725 
20448 341  954 
20449 214  184 
20450 548  648 
20451 878  147 
20452 751  899 
20453 73   872 
20454 592  776 
20455 20   353 
20456 617  363 
20457 820  776 
20458 513  672 
20459 218  166 
20460 716  361 
20461 241  79  
20462 77   801 
20463 575  38  
20464 506  349 
20465 86   81  
20466 967  824 
20467 386  621 
20468 222  369 
20469 367  616 
20470 593  259 
20471 192  676 
20472 579  816 
20473 159  924 
20474 860  831 
20475 934  18  
20476 809  836 
20477 977  654 
20478 304  780 
20479 1000 569 
20480 529  470 
20481 400  142 
20482 24   810 
20483 153  970 
20484 247  522 
20485 344  859 
20486 754  730 
20487 828  181 
20488 978  742 
20489 461  525 
20490 373  321 
20491 11   706 
20492 27   719 
20493 712  597 
20494 767  49  
20495 509  257 
20496 248  21  
20497 211  395 
20498 144  304 
20499 128  981 
20500 439  235 
20501 948  915 
20502 275  535 
20503 572  775 
20504 132  884 
20505 16   905 
20506 309  316 
20507 770  318 
20508 228  940 
20509 11   142 
20510 341  651 
20511 698  76  
20512 543  420 
20513 232  182 
20514 211  967 
20515 949  893 
20516 896  103 
20517 552  521 
20518 497  790 
20519 815  868 
20520 508  114 
20521 517  938 
20522 519  204 
20523 323  319 
20524 752  667 
20525 551  255 
20526 648  550 
20527 318  102 
20528 712  429 
20529 744  94  
20530 502  882 
20531 933  924 
20532 167  468 
20533 596  698 
20534 8    419 
20535 545  140 
20536 838  523 
20537 342  858 
20538 501  299 
20539 715  173 
20540 736  956 
20541 166  231 
20542 39   623 
20543 620  358 
20544 786  400 
20545 500  484 
20546 142  511 
20547 301  294 
20548 211  216 
20549 236  381 
20550 861  878 
20551 628  527 
20552 476  268 
20553 349  58  
20554 602  954 
20555 452  948 
20556 92   499 
20557 793  784 
20558 560  517 
20559 945  253 
20560 608  785 
20561 970  664 
20562 315  453 
20563 45   84  
20564 614  170 
20565 229  408 
20566 817  148 
20567 102  926 
20568 842  545 
20569 376  947 
20570 436  661 
20571 309  385 
20572 742  857 
20573 64   784 
20574 968  230 
20575 555  454 
20576 211  848 
20577 640  88  
20578 243  419 
20579 824  276 
20580 284  406 
20581 242  296 
20582 355  27  
20583 9    921 
20584 290  914 
20585 373  675 
20586 536  981 
20587 635  33  
20588 981  21  
20589 361  884 
20590 877  164 
20591 960  272 
20592 752  210 
20593 37   62  
20594 994  115 
20595 809  190 
20596 719  423 
20597 793  545 
20598 424  220 
20599 352  302 
20600 405  284 
20601 596  1   
20602 121  231 
20603 469  677 
20604 365  788 
20605 810  675 
20606 374  610 
20607 210  102 
20608 991  774 
20609 818  504 
20610 557  29  
20611 760  87  
20612 474  309 
20613 349  627 
20614 614  33  
20615 907  387 
20616 533  69  
20617 918  513 
20618 759  621 
20619 436  792 
20620 76   263 
20621 989  692 
20622 638  645 
20623 198  886 
20624 894  531 
20625 857  447 
20626 68   562 
20627 308  65  
20628 368  732 
20629 100  227 
20630 651  757 
20631 545  106 
20632 531  939 
20633 660  781 
20634 789  623 
20635 351  50  
20636 208  836 
20637 268  934 
20638 90   296 
20639 694  548 
20640 69   670 
20641 643  579 
20642 705  910 
20643 382  574 
20644 843  56  
20645 467  284 
20646 47   24  
20647 584  876 
20648 490  647 
20649 17   29  
20650 183  680 
20651 900  336 
20652 155  139 
20653 736  578 
20654 383  33  
20655 828  146 
20656 574  410 
20657 620  76  
20658 364  402 
20659 115  556 
20660 961  608 
20661 239  599 
20662 495  953 
20663 513  424 
20664 785  451 
20665 469  810 
20666 951  506 
20667 644  514 
20668 370  565 
20669 10   482 
20670 111  766 
20671 618  238 
20672 55   455 
20673 461  940 
20674 832  512 
20675 85   768 
20676 998  157 
20677 431  884 
20678 470  986 
20679 751  319 
20680 682  722 
20681 566  96  
20682 771  716 
20683 778  80  
20684 372  543 
20685 335  661 
20686 690  900 
20687 803  767 
20688 842  859 
20689 261  247 
20690 150  778 
20691 284  312 
20692 159  744 
20693 473  369 
20694 9    247 
20695 800  710 
20696 484  855 
20697 380  256 
20698 887  243 
20699 947  646 
20700 730  58  
20701 63   354 
20702 319  756 
20703 748  938 
20704 471  921 
20705 625  2   
20706 291  648 
20707 274  345 
20708 848  638 
20709 170  646 
20710 156  853 
20711 52   614 
20712 255  441 
20713 202  55  
20714 188  102 
20715 903  663 
20716 47   429 
20717 107  126 
20718 1    525 
20719 478  491 
20720 282  30  
20721 690  179 
20722 339  208 
20723 512  814 
20724 943  980 
20725 984  650 
20726 163  111 
20727 223  935 
20728 82   101 
20729 564  993 
20730 324  58  
20731 79   304 
20732 266  255 
20733 432  203 
20734 646  650 
20735 512  362 
20736 16   537 
20737 996  426 
20738 357  400 
20739 133  783 
20740 691  813 
20741 68   852 
20742 42   474 
20743 632  534 
20744 722  616 
20745 964  573 
20746 217  848 
20747 950  632 
20748 860  766 
20749 825  258 
20750 809  645 
20751 665  794 
20752 688  661 
20753 1    990 
20754 754  541 
20755 429  991 
20756 175  143 
20757 966  142 
20758 770  957 
20759 525  133 
20760 700  429 
20761 61   357 
20762 559  474 
20763 965  991 
20764 206  461 
20765 335  235 
20766 10   600 
20767 600  152 
20768 148  462 
20769 844  803 
20770 738  314 
20771 849  719 
20772 300  769 
20773 210  899 
20774 980  355 
20775 987  601 
20776 50   939 
20777 485  126 
20778 12   578 
20779 720  489 
20780 738  894 
20781 501  936 
20782 941  699 
20783 376  547 
20784 837  634 
20785 440  431 
20786 209  278 
20787 119  271 
20788 502  701 
20789 543  697 
20790 151  752 
20791 651  712 
20792 259  691 
20793 104  282 
20794 830  9   
20795 507  804 
20796 147  887 
20797 244  689 
20798 320  321 
20799 728  382 
20800 714  945 
20801 142  190 
20802 986  954 
20803 753  925 
20804 536  581 
20805 352  594 
20806 365  608 
20807 724  456 
20808 120  716 
20809 505  406 
20810 583  375 
20811 468  270 
20812 325  131 
20813 832  121 
20814 463  21  
20815 103  18  
20816 527  604 
20817 788  988 
20818 435  620 
20819 292  163 
20820 430  817 
20821 384  409 
20822 116  478 
20823 508  384 
20824 111  741 
20825 609  107 
20826 21   205 
20827 828  307 
20828 187  189 
20829 738  433 
20830 500  851 
20831 546  495 
20832 267  210 
20833 401  868 
20834 592  625 
20835 557  173 
20836 105  246 
20837 430  749 
20838 845  242 
20839 609  535 
20840 314  509 
20841 946  922 
20842 67   223 
20843 565  836 
20844 459  281 
20845 521  486 
20846 968  993 
20847 223  337 
20848 612  7   
20849 907  991 
20850 485  679 
20851 531  27  
20852 259  316 
20853 155  511 
20854 360  559 
20855 217  170 
20856 201  621 
20857 420  969 
20858 113  329 
20859 929  581 
20860 643  467 
20861 862  229 
20862 991  387 
20863 216  29  
20864 986  513 
20865 398  947 
20866 700  375 
20867 882  622 
20868 778  821 
20869 875  251 
20870 861  804 
20871 974  765 
20872 847  369 
20873 259  248 
20874 630  99  
20875 503  843 
20876 171  769 
20877 272  140 
20878 989  49  
20879 463  414 
20880 373  284 
20881 548  16  
20882 880  960 
20883 942  232 
20884 211  350 
20885 672  988 
20886 605  114 
20887 817  66  
20888 729  782 
20889 127  611 
20890 58   102 
20891 441  342 
20892 443  416 
20893 7    99  
20894 55   375 
20895 765  110 
20896 380  972 
20897 327  599 
20898 617  79  
20899 91   176 
20900 474  40  
20901 815  819 
20902 976  105 
20903 284  424 
20904 131  436 
20905 350  840 
20906 359  522 
20907 986  848 
20908 716  73  
20909 610  964 
20910 799  914 
20911 669  718 
20912 411  226 
20913 934  242 
20914 761  434 
20915 9    515 
20916 191  751 
20917 567  692 
20918 16   289 
20919 606  202 
20920 532  681 
20921 313  885 
20922 541  549 
20923 880  191 
20924 331  617 
20925 831  961 
20926 10   677 
20927 118  642 
20928 46   462 
20929 219  918 
20930 385  56  
20931 101  454 
20932 945  32  
20933 569  908 
20934 783  988 
20935 663  698 
20936 333  132 
20937 485  89  
20938 33   328 
20939 224  733 
20940 708  103 
20941 104  867 
20942 581  767 
20943 823  854 
20944 189  694 
20945 152  409 
20946 811  135 
20947 543  708 
20948 375  220 
20949 151  751 
20950 997  289 
20951 928  296 
20952 697  93  
20953 471  606 
20954 644  444 
20955 925  437 
20956 164  729 
20957 74   603 
20958 869  712 
20959 673  437 
20960 200  865 
20961 915  496 
20962 557  859 
20963 924  98  
20964 246  484 
20965 269  147 
20966 972  342 
20967 942  650 
20968 584  854 
20969 900  410 
20970 282  849 
20971 653  894 
20972 268  476 
20973 678  275 
20974 459  587 
20975 173  473 
20976 874  614 
20977 410  172 
20978 698  699 
20979 398  645 
20980 202  266 
20981 993  13  
20982 575  847 
20983 799  347 
20984 261  761 
20985 745  414 
20986 604  455 
20987 881  846 
20988 438  3   
20989 258  701 
20990 281  324 
20991 546  456 
20992 112  832 
20993 797  761 
20994 105  25  
20995 935  335 
20996 257  364 
20997 974  403 
20998 967  702 
20999 531  578 
21000 586  699 
21001 471  431 
21002 56   930 
21003 42   669 
21004 155  982 
21005 733  681 
21006 256  339 
21007 590  210 
21008 25   538 
21009 906  181 
21010 281  640 
21011 726  274 
21012 712  380 
21013 52   116 
21014 986  246 
21015 790  942 
21016 347  560 
21017 808  665 
21018 56   478 
21019 130  957 
21020 916  588 
21021 169  833 
21022 425  239 
21023 579  778 
21024 448  280 
21025 374  154 
21026 35   872 
21027 307  207 
21028 807  810 
21029 166  182 
21030 445  101 
21031 853  88  
21032 212  336 
21033 544  482 
21034 530  205 
21035 553  372 
21036 43   598 
21037 13   178 
21038 783  434 
21039 714  769 
21040 536  757 
21041 762  21  
21042 815  13  
21043 709  522 
21044 981  373 
21045 605  425 
21046 236  460 
21047 439  361 
21048 819  503 
21049 586  470 
21050 81   678 
21051 512  888 
21052 2    86  
21053 357  898 
21054 359  244 
21055 864  314 
21056 239  418 
21057 336  899 
21058 232  564 
21059 234  110 
21060 236  912 
21061 3    561 
21062 439  813 
21063 409  874 
21064 637  700 
21065 395  395 
21066 565  560 
21067 512  676 
21068 927  185 
21069 196  181 
21070 664  799 
21071 438  414 
21072 521  698 
21073 931  267 
21074 366  236 
21075 495  456 
21076 589  236 
21077 204  334 
21078 967  563 
21079 199  453 
21080 418  428 
21081 630  875 
21082 759  653 
21083 639  971 
21084 752  677 
21085 765  653 
21086 401  304 
21087 234  998 
21088 882  826 
21089 38   62  
21090 649  107 
21091 619  693 
21092 981  70  
21093 817  941 
21094 623  497 
21095 238  593 
21096 296  312 
21097 155  111 
21098 501  225 
21099 999  550 
21100 473  832 
21101 240  85  
21102 892  581 
21103 532  662 
21104 832  184 
21105 52   563 
21106 658  943 
21107 273  459 
21108 538  361 
21109 153  781 
21110 335  61  
21111 395  888 
21112 178  328 
21113 434  734 
21114 201  57  
21115 496  619 
21116 81   531 
21117 443  84  
21118 427  555 
21119 166  745 
21120 980  309 
21121 837  108 
21122 620  876 
21123 270  999 
21124 680  169 
21125 989  161 
21126 788  727 
21127 20   697 
21128 663  657 
21129 225  397 
21130 400  527 
21131 612  898 
21132 538  813 
21133 116  209 
21134 821  299 
21135 489  306 
21136 629  526 
21137 793  266 
21138 673  876 
21139 765  478 
21140 767  688 
21141 751  31  
21142 509  640 
21143 938  408 
21144 746  509 
21145 220  964 
21146 748  646 
21147 877  806 
21148 697  64  
21149 238  160 
21150 367  516 
21151 298  29  
21152 851  971 
21153 856  607 
21154 946  737 
21155 90   411 
21156 934  390 
21157 228  301 
21158 85   164 
21159 765  514 
21160 454  795 
21161 299  522 
21162 910  94  
21163 536  527 
21164 956  680 
21165 338  659 
21166 183  537 
21167 425  961 
21168 72   650 
21169 849  950 
21170 701  77  
21171 918  327 
21172 558  942 
21173 987  800 
21174 606  90  
21175 936  98  
21176 883  755 
21177 350  276 
21178 546  993 
21179 568  988 
21180 589  782 
21181 990  471 
21182 554  723 
21183 245  260 
21184 289  618 
21185 586  192 
21186 275  939 
21187 888  488 
21188 763  824 
21189 989  310 
21190 883  303 
21191 129  50  
21192 422  921 
21193 371  67  
21194 906  858 
21195 223  839 
21196 870  325 
21197 252  164 
21198 169  680 
21199 837  533 
21200 214  219 
21201 223  283 
21202 260  279 
21203 647  677 
21204 940  433 
21205 405  714 
21206 105  632 
21207 656  888 
21208 324  926 
21209 972  994 
21210 167  320 
21211 190  35  
21212 674  884 
21213 826  555 
21214 208  782 
21215 678  935 
21216 874  818 
21217 786  124 
21218 647  873 
21219 126  750 
21220 45   636 
21221 123  584 
21222 870  616 
21223 743  506 
21224 305  800 
21225 58   616 
21226 480  202 
21227 645  651 
21228 287  7   
21229 54   822 
21230 681  712 
21231 370  635 
21232 79   353 
21233 524  50  
21234 21   24  
21235 390  423 
21236 46   709 
21237 784  350 
21238 16   1000
21239 881  990 
21240 885  586 
21241 945  813 
21242 509  870 
21243 580  15  
21244 806  761 
21245 552  1000
21246 958  900 
21247 794  941 
21248 561  878 
21249 446  248 
21250 102  590 
21251 983  51  
21252 12   674 
21253 238  126 
21254 132  431 
21255 81   449 
21256 272  974 
21257 445  785 
21258 15   144 
21259 679  137 
21260 815  441 
21261 467  551 
21262 577  252 
21263 886  870 
21264 28   140 
21265 360  580 
21266 544  82  
21267 786  499 
21268 182  744 
21269 396  142 
21270 663  200 
21271 317  908 
21272 965  800 
21273 109  746 
21274 867  595 
21275 406  189 
21276 597  678 
21277 975  25  
21278 816  446 
21279 525  282 
21280 470  723 
21281 343  323 
21282 292  899 
21283 426  669 
21284 776  880 
21285 287  904 
21286 77   356 
21287 462  486 
21288 837  715 
21289 25   987 
21290 765  57  
21291 343  135 
21292 721  51  
21293 82   623 
21294 308  221 
21295 831  3   
21296 688  275 
21297 483  145 
21298 891  380 
21299 264  795 
21300 778  413 
21301 545  510 
21302 734  986 
21303 812  684 
21304 298  38  
21305 669  85  
21306 851  814 
21307 233  523 
21308 397  690 
21309 240  281 
21310 330  663 
21311 590  457 
21312 318  140 
21313 569  210 
21314 131  491 
21315 539  486 
21316 502  40  
21317 449  220 
21318 216  193 
21319 587  466 
21320 437  947 
21321 114  736 
21322 778  977 
21323 672  52  
21324 847  605 
21325 499  963 
21326 577  73  
21327 729  182 
21328 268  278 
21329 164  327 
21330 558  915 
21331 514  461 
21332 936  391 
21333 629  262 
21334 652  323 
21335 601  285 
21336 774  810 
21337 63   646 
21338 28   715 
21339 819  752 
21340 595  89  
21341 288  983 
21342 281  146 
21343 124  630 
21344 659  869 
21345 216  980 
21346 243  209 
21347 713  401 
21348 471  481 
21349 646  975 
21350 113  862 
21351 122  740 
21352 871  721 
21353 802  440 
21354 712  294 
21355 366  491 
21356 539  823 
21357 940  462 
21358 679  115 
21359 38   889 
21360 458  629 
21361 649  420 
21362 605  955 
21363 803  943 
21364 886  908 
21365 282  566 
21366 703  351 
21367 613  733 
21368 249  426 
21369 394  875 
21370 735  206 
21371 795  237 
21372 230  898 
21373 433  620 
21374 52   754 
21375 748  218 
21376 37   324 
21377 754  726 
21378 148  727 
21379 311  154 
21380 103  84  
21381 433  40  
21382 36   147 
21383 594  933 
21384 426  819 
21385 278  944 
21386 465  735 
21387 942  155 
21388 227  776 
21389 487  731 
21390 953  563 
21391 646  766 
21392 120  194 
21393 249  546 
21394 950  128 
21395 399  442 
21396 475  32  
21397 689  426 
21398 707  794 
21399 211  971 
21400 806  722 
21401 702  515 
21402 725  994 
21403 342  402 
21404 21   711 
21405 261  232 
21406 669  251 
21407 134  366 
21408 385  644 
21409 18   350 
21410 237  106 
21411 311  999 
21412 419  997 
21413 80   171 
21414 707  342 
21415 781  707 
21416 322  232 
21417 218  297 
21418 672  158 
21419 446  281 
21420 584  634 
21421 28   169 
21422 247  855 
21423 844  267 
21424 643  301 
21425 131  193 
21426 117  488 
21427 562  679 
21428 13   29  
21429 790  447 
21430 84   86  
21431 467  70  
21432 607  282 
21433 886  455 
21434 690  82  
21435 946  40  
21436 865  216 
21437 171  843 
21438 867  566 
21439 874  262 
21440 927  272 
21441 468  459 
21442 92   463 
21443 809  497 
21444 629  16  
21445 908  451 
21446 894  172 
21447 435  819 
21448 440  903 
21449 276  373 
21450 82   68  
21451 183  198 
21452 24   373 
21453 999  352 
21454 613  383 
21455 765  20  
21456 350  714 
21457 1000 155 
21458 232  37  
21459 820  942 
21460 294  317 
21461 33   37  
21462 109  498 
21463 879  242 
21464 593  429 
21465 104  142 
21466 473  479 
21467 173  998 
21468 668  191 
21469 647  942 
21470 389  842 
21471 601  836 
21472 571  940 
21473 536  985 
21474 476  607 
21475 259  483 
21476 833  26  
21477 895  844 
21478 201  848 
21479 97   775 
21480 277  523 
21481 83   340 
21482 136  709 
21483 364  283 
21484 553  20  
21485 525  166 
21486 435  448 
21487 255  195 
21488 499  290 
21489 33   970 
21490 962  969 
21491 249  760 
21492 641  292 
21493 989  204 
21494 168  626 
21495 334  3   
21496 571  20  
21497 573  638 
21498 977  285 
21499 797  554 
21500 105  106 
21501 409  650 
21502 125  232 
21503 937  968 
21504 21   285 
21505 261  270 
21506 376  578 
21507 821  326 
21508 371  713 
21509 9    334 
21510 138  170 
21511 11   424 
21512 117  842 
21513 218  207 
21514 919  703 
21515 61   659 
21516 446  503 
21517 425  184 
21518 501  461 
21519 7    738 
21520 872  239 
21521 159  935 
21522 346  730 
21523 934  491 
21524 122  133 
21525 913  300 
21526 198  310 
21527 507  965 
21528 606  435 
21529 463  950 
21530 670  576 
21531 587  418 
21532 255  304 
21533 481  339 
21534 667  123 
21535 524  544 
21536 74   85  
21537 314  548 
21538 369  663 
21539 175  305 
21540 468  301 
21541 145  262 
21542 827  863 
21543 610  325 
21544 949  672 
21545 326  993 
21546 554  652 
21547 524  100 
21548 132  925 
21549 224  982 
21550 23   560 
21551 7    463 
21552 443  308 
21553 943  643 
21554 777  721 
21555 500  690 
21556 112  906 
21557 96   271 
21558 172  172 
21559 105  215 
21560 741  450 
21561 100  478 
21562 264  730 
21563 17   774 
21564 803  739 
21565 72   375 
21566 508  107 
21567 247  270 
21568 512  95  
21569 733  751 
21570 846  950 
21571 636  478 
21572 198  737 
21573 184  111 
21574 557  594 
21575 566  416 
21576 75   455 
21577 649  52  
21578 561  736 
21579 854  111 
21580 912  674 
21581 303  223 
21582 930  567 
21583 967  196 
21584 697  288 
21585 644  249 
21586 826  644 
21587 916  518 
21588 805  266 
21589 240  228 
21590 597  168 
21591 161  988 
21592 809  984 
21593 984  82  
21594 843  169 
21595 762  75  
21596 619  846 
21597 914  404 
21598 259  217 
21599 10   721 
21600 266  679 
21601 247  694 
21602 840  512 
21603 602  931 
21604 766  642 
21605 72   618 
21606 418  618 
21607 143  875 
21608 97   41  
21609 496  570 
21610 876  341 
21611 235  359 
21612 839  611 
21613 477  318 
21614 392  992 
21615 267  416 
21616 774  561 
21617 785  572 
21618 658  706 
21619 552  321 
21620 1    205 
21621 845  964 
21622 935  582 
21623 976  524 
21624 441  375 
21625 263  218 
21626 717  283 
21627 523  46  
21628 64   777 
21629 751  204 
21630 149  384 
21631 977  7   
21632 225  762 
21633 843  602 
21634 483  347 
21635 983  414 
21636 252  388 
21637 734  768 
21638 863  676 
21639 21   567 
21640 228  380 
21641 274  4   
21642 991  145 
21643 230  845 
21644 804  948 
21645 970  412 
21646 151  831 
21647 174  644 
21648 319  613 
21649 900  502 
21650 395  710 
21651 731  922 
21652 911  662 
21653 330  17  
21654 203  357 
21655 611  96  
21656 187  632 
21657 648  502 
21658 406  474 
21659 226  222 
21660 286  892 
21661 258  197 
21662 304  523 
21663 714  202 
21664 813  646 
21665 748  477 
21666 236  649 
21667 718  573 
21668 847  475 
21669 291  117 
21670 609  210 
21671 724  773 
21672 597  625 
21673 742  481 
21674 615  109 
21675 906  749 
21676 36   406 
21677 202  634 
21678 850  62  
21679 98   955 
21680 965  287 
21681 414  47  
21682 806  797 
21683 704  519 
21684 879  430 
21685 457  665 
21686 747  744 
21687 731  239 
21688 90   797 
21689 911  483 
21690 217  613 
21691 627  46  
21692 394  285 
21693 214  138 
21694 198  783 
21695 760  764 
21696 246  539 
21697 707  23  
21698 693  200 
21699 280  459 
21700 764  51  
21701 660  886 
21702 554  273 
21703 492  270 
21704 132  207 
21705 946  679 
21706 798  668 
21707 489  836 
21708 865  861 
21709 703  257 
21710 726  98  
21711 583  815 
21712 394  849 
21713 454  865 
21714 274  507 
21715 260  186 
21716 795  807 
21717 804  575 
21718 515  821 
21719 257  709 
21720 990  81  
21721 736  699 
21722 978  536 
21723 745  803 
21724 710  227 
21725 560  760 
21726 947  348 
21727 121  347 
21728 845  682 
21729 496  800 
21730 23   559 
21731 106  419 
21732 475  250 
21733 152  135 
21734 703  562 
21735 656  646 
21736 68   906 
21737 354  715 
21738 328  678 
21739 194  851 
21740 30   469 
21741 0    152 
21742 733  650 
21743 717  5   
21744 346  22  
21745 422  355 
21746 996  76  
21747 341  785 
21748 543  558 
21749 181  873 
21750 651  633 
21751 208  712 
21752 155  499 
21753 217  174 
21754 240  249 
21755 597  147 
21756 763  247 
21757 528  902 
21758 18   984 
21759 705  50  
21760 744  712 
21761 433  471 
21762 421  382 
21763 340  386 
21764 875  255 
21765 877  421 
21766 623  833 
21767 321  555 
21768 240  645 
21769 480  244 
21770 272  128 
21771 666  464 
21772 357  931 
21773 520  565 
21774 336  610 
21775 45   6   
21776 84   732 
21777 949  720 
21778 197  859 
21779 614  228 
21780 561  488 
21781 577  981 
21782 989  497 
21783 523  5   
21784 228  773 
21785 696  591 
21786 149  363 
21787 977  26  
21788 82   702 
21789 559  816 
21790 375  839 
21791 301  608 
21792 769  310 
21793 446  182 
21794 379  241 
21795 233  596 
21796 164  850 
21797 346  925 
21798 844  172 
21799 673  60  
21800 468  680 
21801 401  273 
21802 184  223 
21803 389  880 
21804 502  923 
21805 490  962 
21806 56   264 
21807 351  819 
21808 655  267 
21809 74   404 
21810 992  767 
21811 87   970 
21812 938  652 
21813 728  88  
21814 956  120 
21815 875  104 
21816 185  701 
21817 918  23  
21818 791  287 
21819 443  117 
21820 438  136 
21821 11   934 
21822 112  713 
21823 993  816 
21824 236  874 
21825 898  485 
21826 718  226 
21827 395  293 
21828 916  129 
21829 427  980 
21830 60   978 
21831 380  67  
21832 592  859 
21833 836  350 
21834 301  725 
21835 458  516 
21836 462  920 
21837 229  947 
21838 734  912 
21839 26   883 
21840 268  916 
21841 397  760 
21842 934  417 
21843 189  374 
21844 874  942 
21845 765  547 
21846 126  642 
21847 566  687 
21848 218  585 
21849 352  587 
21850 903  976 
21851 409  421 
21852 969  701 
21853 307  258 
21854 895  827 
21855 143  936 
21856 353  192 
21857 940  520 
21858 227  985 
21859 607  570 
21860 478  746 
21861 614  322 
21862 63   728 
21863 600  268 
21864 690  434 
21865 713  19  
21866 457  813 
21867 756  6   
21868 719  946 
21869 498  274 
21870 371  32  
21871 334  84  
21872 64   584 
21873 573  713 
21874 405  823 
21875 188  681 
21876 197  565 
21877 988  832 
21878 437  198 
21879 713  431 
21880 492  730 
21881 699  908 
21882 65   552 
21883 164  948 
21884 318  437 
21885 958  116 
21886 469  9   
21887 26   710 
21888 960  584 
21889 655  429 
21890 189  11  
21891 198  347 
21892 562  758 
21893 744  749 
21894 359  300 
21895 38   323 
21896 813  967 
21897 174  899 
21898 342  693 
21899 951  601 
21900 623  812 
21901 531  446 
21902 349  231 
21903 266  749 
21904 178  465 
21905 676  336 
21906 895  172 
21907 62   679 
21908 362  133 
21909 966  393 
21910 168  342 
21911 629  65  
21912 793  837 
21913 947  460 
21914 253  877 
21915 571  328 
21916 239  430 
21917 352  2   
21918 317  732 
21919 287  996 
21920 497  660 
21921 28   896 
21922 508  268 
21923 367  443 
21924 759  837 
21925 261  618 
21926 888  146 
21927 337  252 
21928 210  130 
21929 784  445 
21930 475  106 
21931 258  524 
21932 445  654 
21933 253  401 
21934 617  86  
21935 746  370 
21936 677  948 
21937 732  289 
21938 356  29  
21939 621  535 
21940 720  232 
21941 694  796 
21942 934  271 
21943 590  349 
21944 915  78  
21945 94   459 
21946 366  300 
21947 707  272 
21948 472  255 
21949 204  782 
21950 799  933 
21951 123  422 
21952 199  5   
21953 455  415 
21954 169  50  
21955 655  310 
21956 355  360 
21957 122  101 
21958 839  202 
21959 680  849 
21960 36   900 
21961 511  250 
21962 684  792 
21963 776  467 
21964 988  422 
21965 808  68  
21966 810  766 
21967 794  155 
21968 939  926 
21969 374  721 
21970 432  360 
21971 842  175 
21972 872  806 
21973 745  568 
21974 376  53  
21975 272  272 
21976 124  514 
21977 931  124 
21978 36   344 
21979 686  246 
21980 935  557 
21981 257  398 
21982 93   650 
21983 229  474 
21984 819  768 
21985 662  478 
21986 955  320 
21987 298  709 
21988 480  672 
21989 745  116 
21990 104  780 
21991 846  154 
21992 103  727 
21993 507  310 
21994 661  271 
21995 389  460 
21996 156  457 
21997 301  752 
21998 926  253 
21999 229  926 
22000 109  440 
22001 833  388 
22002 51   451 
22003 627  692 
22004 892  272 
22005 825  345 
22006 562  604 
22007 299  526 
22008 541  365 
22009 887  495 
22010 285  559 
22011 423  737 
22012 504  603 
22013 174  729 
22014 361  822 
22015 369  544 
22016 763  496 
22017 288  586 
22018 87   954 
22019 696  439 
22020 364  349 
22021 689  914 
22022 654  496 
22023 511  367 
22024 336  801 
22025 61   460 
22026 580  716 
22027 603  869 
22028 785  272 
22029 469  871 
22030 935  866 
22031 409  4   
22032 713  118 
22033 434  593 
22034 92   4   
22035 11   54  
22036 214  531 
22037 149  172 
22038 785  860 
22039 347  111 
22040 718  18  
22041 370  132 
22042 958  541 
22043 333  16  
22044 870  377 
22045 524  511 
22046 215  44  
22047 471  390 
22048 738  967 
22049 918  707 
22050 775  206 
22051 501  847 
22052 851  540 
22053 751  940 
22054 617  328 
22055 857  505 
22056 248  960 
22057 967  789 
22058 386  584 
22059 579  789 
22060 999  644 
22061 835  447 
22062 964  729 
22063 397  328 
22064 173  673 
22065 355  194 
22066 145  128 
22067 938  847 
22068 832  454 
22069 880  498 
22070 511  92  
22071 972  418 
22072 956  831 
22073 995  771 
22074 190  611 
22075 974  655 
22076 969  269 
22077 58   628 
22078 662  888 
22079 775  571 
22080 888  699 
22081 761  179 
22082 212  253 
22083 505  365 
22084 454  342 
22085 719  238 
22086 463  428 
22087 608  697 
22088 456  438 
22089 82   176 
22090 552  400 
22091 400  685 
22092 236  937 
22093 928  943 
22094 102  6   
22095 729  728 
22096 162  363 
22097 655  677 
22098 286  216 
22099 897  21  
22100 332  910 
22101 85   706 
22102 486  387 
22103 647  86  
22104 142  554 
22105 612  676 
22106 533  268 
22107 185  118 
22108 159  686 
22109 971  412 
22110 399  95  
22111 885  906 
22112 80   138 
22113 43   798 
22114 66   85  
22115 820  126 
22116 612  248 
22117 222  451 
22118 960  760 
22119 856  313 
22120 473  879 
22121 152  852 
22122 355  335 
22123 468  54  
22124 52   548 
22125 995  652 
22126 248  263 
22127 213  599 
22128 123  985 
22129 109  742 
22130 499  694 
22131 690  117 
22132 379  988 
22133 782  669 
22134 597  674 
22135 157  757 
22136 671  879 
22137 413  619 
22138 927  497 
22139 505  762 
22140 288  848 
22141 913  675 
22142 862  734 
22143 168  486 
22144 614  73  
22145 780  827 
22146 609  335 
22147 556  210 
22148 505  822 
22149 516  924 
22150 156  486 
22151 543  266 
22152 566  185 
22153 324  572 
22154 308  217 
22155 716  750 
22156 935  76  
22157 204  474 
22158 854  356 
22159 912  923 
22160 12   977 
22161 503  255 
22162 53   316 
22163 113  97  
22164 664  335 
22165 740  474 
22166 599  257 
22167 786  158 
22168 834  178 
22169 958  371 
22170 317  89  
22171 598  202 
22172 628  825 
22173 916  835 
22174 948  476 
22175 164  323 
22176 572  320 
22177 58   970 
22178 420  213 
22179 761  265 
22180 390  773 
22181 83   373 
22182 710  178 
22183 583  192 
22184 452  582 
22185 848  695 
22186 447  845 
22187 398  727 
22188 917  621 
22189 520  985 
22190 529  157 
22191 453  205 
22192 455  883 
22193 349  492 
22194 810  654 
22195 289  577 
22196 715  519 
22197 330  491 
22198 604  277 
22199 297  883 
22200 253  82  
22201 509  968 
22202 571  53  
22203 440  561 
22204 811  610 
22205 98   865 
22206 582  471 
22207 340  806 
22208 430  672 
22209 91   488 
22210 220  268 
22211 771  676 
22212 264  590 
22213 245  879 
22214 570  118 
22215 950  373 
22216 293  606 
22217 78   432 
22218 461  280 
22219 265  245 
22220 546  94  
22221 555  148 
22222 557  574 
22223 568  216 
22224 130  975 
22225 593  379 
22226 427  455 
22227 60   483 
22228 830  203 
22229 136  467 
22230 528  853 
22231 87   742 
22232 454  175 
22233 899  974 
22234 463  919 
22235 299  926 
22236 691  432 
22237 675  791 
22238 511  955 
22239 460  619 
22240 465  791 
22241 709  572 
22242 877  502 
22243 607  157 
22244 130  307 
22245 169  463 
22246 351  979 
22247 840  692 
22248 549  20  
22249 240  852 
22250 62   749 
22251 763  608 
22252 876  193 
22253 182  502 
22254 615  868 
22255 652  242 
22256 818  198 
22257 638  479 
22258 442  210 
22259 686  49  
22260 135  853 
22261 232  738 
22262 430  883 
22263 681  727 
22264 28   858 
22265 33   608 
22266 824  853 
22267 713  198 
22268 842  418 
22269 127  700 
22270 104  587 
22271 876  645 
22272 560  206 
22273 885  625 
22274 779  44  
22275 585  365 
22276 836  442 
22277 566  71  
22278 107  878 
22279 755  10  
22280 418  382 
22281 208  86  
22282 579  105 
22283 927  547 
22284 830  314 
22285 228  488 
22286 32   339 
22287 237  102 
22288 518  407 
22289 209  461 
22290 269  427 
22291 472  777 
22292 677  574 
22293 255  518 
22294 345  61  
22295 949  313 
22296 437  725 
22297 725  290 
22298 400  437 
22299 476  704 
22300 448  417 
22301 374  35  
22302 263  974 
22303 291  685 
22304 311  423 
22305 41   71  
22306 101  991 
22307 689  723 
22308 359  411 
22309 331  442 
22310 672  350 
22311 799  547 
22312 554  926 
22313 141  262 
22314 35   287 
22315 932  23  
22316 240  719 
22317 443  34  
22318 957  676 
22319 272  202 
22320 862  739 
22321 991  901 
22322 477  287 
22323 783  905 
22324 721  526 
22325 22   341 
22326 352  215 
22327 543  221 
22328 15   916 
22329 785  541 
22330 861  298 
22331 116  231 
22332 794  357 
22333 63   952 
22334 621  894 
22335 162  475 
22336 58   24  
22337 367  22  
22338 441  144 
22339 23   746 
22340 940  364 
22341 211  856 
22342 301  678 
22343 988  608 
22344 77   959 
22345 831  234 
22346 432  554 
22347 925  482 
22348 565  11  
22349 341  92  
22350 839  301 
22351 230  876 
22352 264  160 
22353 386  847 
22354 388  257 
22355 192  898 
22356 65   436 
22357 49   527 
22358 729  93  
22359 35   588 
22360 249  64  
22361 966  237 
22362 415  377 
22363 325  251 
22364 606  132 
22365 936  400 
22366 938  578 
22367 818  940 
22368 670  917 
22369 654  318 
22370 601  260 
22371 426  981 
22372 504  225 
22373 748  316 
22374 589  832 
22375 718  540 
22376 192  334 
22377 909  805 
22378 268  179 
22379 141  443 
22380 171  568 
22381 120  32  
22382 466  244 
22383 371  145 
22384 968  477 
22385 435  896 
22386 301  855 
22387 910  895 
22388 451  118 
22389 453  556 
22390 384  45  
22391 718  216 
22392 974  70  
22393 462  282 
22394 902  114 
22395 233  835 
22396 180  382 
22397 777  996 
22398 890  871 
22399 161  31  
22400 910  699 
22401 919  699 
22402 423  776 
22403 852  654 
22404 160  192 
22405 26   681 
22406 263  880 
22407 194  483 
22408 30   517 
22409 270  52  
22410 164  543 
22411 772  109 
22412 403  514 
22413 539  362 
22414 631  0   
22415 273  163 
22416 718  815 
22417 628  937 
22418 321  703 
22419 415  482 
22420 92   365 
22421 131  827 
22422 885  88  
22423 541  892 
22424 59   205 
22425 903  478 
22426 82   230 
22427 979  12  
22428 988  198 
22429 577  569 
22430 893  863 
22431 127  667 
22432 609  392 
22433 918  872 
22434 46   663 
22435 512  535 
22436 452  170 
22437 438  461 
22438 862  981 
22439 332  576 
22440 816  189 
22441 689  385 
22442 615  263 
22443 871  921 
22444 431  892 
22445 998  149 
22446 659  729 
22447 772  856 
22448 440  673 
22449 495  389 
22450 573  783 
22451 82   298 
22452 564  730 
22453 963  207 
22454 142  624 
22455 589  313 
22456 997  84  
22457 932  961 
22458 95   577 
22459 67   160 
22460 650  225 
22461 341  818 
22462 364  757 
22463 513  552 
22464 398  90  
22465 114  351 
22466 591  787 
22467 905  134 
22468 229  638 
22469 476  765 
22470 579  968 
22471 653  625 
22472 74   256 
22473 420  788 
22474 445  423 
22475 212  406 
22476 378  122 
22477 500  393 
22478 615  560 
22479 61   232 
22480 430  39  
22481 17   130 
22482 967  260 
22483 787  610 
22484 607  301 
22485 990  191 
22486 335  110 
22487 411  438 
22488 747  55  
22489 906  610 
22490 500  77  
22491 585  161 
22492 36   239 
22493 181  423 
22494 206  10  
22495 824  709 
22496 775  42  
22497 7    188 
22498 194  581 
22499 505  892 
22500 537  209 
22501 154  643 
22502 617  44  
22503 428  437 
22504 582  722 
22505 603  449 
22506 933  720 
22507 370  100 
22508 333  368 
22509 203  221 
22510 498  915 
22511 83   771 
22512 108  726 
22513 666  782 
22514 375  360 
22515 52   957 
22516 716  100 
22517 635  28  
22518 778  515 
22519 598  128 
22520 854  254 
22521 469  340 
22522 400  453 
22523 810  368 
22524 30   895 
22525 14   352 
22526 934  785 
22527 627  801 
22528 973  885 
22529 443  726 
22530 814  459 
22531 961  774 
22532 398  541 
22533 45   792 
22534 836  549 
22535 395  134 
22536 602  818 
22537 508  517 
22538 510  79  
22539 97   442 
22540 482  756 
22541 242  552 
22542 25   54  
22543 689  239 
22544 410  504 
22545 534  497 
22546 340  1000
22547 577  771 
22548 289  987 
22549 157  196 
22550 885  886 
22551 855  2   
22552 592  826 
22553 534  573 
22554 901  342 
22555 566  322 
22556 15   504 
22557 513  886 
22558 958  232 
22559 275  212 
22560 464  747 
22561 39   292 
22562 226  813 
22563 85   102 
22564 657  941 
22565 415  949 
22566 364  995 
22567 493  769 
22568 691  378 
22569 804  571 
22570 829  472 
22571 723  589 
22572 522  544 
22573 123  765 
22574 79   670 
22575 478  137 
22576 335  256 
22577 487  197 
22578 549  90  
22579 676  460 
22580 58   935 
22581 420  2   
22582 558  1000
22583 92   650 
22584 885  67  
22585 931  871 
22586 603  943 
22587 361  328 
22588 577  604 
22589 563  737 
22590 634  534 
22591 528  151 
22592 78   9   
22593 742  16  
22594 638  65  
22595 984  872 
22596 698  154 
22597 684  409 
22598 105  254 
22599 681  857 
22600 958  987 
22601 713  584 
22602 722  262 
22603 321  423 
22604 157  89  
22605 911  368 
22606 90   108 
22607 823  516 
22608 113  773 
22609 203  903 
22610 574  666 
22611 541  100 
22612 656  838 
22613 695  767 
22614 702  137 
22615 167  262 
22616 137  247 
22617 467  600 
22618 109  243 
22619 26   729 
22620 592  497 
22621 41   13  
22622 705  54  
22623 486  705 
22624 767  336 
22625 875  243 
22626 363  39  
22627 914  429 
22628 808  184 
22629 365  717 
22630 710  82  
22631 876  366 
22632 913  764 
22633 666  476 
22634 64   358 
22635 984  695 
22636 442  175 
22637 278  793 
22638 707  633 
22639 465  262 
22640 361  437 
22641 515  382 
22642 153  417 
22643 335  969 
22644 637  345 
22645 983  845 
22646 720  651 
22647 457  635 
22648 775  961 
22649 708  484 
22650 505  871 
22651 567  419 
22652 16   566 
22653 627  204 
22654 385  359 
22655 573  895 
22656 850  804 
22657 834  673 
22658 626  831 
22659 453  801 
22660 552  934 
22661 483  290 
22662 854  279 
22663 637  157 
22664 17   906 
22665 492  428 
22666 194  34  
22667 489  998 
22668 865  959 
22669 892  188 
22670 403  323 
22671 27   383 
22672 373  753 
22673 781  554 
22674 963  667 
22675 181  762 
22676 882  857 
22677 591  899 
22678 504  751 
22679 386  645 
22680 540  38  
22681 118  222 
22682 579  600 
22683 473  933 
22684 807  632 
22685 443  717 
22686 83   674 
22687 415  675 
22688 518  900 
22689 154  443 
22690 562  268 
22691 373  53  
22692 156  733 
22693 308  896 
22694 723  867 
22695 598  545 
22696 451  612 
22697 965  994 
22698 822  917 
22699 19   828 
22700 192  280 
22701 176  701 
22702 148  563 
22703 224  169 
22704 558  2   
22705 943  588 
22706 689  194 
22707 230  34  
22708 802  931 
22709 841  927 
22710 112  717 
22711 442  50  
22712 866  570 
22713 449  790 
22714 628  96  
22715 612  941 
22716 370  304 
22717 538  776 
22718 665  26  
22719 328  772 
22720 699  247 
22721 918  599 
22722 858  412 
22723 927  783 
22724 823  686 
22725 385  508 
22726 258  866 
22727 9    312 
22728 198  804 
22729 696  734 
22730 454  690 
22731 375  212 
22732 121  941 
22733 158  362 
22734 640  485 
22735 220  935 
22736 868  75  
22737 815  588 
22738 372  794 
22739 928  288 
22740 609  817 
22741 860  870 
22742 293  291 
22743 920  563 
22744 765  575 
22745 929  827 
22746 507  787 
22747 147  866 
22748 117  720 
22749 195  942 
22750 970  488 
22751 545  996 
22752 342  562 
22753 40   252 
22754 259  26  
22755 335  303 
22756 448  65  
22757 639  349 
22758 457  405 
22759 362  282 
22760 553  179 
22761 306  325 
22762 269  847 
22763 511  268 
22764 700  21  
22765 315  241 
22766 98   739 
22767 603  834 
22768 552  4   
22769 24   605 
22770 379  787 
22771 434  624 
22772 611  688 
22773 775  875 
22774 337  379 
22775 798  408 
22776 747  304 
22777 710  836 
22778 475  149 
22779 297  841 
22780 742  117 
22781 855  334 
22782 341  708 
22783 343  410 
22784 915  525 
22785 774  304 
22786 278  547 
22787 797  753 
22788 271  734 
22789 702  598 
22790 704  651 
22791 100  268 
22792 215  973 
22793 937  871 
22794 275  392 
22795 593  133 
22796 312  276 
22797 21   372 
22798 247  348 
22799 397  933 
22800 823  547 
22801 99   733 
22802 110  63  
22803 6    266 
22804 336  136 
22805 329  721 
22806 769  540 
22807 368  313 
22808 458  439 
22809 497  411 
22810 17   380 
22811 877  120 
22812 492  154 
22813 644  303 
22814 810  51  
22815 360  572 
22816 53   455 
22817 240  210 
22818 934  80  
22819 777  283 
22820 874  785 
22821 855  566 
22822 182  880 
22823 668  91  
22824 672  269 
22825 515  841 
22826 386  111 
22827 953  945 
22828 934  540 
22829 904  607 
22830 226  449 
22831 913  791 
22832 680  38  
22833 666  505 
22834 193  697 
22835 698  982 
22836 82   147 
22837 227  838 
22838 361  472 
22839 197  866 
22840 667  590 
22841 176  931 
22842 291  370 
22843 805  756 
22844 646  696 
22845 466  788 
22846 620  693 
22847 710  563 
22848 180  602 
22849 385  282 
22850 703  654 
22851 885  567 
22852 998  382 
22853 889  669 
22854 873  224 
22855 128  467 
22856 54   337 
22857 755  196 
22858 739  715 
22859 485  379 
22860 674  98  
22861 877  681 
22862 609  927 
22863 261  42  
22864 669  189 
22865 941  952 
22866 284  349 
22867 484  820 
22868 915  82  
22869 221  935 
22870 80   361 
22871 27   402 
22872 716  94  
22873 458  314 
22874 151  781 
22875 356  605 
22876 326  381 
22877 667  339 
22878 655  306 
22879 344  44  
22880 830  780 
22881 69   422 
22882 749  324 
22883 643  363 
22884 516  251 
22885 883  878 
22886 645  409 
22887 834  450 
22888 640  823 
22889 444  189 
22890 568  601 
22891 199  581 
22892 741  854 
22893 282  435 
22894 690  20  
22895 162  605 
22896 948  876 
22897 853  553 
22898 694  487 
22899 129  445 
22900 664  566 
22901 41   601 
22902 917  445 
22903 186  169 
22904 956  405 
22905 617  651 
22906 301  808 
22907 361  69  
22908 695  120 
22909 453  637 
22910 935  553 
22911 561  124 
22912 764  605 
22913 266  80  
22914 275  738 
22915 759  986 
22916 964  158 
22917 860  351 
22918 436  855 
22919 78   260 
22920 703  819 
22921 253  290 
22922 534  523 
22923 811  146 
22924 522  978 
22925 704  913 
22926 372  775 
22927 185  284 
22928 95   865 
22929 694  623 
22930 844  56  
22931 973  412 
22932 728  400 
22933 790  584 
22934 458  161 
22935 522  534 
22936 183  529 
22937 386  821 
22938 757  956 
22939 796  200 
22940 653  849 
22941 224  477 
22942 957  443 
22943 987  824 
22944 862  488 
22945 719  353 
22946 793  743 
22947 624  173 
22948 995  598 
22949 589  774 
22950 845  668 
22951 93   87  
22952 40   349 
22953 409  8   
22954 600  309 
22955 533  975 
22956 576  349 
22957 825  626 
22958 875  568 
22959 234  320 
22960 626  638 
22961 453  738 
22962 607  897 
22963 229  75  
22964 102  715 
22965 33   304 
22966 125  170 
22967 713  438 
22968 632  322 
22969 579  477 
22970 985  534 
22971 911  314 
22972 821  440 
22973 712  329 
22974 527  379 
22975 248  964 
22976 928  144 
22977 584  530 
22978 630  629 
22979 833  277 
22980 155  257 
22981 374  183 
22982 450  863 
22983 549  753 
22984 217  120 
22985 277  798 
22986 187  912 
22987 39   659 
22988 355  198 
22989 415  608 
22990 198  368 
22991 18   906 
22992 246  108 
22993 596  274 
22994 451  805 
22995 605  604 
22996 787  531 
22997 538  407 
22998 773  556 
22999 261  957 
23000 978  705 
23001 136  526 
23002 980  151 
23003 32   623 
23004 641  567 
23005 295  722 
23006 527  755 
23007 149  889 
23008 633  222 
23009 658  657 
23010 589  699 
23011 478  894 
23012 432  18  
23013 194  564 
23014 263  167 
23015 768  843 
23016 525  545 
23017 569  657 
23018 112  968 
23019 663  951 
23020 133  728 
23021 578  961 
23022 444  911 
23023 216  770 
23024 107  847 
23025 919  946 
23026 778  30  
23027 997  106 
23028 199  472 
23029 254  669 
23030 540  564 
23031 685  573 
23032 962  322 
23033 599  136 
23034 657  641 
23035 364  831 
23036 311  960 
23037 472  232 
23038 142  106 
23039 806  189 
23040 649  118 
23041 264  212 
23042 725  451 
23043 381  985 
23044 847  976 
23045 259  347 
23046 499  894 
23047 208  625 
23048 155  410 
23049 30   974 
23050 51   221 
23051 888  910 
23052 175  196 
23053 784  697 
23054 530  85  
23055 288  424 
23056 878  637 
23057 4    316 
23058 230  732 
23059 502  273 
23060 670  777 
23061 663  192 
23062 956  78  
23063 684  817 
23064 771  99  
23065 370  802 
23066 538  282 
23067 923  300 
23068 524  793 
23069 706  596 
23070 10   659 
23071 245  418 
23072 178  349 
23073 44   438 
23074 120  948 
23075 67   623 
23076 175  632 
23077 309  566 
23078 145  573 
23079 779  314 
23080 659  992 
23081 841  965 
23082 22   372 
23083 760  243 
23084 707  556 
23085 963  438 
23086 174  435 
23087 324  100 
23088 462  494 
23089 141  747 
23090 570  495 
23091 323  53  
23092 196  205 
23093 641  72  
23094 2    514 
23095 258  952 
23096 371  801 
23097 223  421 
23098 479  975 
23099 209  223 
23100 617  234 
23101 781  977 
23102 428  639 
23103 301  647 
23104 234  698 
23105 958  827 
23106 116  698 
23107 570  803 
23108 976  22  
23109 627  735 
23110 129  728 
23111 9    930 
23112 265  264 
23113 468  769 
23114 415  794 
23115 592  213 
23116 576  714 
23117 652  823 
23118 193  62  
23119 442  791 
23120 958  375 
23121 748  863 
23122 400  271 
23123 10   962 
23124 139  682 
23125 321  771 
23126 946  310 
23127 957  406 
23128 830  924 
23129 978  615 
23130 429  797 
23131 468  197 
23132 680  997 
23133 295  948 
23134 205  822 
23135 518  809 
23136 387  313 
23137 269  773 
23138 73   156 
23139 594  550 
23140 407  667 
23141 999  114 
23142 21   134 
23143 519  651 
23144 166  881 
23145 480  488 
23146 11   1   
23147 915  727 
23148 121  708 
23149 836  51  
23150 324  495 
23151 732  508 
23152 439  558 
23153 794  715 
23154 125  133 
23155 773  447 
23156 51   699 
23157 323  190 
23158 911  289 
23159 777  773 
23160 929  66  
23161 479  176 
23162 924  963 
23163 209  340 
23164 172  600 
23165 68   537 
23166 227  184 
23167 70   550 
23168 824  70  
23169 365  218 
23170 282  574 
23171 946  617 
23172 263  849 
23173 397  351 
23174 881  4   
23175 62   341 
23176 751  587 
23177 922  625 
23178 804  637 
23179 536  647 
23180 460  615 
23181 338  539 
23182 257  519 
23183 538  432 
23184 574  445 
23185 705  419 
23186 527  670 
23187 417  699 
23188 269  698 
23189 6    567 
23190 31   128 
23191 453  318 
23192 3    483 
23193 741  555 
23194 291  444 
23195 558  482 
23196 180  620 
23197 987  276 
23198 971  939 
23199 55   316 
23200 332  615 
23201 663  914 
23202 640  217 
23203 822  241 
23204 972  678 
23205 333  412 
23206 8    531 
23207 102  603 
23208 623  15  
23209 570  249 
23210 860  578 
23211 897  456 
23212 959  158 
23213 599  231 
23214 712  473 
23215 172  723 
23216 564  253 
23217 947  751 
23218 714  686 
23219 269  423 
23220 679  156 
23221 437  721 
23222 423  930 
23223 605  776 
23224 236  173 
23225 937  342 
23226 321  937 
23227 450  719 
23228 994  496 
23229 99   204 
23230 325  882 
23231 622  760 
23232 350  479 
23233 389  641 
23234 746  531 
23235 718  661 
23236 120  921 
23237 687  267 
23238 173  241 
23239 157  748 
23240 288  841 
23241 34   456 
23242 6    930 
23243 686  192 
23244 428  80  
23245 68   255 
23246 451  241 
23247 234  131 
23248 732  134 
23249 8    834 
23250 923  655 
23251 928  787 
23252 556  235 
23253 519  497 
23254 300  425 
23255 284  550 
23256 90   885 
23257 85   702 
23258 546  160 
23259 659  387 
23260 327  529 
23261 539  937 
23262 43   230 
23263 670  1   
23264 38   991 
23265 919  802 
23266 116  679 
23267 912  948 
23268 17   592 
23269 238  246 
23270 88   539 
23271 985  275 
23272 0    977 
23273 890  400 
23274 493  877 
23275 27   313 
23276 304  994 
23277 691  718 
23278 504  553 
23279 252  619 
23280 914  162 
23281 178  233 
23282 565  459 
23283 240  946 
23284 44   770 
23285 634  238 
23286 763  462 
23287 620  461 
23288 982  556 
23289 938  590 
23290 101  832 
23291 961  999 
23292 871  348 
23293 230  684 
23294 156  519 
23295 301  399 
23296 68   430 
23297 107  448 
23298 54   713 
23299 483  913 
23300 782  529 
23301 609  247 
23302 157  609 
23303 853  900 
23304 604  270 
23305 966  685 
23306 55   70  
23307 461  811 
23308 779  394 
23309 712  887 
23310 103  378 
23311 543  66  
23312 197  898 
23313 271  655 
23314 310  163 
23315 741  325 
23316 992  293 
23317 284  697 
23318 512  476 
23319 452  487 
23320 281  761 
23321 138  850 
23322 484  976 
23323 530  720 
23324 198  866 
23325 1000 14  
23326 216  573 
23327 843  744 
23328 368  712 
23329 294  160 
23330 868  13  
23331 658  319 
23332 109  95  
23333 510  998 
23334 886  953 
23335 74   665 
23336 844  101 
23337 203  119 
23338 636  775 
23339 122  141 
23340 32   125 
23341 855  615 
23342 71   52  
23343 364  962 
23344 728  293 
23345 472  483 
23346 75   142 
23347 40   182 
23348 909  18  
23349 549  123 
23350 662  842 
23351 330  163 
23352 224  418 
23353 738  36  
23354 39   777 
23355 187  278 
23356 466  291 
23357 583  332 
23358 975  166 
23359 124  826 
23360 433  59  
23361 73   108 
23362 382  230 
23363 474  584 
23364 577  573 
23365 282  339 
23366 653  320 
23367 358  462 
23368 289  565 
23369 715  907 
23370 452  150 
23371 272  564 
23372 906  831 
23373 546  262 
23374 698  189 
23375 20   929 
23376 974  465 
23377 12   652 
23378 358  522 
23379 21   682 
23380 519  223 
23381 685  755 
23382 950  761 
23383 664  402 
23384 94   542 
23385 661  491 
23386 1000 505 
23387 624  517 
23388 352  856 
23389 958  54  
23390 619  762 
23391 838  536 
23392 787  170 
23393 921  924 
23394 192  800 
23395 448  346 
23396 178  847 
23397 731  537 
23398 805  306 
23399 203  480 
23400 558  730 
23401 226  67  
23402 613  597 
23403 869  955 
23404 355  317 
23405 265  517 
23406 106  765 
23407 341  370 
23408 848  618 
23409 170  650 
23410 652  570 
23411 562  696 
23412 52   618 
23413 739  272 
23414 709  712 
23415 990  163 
23416 79   960 
23417 946  61  
23418 849  846 
23419 710  957 
23420 235  351 
23421 664  741 
23422 560  534 
23423 281  91  
23424 103  220 
23425 36   235 
23426 921  20  
23427 840  196 
23428 111  919 
23429 572  651 
23430 632  102 
23431 978  174 
23432 157  331 
23433 466  986 
23434 159  269 
23435 989  558 
23436 765  7   
23437 811  867 
23438 670  42  
23439 626  862 
23440 612  285 
23441 974  348 
23442 423  238 
23443 100  73  
23444 930  286 
23445 254  758 
23446 169  944 
23447 501  619 
23448 664  285 
23449 43   697 
23450 209  593 
23451 347  719 
23452 490  545 
23453 593  516 
23454 835  707 
23455 819  198 
23456 279  64  
23457 848  741 
23458 520  775 
23459 942  482 
23460 836  545 
23461 672  706 
23462 47   314 
23463 552  120 
23464 236  641 
23465 607  402 
23466 939  988 
23467 870  832 
23468 383  707 
23469 249  747 
23470 415  196 
23471 145  992 
23472 590  754 
23473 742  409 
23474 64   720 
23475 788  657 
23476 774  420 
23477 262  200 
23478 603  658 
23479 409  693 
23480 983  231 
23481 33   353 
23482 141  854 
23483 826  46  
23484 263  327 
23485 876  900 
23486 11   391 
23487 584  673 
23488 358  828 
23489 363  610 
23490 160  185 
23491 118  456 
23492 872  252 
23493 708  514 
23494 969  774 
23495 53   339 
23496 277  975 
23497 482  415 
23498 138  755 
23499 493  765 
23500 601  252 
23501 527  236 
23502 820  410 
23503 126  673 
23504 308  694 
23505 329  385 
23506 347  856 
23507 151  200 
23508 469  485 
23509 531  342 
23510 517  343 
23511 706  688 
23512 588  684 
23513 148  801 
23514 934  896 
23515 226  365 
23516 853  304 
23517 636  672 
23518 991  710 
23519 419  95  
23520 239  582 
23521 748  328 
23522 93   925 
23523 206  164 
23524 561  363 
23525 383  628 
23526 42   800 
23527 7    482 
23528 0    340 
23529 770  328 
23530 989  372 
23531 295  423 
23532 461  955 
23533 392  670 
23534 103  458 
23535 968  81  
23536 6    169 
23537 391  865 
23538 474  425 
23539 38   542 
23540 718  76  
23541 815  946 
23542 224  527 
23543 337  800 
23544 512  76  
23545 650  246 
23546 869  450 
23547 544  605 
23548 659  380 
23549 20   450 
23550 721  203 
23551 942  892 
23552 17   349 
23553 824  27  
23554 215  534 
23555 803  778 
23556 826  745 
23557 282  587 
23558 844  501 
23559 869  902 
23560 288  327 
23561 80   537 
23562 615  523 
23563 412  760 
23564 417  962 
23565 947  117 
23566 679  538 
23567 536  732 
23568 882  610 
23569 903  678 
23570 776  331 
23571 135  568 
23572 723  986 
23573 635  294 
23574 580  817 
23575 875  247 
23576 252  878 
23577 515  934 
23578 607  308 
23579 118  771 
23580 766  623 
23581 254  323 
23582 828  22  
23583 376  461 
23584 106  858 
23585 987  767 
23586 839  630 
23587 862  301 
23588 184  980 
23589 645  713 
23590 650  997 
23591 25   464 
23592 500  118 
23593 767  144 
23594 163  126 
23595 96   75  
23596 762  496 
23597 174  354 
23598 451  315 
23599 257  22  
23600 718  287 
23601 63   622 
23602 215  291 
23603 289  677 
23604 510  357 
23605 708  480 
23606 237  969 
23607 578  519 
23608 349  844 
23609 688  346 
23610 381  603 
23611 660  976 
23612 593  83  
23613 65   922 
23614 542  404 
23615 835  170 
23616 450  84  
23617 217  839 
23618 39   394 
23619 99   359 
23620 152  726 
23621 325  745 
23622 34   518 
23623 237  13  
23624 539  559 
23625 640  682 
23626 414  709 
23627 949  336 
23628 368  467 
23629 815  379 
23630 891  993 
23631 17   458 
23632 40   885 
23633 886  164 
23634 678  144 
23635 726  652 
23636 274  733 
23637 80   660 
23638 767  449 
23639 783  620 
23640 36   935 
23641 679  655 
23642 596  223 
23643 995  714 
23644 808  39  
23645 93   35  
23646 386  197 
23647 153  246 
23648 139  263 
23649 948  835 
23650 934  682 
23651 724  234 
23652 136  883 
23653 987  584 
23654 385  52  
23655 818  290 
23656 177  426 
23657 237  762 
23658 366  998 
23659 112  705 
23660 617  868 
23661 889  911 
23662 29   750 
23663 504  363 
23664 197  968 
23665 741  267 
23666 547  990 
23667 72   446 
23668 111  7   
23669 58   241 
23670 634  812 
23671 980  784 
23672 837  649 
23673 265  138 
23674 539  892 
23675 172  943 
23676 195  342 
23677 882  4   
23678 77   870 
23679 831  77  
23680 356  163 
23681 547  538 
23682 363  633 
23683 26   891 
23684 856  518 
23685 694  590 
23686 865  840 
23687 920  567 
23688 498  543 
23689 41   431 
23690 832  430 
23691 806  118 
23692 181  587 
23693 460  566 
23694 326  459 
23695 628  895 
23696 222  8   
23697 351  940 
23698 201  819 
23699 904  728 
23700 210  707 
23701 67   854 
23702 606  61  
23703 643  53  
23704 996  985 
23705 463  4   
23706 269  843 
23707 126  326 
23708 407  733 
23709 305  136 
23710 766  385 
23711 676  105 
23712 457  981 
23713 270  853 
23714 491  754 
23715 2    795 
23716 25   170 
23717 11   75  
23718 486  299 
23719 110  391 
23720 405  831 
23721 391  892 
23722 949  818 
23723 474  466 
23724 93   636 
23725 928  755 
23726 229  108 
23727 328  691 
23728 720  373 
23729 411  604 
23730 856  853 
23731 67   238 
23732 55   593 
23733 226  597 
23734 78   498 
23735 892  2   
23736 454  557 
23737 4    852 
23738 603  206 
23739 310  688 
23740 407  494 
23741 651  596 
23742 877  116 
23743 381  869 
23744 175  80  
23745 32   194 
23746 892  454 
23747 251  310 
23748 108  469 
23749 438  738 
23750 4    168 
23751 27   89  
23752 230  576 
23753 359  292 
23754 910  140 
23755 587  1   
23756 889  297 
23757 778  770 
23758 264  388 
23759 838  402 
23760 287  424 
23761 787  560 
23762 607  211 
23763 681  85  
23764 266  661 
23765 176  539 
23766 268  75  
23767 839  909 
23768 221  86  
23769 793  845 
23770 297  638 
23771 11   824 
23772 504  453 
23773 900  821 
23774 870  79  
23775 999  297 
23776 570  379 
23777 768  810 
23778 650  258 
23779 163  897 
23780 557  305 
23781 677  956 
23782 727  118 
23783 570  191 
23784 418  416 
23785 312  163 
23786 388  792 
23787 143  22  
23788 203  779 
23789 901  87  
23790 705  894 
23791 216  349 
23792 612  155 
23793 815  358 
23794 674  546 
23795 916  987 
23796 222  422 
23797 434  142 
23798 307  420 
23799 678  117 
23800 791  846 
23801 60   308 
23802 210  617 
23803 567  679 
23804 592  389 
23805 147  636 
23806 424  23  
23807 283  332 
23808 691  123 
23809 486  853 
23810 202  404 
23811 727  771 
23812 102  276 
23813 600  174 
23814 766  767 
23815 404  910 
23816 277  376 
23817 337  421 
23818 83   201 
23819 408  376 
23820 728  641 
23821 283  904 
23822 174  466 
23823 732  72  
23824 806  963 
23825 607  792 
23826 478  964 
23827 238  368 
23828 595  817 
23829 775  77  
23830 694  39  
23831 521  595 
23832 560  7   
23833 355  645 
23834 906  31  
23835 659  445 
23836 405  585 
23837 746  481 
23838 893  511 
23839 494  282 
23840 646  375 
23841 208  911 
23842 240  304 
23843 459  30  
23844 756  984 
23845 422  102 
23846 687  734 
23847 96   931 
23848 668  249 
23849 783  216 
23850 677  357 
23851 435  70  
23852 227  488 
23853 725  105 
23854 79   684 
23855 351  843 
23856 944  875 
23857 134  999 
23858 321  748 
23859 291  916 
23860 701  65  
23861 648  339 
23862 576  149 
23863 848  650 
23864 359  82  
23865 933  271 
23866 993  508 
23867 979  65  
23868 889  195 
23869 70   274 
23870 547  274 
23871 383  702 
23872 858  724 
23873 106  81  
23874 590  775 
23875 560  886 
23876 387  978 
23877 267  184 
23878 327  776 
23879 200  101 
23880 426  491 
23881 497  950 
23882 817  379 
23883 471  414 
23884 261  332 
23885 733  600 
23886 622  208 
23887 403  388 
23888 513  669 
23889 497  498 
23890 460  194 
23891 734  552 
23892 19   197 
23893 222  348 
23894 759  111 
23895 706  25  
23896 65   135 
23897 298  372 
23898 346  664 
23899 865  696 
23900 187  916 
23901 648  130 
23902 599  439 
23903 673  305 
23904 454  130 
23905 327  144 
23906 80   595 
23907 834  356 
23908 601  23  
23909 910  177 
23910 179  169 
23911 52   729 
23912 933  112 
23913 45   624 
23914 697  917 
23915 616  579 
23916 637  871 
23917 395  990 
23918 503  657 
23919 14   644 
23920 473  678 
23921 58   636 
23922 226  310 
23923 839  936 
23924 897  673 
23925 532  944 
23926 221  113 
23927 809  365 
23928 184  798 
23929 975  152 
23930 168  355 
23931 689  775 
23932 585  246 
23933 511  408 
23934 262  428 
23935 227  849 
23936 121  310 
23937 852  324 
23938 656  103 
23939 128  896 
23940 861  434 
23941 497  743 
23942 921  69  
23943 944  290 
23944 141  626 
23945 646  721 
23946 104  686 
23947 196  70  
23948 608  253 
23949 225  675 
23950 216  774 
23951 333  445 
23952 637  239 
23953 983  455 
23954 109  342 
23955 381  401 
23956 464  451 
23957 39   508 
23958 777  211 
23959 341  244 
23960 267  753 
23961 260  398 
23962 557  656 
23963 479  26  
23964 170  12  
23965 269  456 
23966 624  591 
23967 753  173 
23968 695  774 
23969 626  437 
23970 882  779 
23971 919  626 
23972 8    78  
23973 815  333 
23974 238  582 
23975 999  561 
23976 397  501 
23977 307  75  
23978 666  689 
23979 244  933 
23980 156  659 
23981 827  622 
23982 149  598 
23983 684  813 
23984 407  770 
23985 709  654 
23986 54   605 
23987 990  377 
23988 201  8   
23989 662  911 
23990 261  814 
23991 376  34  
23992 131  738 
23993 73   343 
23994 619  332 
23995 771  547 
23996 3    589 
23997 116  194 
23998 667  754 
23999 863  802 
24000 185  847 
24001 284  517 
24002 357  474 
24003 440  490 
24004 587  898 
24005 677  780 
24006 933  658 
24007 769  337 
24008 308  161 
24009 882  250 
24010 204  466 
24011 725  528 
24012 229  865 
24013 967  951 
24014 706  191 
24015 88   762 
24016 268  966 
24017 35   981 
24018 14   230 
24019 604  514 
24020 588  191 
24021 60   608 
24022 369  247 
24023 846  579 
24024 48   908 
24025 288  123 
24026 401  188 
24027 57   946 
24028 299  541 
24029 700  551 
24030 22   543 
24031 607  16  
24032 563  150 
24033 549  919 
24034 537  608 
24035 258  131 
24036 205  818 
24037 705  298 
24038 767  444 
24039 59   341 
24040 850  440 
24041 98   309 
24042 135  984 
24043 988  302 
24044 183  972 
24045 628  709 
24046 828  374 
24047 489  114 
24048 309  647 
24049 920  468 
24050 461  972 
24051 154  916 
24052 267  159 
24053 306  763 
24054 382  342 
24055 873  421 
24056 280  81  
24057 10   70  
24058 409  627 
24059 328  893 
24060 259  829 
24061 556  61  
24062 224  702 
24063 976  825 
24064 565  825 
24065 397  919 
24066 975  938 
24067 228  109 
24068 705  575 
24069 43   944 
24070 299  458 
24071 582  907 
24072 949  444 
24073 303  371 
24074 900  231 
24075 925  340 
24076 934  2   
24077 385  967 
24078 636  806 
24079 839  387 
24080 401  41  
24081 562  548 
24082 329  351 
24083 112  89  
24084 294  655 
24085 723  523 
24086 822  845 
24087 144  868 
24088 416  537 
24089 925  920 
24090 97   181 
24091 353  35  
24092 878  795 
24093 735  758 
24094 184  771 
24095 885  5   
24096 527  666 
24097 956  336 
24098 686  57  
24099 430  891 
24100 153  22  
24101 854  798 
24102 319  385 
24103 581  975 
24104 987  360 
24105 452  245 
24106 475  60  
24107 516  830 
24108 846  477 
24109 560  198 
24110 525  568 
24111 124  285 
24112 984  806 
24113 77   2   
24114 349  829 
24115 842  878 
24116 337  878 
24117 247  487 
24118 411  739 
24119 256  500 
24120 574  852 
24121 122  639 
24122 198  568 
24123 532  168 
24124 350  903 
24125 961  290 
24126 919  617 
24127 792  452 
24128 596  714 
24129 762  702 
24130 100  825 
24131 778  699 
24132 833  153 
24133 856  294 
24134 985  70  
24135 715  93  
24136 436  394 
24137 994  396 
24138 341  275 
24139 18   790 
24140 64   248 
24141 1000 916 
24142 931  530 
24143 142  463 
24144 36   886 
24145 737  711 
24146 679  732 
24147 292  472 
24148 335  75  
24149 266  590 
24150 535  82  
24151 738  346 
24152 261  969 
24153 69   44  
24154 987  569 
24155 297  657 
24156 447  611 
24157 304  243 
24158 177  123 
24159 712  752 
24160 797  937 
24161 580  463 
24162 135  198 
24163 245  525 
24164 319  266 
24165 72   77  
24166 201  431 
24167 404  20  
24168 7    153 
24169 323  92  
24170 505  801 
24171 989  527 
24172 168  847 
24173 205  96  
24174 885  718 
24175 371  840 
24176 461  246 
24177 161  154 
24178 698  483 
24179 518  190 
24180 834  739 
24181 195  423 
24182 831  18  
24183 47   611 
24184 160  845 
24185 644  503 
24186 773  149 
24187 134  465 
24188 503  18  
24189 703  165 
24190 982  100 
24191 32   486 
24192 80   274 
24193 304  998 
24194 986  794 
24195 852  967 
24196 725  447 
24197 86   395 
24198 485  918 
24199 810  351 
24200 448  52  
24201 602  733 
24202 14   327 
24203 120  620 
24204 876  99  
24205 350  334 
24206 500  383 
24207 546  971 
24208 585  951 
24209 322  823 
24210 165  731 
24211 61   410 
24212 568  562 
24213 474  961 
24214 280  698 
24215 330  508 
24216 519  674 
24217 452  47  
24218 415  165 
24219 862  598 
24220 131  626 
24221 25   27  
24222 267  114 
24223 440  542 
24224 45   313 
24225 746  70  
24226 285  330 
24227 695  131 
24228 868  757 
24229 958  627 
24230 840  110 
24231 676  764 
24232 471  464 
24233 879  471 
24234 312  327 
24235 111  57  
24236 556  90  
24237 722  366 
24238 81   126 
24239 464  130 
24240 323  201 
24241 574  562 
24242 648  688 
24243 341  949 
24244 603  191 
24245 769  705 
24246 511  586 
24247 167  174 
24248 407  415 
24249 303  350 
24250 123  82  
24251 367  615 
24252 902  950 
24253 911  908 
24254 807  879 
24255 422  203 
24256 332  333 
24257 173  847 
24258 429  741 
24259 32   113 
24260 341  489 
24261 938  893 
24262 922  614 
24263 818  663 
24264 571  821 
24265 827  687 
24266 790  529 
24267 972  396 
24268 460  632 
24269 635  330 
24270 605  622 
24271 847  721 
24272 169  474 
24273 501  21  
24274 763  607 
24275 652  199 
24276 163  402 
24277 617  595 
24278 338  116 
24279 822  674 
24280 771  864 
24281 702  980 
24282 780  242 
24283 33   595 
24284 819  620 
24285 715  911 
24286 367  368 
24287 261  547 
24288 775  937 
24289 90   535 
24290 641  397 
24291 590  856 
24292 516  859 
24293 258  631 
24294 239  27  
24295 45   430 
24296 582  607 
24297 310  818 
24298 176  306 
24299 967  628 
24300 72   355 
24301 953  222 
24302 132  453 
24303 542  8   
24304 263  537 
24305 747  826 
24306 217  731 
24307 904  389 
24308 622  165 
24309 977  834 
24310 428  894 
24311 564  230 
24312 179  256 
24313 757  612 
24314 807  736 
24315 611  483 
24316 532  713 
24317 576  969 
24318 539  255 
24319 304  652 
24320 527  854 
24321 640  890 
24322 292  421 
24323 594  741 
24324 446  938 
24325 529  86  
24326 213  933 
24327 250  299 
24328 273  272 
24329 990  167 
24330 141  281 
24331 390  760 
24332 671  665 
24333 67   925 
24334 606  870 
24335 638  343 
24336 569  812 
24337 721  537 
24338 352  196 
24339 315  456 
24340 707  602 
24341 45   95  
24342 119  838 
24343 451  280 
24344 732  191 
24345 181  431 
24346 944  407 
24347 727  500 
24348 551  571 
24349 399  318 
24350 777  586 
24351 599  815 
24352 223  619 
24353 345  505 
24354 38   948 
24355 229  855 
24356 86   928 
24357 893  272 
24358 734  780 
24359 835  139 
24360 740  52  
24361 228  352 
24362 786  844 
24363 825  274 
24364 518  287 
24365 557  827 
24366 843  914 
24367 347  707 
24368 723  712 
24369 799  871 
24370 199  967 
24371 999  924 
24372 655  368 
24373 821  536 
24374 715  45  
24375 148  922 
24376 279  92  
24377 210  559 
24378 982  517 
24379 1000 804 
24380 776  405 
24381 31   845 
24382 199  523 
24383 448  917 
24384 487  268 
24385 275  868 
24386 480  38  
24387 694  417 
24388 387  931 
24389 138  359 
24390 283  882 
24391 417  420 
24392 396  691 
24393 776  977 
24394 580  351 
24395 271  694 
24396 552  696 
24397 231  638 
24398 418  185 
24399 669  432 
24400 971  680 
24401 318  465 
24402 214  134 
24403 177  919 
24404 470  252 
24405 454  657 
24406 327  669 
24407 82   524 
24408 801  203 
24409 146  384 
24410 937  411 
24411 217  45  
24412 397  273 
24413 316  935 
24414 18   89  
24415 654  122 
24416 359  720 
24417 36   693 
24418 329  389 
24419 905  416 
24420 942  689 
24421 672  405 
24422 430  389 
24423 213  891 
24424 801  631 
24425 967  422 
24426 796  782 
24427 669  568 
24428 602  589 
24429 934  900 
24430 738  29  
24431 994  243 
24432 724  472 
24433 671  563 
24434 980  66  
24435 212  180 
24436 857  554 
24437 315  18  
24438 852  491 
24439 70   344 
24440 3    401 
24441 499  478 
24442 948  949 
24443 842  400 
24444 104  637 
24445 971  921 
24446 475  246 
24447 883  245 
24448 385  226 
24449 906  772 
24450 548  337 
24451 163  821 
24452 859  925 
24453 234  386 
24454 15   657 
24455 8    577 
24456 586  718 
24457 542  45  
24458 858  206 
24459 574  642 
24460 802  281 
24461 401  400 
24462 94   551 
24463 424  591 
24464 463  758 
24465 652  975 
24466 755  408 
24467 460  260 
24468 635  254 
24469 26   545 
24470 706  95  
24471 118  347 
24472 611  454 
24473 867  80  
24474 830  164 
24475 498  693 
24476 613  572 
24477 710  398 
24478 235  810 
24479 348  587 
24480 184  412 
24481 661  918 
24482 735  105 
24483 260  785 
24484 246  174 
24485 1000 606 
24486 601  77  
24487 343  832 
24488 126  592 
24489 444  197 
24490 688  939 
24491 598  418 
24492 84   44  
24493 785  7   
24494 109  559 
24495 3    94  
24496 314  664 
24497 226  508 
24498 482  594 
24499 641  625 
24500 590  524 
24501 168  317 
24502 666  36  
24503 509  252 
24504 993  183 
24505 686  146 
24506 301  144 
24507 349  644 
24508 538  909 
24509 245  595 
24510 524  232 
24511 487  570 
24512 381  19  
24513 224  850 
24514 404  94  
24515 888  185 
24516 337  213 
24517 745  208 
24518 698  41  
24519 234  521 
24520 589  129 
24521 674  129 
24522 12   792 
24523 531  760 
24524 464  397 
24525 851  875 
24526 512  219 
24527 420  680 
24528 99   363 
24529 415  855 
24530 915  119 
24531 899  538 
24532 728  488 
24533 195  557 
24534 114  679 
24535 497  309 
24536 151  814 
24537 748  810 
24538 658  62  
24539 469  327 
24540 787  798 
24541 579  576 
24542 28   202 
24543 51   27  
24544 360  650 
24545 549  824 
24546 291  520 
24547 830  979 
24548 362  415 
24549 145  435 
24550 258  242 
24551 131  96  
24552 539  111 
24553 408  667 
24554 525  144 
24555 73   209 
24556 398  526 
24557 206  454 
24558 72   998 
24559 533  615 
24560 932  116 
24561 291  68  
24562 512  942 
24563 180  852 
24564 48   206 
24565 638  167 
24566 306  522 
24567 278  684 
24568 98   936 
24569 656  284 
24570 430  603 
24571 515  467 
24572 935  714 
24573 220  379 
24574 176  241 
24575 381  168 
24576 660  291 
24577 812  38  
24578 51   876 
24579 802  127 
24580 34   981 
24581 223  507 
24582 647  261 
24583 949  109 
24584 912  989 
24585 416  12  
24586 312  973 
24587 494  309 
24588 26   839 
24589 284  51  
24590 549  617 
24591 678  839 
24592 60   554 
24593 265  330 
24594 848  813 
24595 408  938 
24596 728  371 
24597 502  98  
24598 527  151 
24599 151  163 
24600 688  789 
24601 84   134 
24602 490  701 
24603 683  522 
24604 918  370 
24605 44   683 
24606 482  824 
24607 666  378 
24608 961  910 
24609 73   94  
24610 329  36  
24611 917  683 
24612 75   568 
24613 605  232 
24614 515  128 
24615 374  903 
24616 305  140 
24617 231  778 
24618 434  616 
24619 314  946 
24620 337  371 
24621 927  36  
24622 180  991 
24623 862  523 
24624 154  970 
24625 396  515 
24626 82   344 
24627 105  9   
24628 730  540 
24629 529  671 
24630 716  543 
24631 612  728 
24632 3    880 
24633 824  456 
24634 402  738 
24635 169  757 
24636 556  7   
24637 775  295 
24638 413  482 
24639 290  734 
24640 82   924 
24641 324  993 
24642 591  813 
24643 248  999 
24644 264  76  
24645 651  584 
24646 377  709 
24647 273  770 
24648 916  604 
24649 367  690 
24650 618  796 
24651 194  260 
24652 51   181 
24653 934  72  
24654 717  600 
24655 844  462 
24656 353  429 
24657 265  759 
24658 530  61  
24659 415  589 
24660 770  588 
24661 643  486 
24662 477  772 
24663 961  223 
24664 917  892 
24665 47   391 
24666 951  685 
24667 476  371 
24668 740  835 
24669 182  436 
24670 371  381 
24671 124  899 
24672 177  20  
24673 59   40  
24674 278  778 
24675 859  577 
24676 49   163 
24677 840  178 
24678 556  310 
24679 23   659 
24680 851  274 
24681 708  393 
24682 233  47  
24683 152  3   
24684 138  122 
24685 917  244 
24686 292  743 
24687 993  598 
24688 977  41  
24689 924  720 
24690 543  366 
24691 449  752 
24692 271  939 
24693 167  74  
24694 137  435 
24695 102  613 
24696 289  216 
24697 109  311 
24698 261  18  
24699 777  204 
24700 445  838 
24701 673  35  
24702 288  15  
24703 366  312 
24704 350  861 
24705 299  641 
24706 859  457 
24707 421  190 
24708 22   675 
24709 591  950 
24710 919  403 
24711 649  155 
24712 739  143 
24713 127  363 
24714 978  975 
24715 539  130 
24716 170  547 
24717 500  302 
24718 984  499 
24719 723  846 
24720 605  270 
24721 861  164 
24722 349  112 
24723 370  833 
24724 625  545 
24725 97   392 
24726 233  344 
24727 712  778 
24728 380  648 
24729 569  903 
24730 435  889 
24731 112  730 
24732 349  564 
24733 409  711 
24734 160  715 
24735 510  505 
24736 662  490 
24737 263  373 
24738 512  271 
24739 302  896 
24740 48   367 
24741 410  842 
24742 661  275 
24743 61   600 
24744 199  302 
24745 455  192 
24746 517  837 
24747 593  487 
24748 579  148 
24749 941  805 
24750 293  310 
24751 496  142 
24752 60   519 
24753 583  853 
24754 657  979 
24755 562  592 
24756 691  268 
24757 195  957 
24758 522  542 
24759 264  354 
24760 801  589 
24761 943  128 
24762 468  224 
24763 936  82  
24764 887  551 
24765 601  330 
24766 1000 857 
24767 338  199 
24768 799  342 
24769 488  744 
24770 384  419 
24771 538  204 
24772 79   236 
24773 653  269 
24774 853  838 
24775 927  67  
24776 258  678 
24777 477  466 
24778 788  362 
24779 582  558 
24780 822  89  
24781 176  321 
24782 967  709 
24783 238  387 
24784 275  375 
24785 655  920 
24786 733  596 
24787 846  877 
24788 9    176 
24789 929  103 
24790 855  225 
24791 786  936 
24792 200  549 
24793 96   758 
24794 426  43  
24795 603  249 
24796 437  681 
24797 815  452 
24798 787  95  
24799 476  804 
24800 95   978 
24801 259  726 
24802 706  21  
24803 669  927 
24804 985  474 
24805 959  970 
24806 394  830 
24807 87   671 
24808 518  575 
24809 304  731 
24810 195  806 
24811 587  24  
24812 511  64  
24813 458  92  
24814 866  177 
24815 790  479 
24816 190  623 
24817 100  745 
24818 197  305 
24819 697  921 
24820 593  792 
24821 828  100 
24822 120  817 
24823 323  628 
24824 175  511 
24825 297  517 
24826 672  934 
24827 976  599 
24828 722  103 
24829 208  481 
24830 44   127 
24831 888  131 
24832 7    5   
24833 210  147 
24834 450  418 
24835 30   190 
24836 196  66  
24837 604  71  
24838 521  653 
24839 779  69  
24840 530  965 
24841 915  901 
24842 573  845 
24843 133  704 
24844 873  243 
24845 195  27  
24846 77   35  
24847 167  929 
24848 704  819 
24849 621  550 
24850 432  598 
24851 967  574 
24852 711  676 
24853 189  459 
24854 703  81  
24855 857  338 
24856 792  547 
24857 665  859 
24858 905  196 
24859 672  201 
24860 619  696 
24861 748  988 
24862 877  0   
24863 259  323 
24864 805  500 
24865 662  583 
24866 420  854 
24867 37   90  
24868 39   572 
24869 369  954 
24870 740  671 
24871 83   756 
24872 71   367 
24873 311  412 
24874 463  193 
24875 924  373 
24876 193  485 
24877 269  904 
24878 126  389 
24879 278  190 
24880 794  136 
24881 923  292 
24882 330  360 
24883 689  176 
24884 193  801 
24885 802  625 
24886 34   487 
24887 119  776 
24888 232  436 
24889 174  443 
24890 504  313 
24891 626  732 
24892 681  933 
24893 612  927 
24894 439  941 
24895 485  63  
24896 595  792 
24897 911  420 
24898 966  977 
24899 959  360 
24900 507  313 
24901 271  987 
24902 716  738 
24903 114  76  
24904 63   389 
24905 47   512 
24906 303  490 
24907 109  455 
24908 734  970 
24909 178  576 
24910 964  615 
24911 55   854 
24912 32   5   
24913 207  620 
24914 527  89  
24915 700  547 
24916 956  661 
24917 919  259 
24918 278  393 
24919 8    253 
24920 697  759 
24921 386  806 
24922 667  475 
24923 939  606 
24924 10   970 
24925 782  952 
24926 676  411 
24927 35   533 
24928 715  503 
24929 406  412 
24930 514  477 
24931 952  530 
24932 541  704 
24933 140  95  
24934 396  49  
24935 112  366 
24936 391  366 
24937 771  212 
24938 478  540 
24939 997  564 
24940 637  525 
24941 766  371 
24942 275  926 
24943 662  30  
24944 244  488 
24945 101  289 
24946 548  224 
24947 993  919 
24948 589  349 
24949 591  307 
24950 522  278 
24951 319  220 
24952 506  949 
24953 404  446 
24954 685  859 
24955 261  339 
24956 489  690 
24957 768  41  
24958 629  654 
24959 885  820 
24960 696  699 
24961 260  300 
24962 850  572 
24963 299  462 
24964 345  188 
24965 165  489 
24966 220  836 
24967 114  451 
24968 100  178 
24969 356  260 
24970 928  141 
24971 630  614 
24972 976  377 
24973 692  77  
24974 678  936 
24975 890  322 
24976 991  64  
24977 887  403 
24978 790  560 
24979 338  531 
24980 286  557 
24981 567  932 
24982 272  75  
24983 758  817 
24984 154  163 
24985 984  750 
24986 366  654 
24987 370  580 
24988 418  974 
24989 457  908 
24990 339  432 
24991 99   892 
24992 500  741 
24993 447  446 
24994 417  255 
24995 440  328 
24996 45   399 
24997 822  201 
24998 453  890 
24999 704  808 
25000 100  481 
25001 446  205 
DEMAND_SECTION
1    0   
2    10  
3    9   
4    4   
5    6   
6    96  
7    4   
8    2   
9    2   
10   10  
11   4   
12   71  
13   8   
14   94  
15   10  
16   8   
17   9   
18   4   
19   64  
20   7   
21   1   
22   7   
23   7   
24   7   
25   10  
26   7   
27   9   
28   78  
29   8   
30   10  
31   5   
32   57  
33   87  
34   3   
35   50  
36   1   
37   7   
38   10  
39   9   
40   2   
41   6   
42   79  
43   1   
44   2   
45   2   
46   9   
47   6   
48   69  
49   2   
50   10  
51   5   
52   6   
53   84  
54   1   
55   8   
56   96  
57   10  
58   2   
59   64  
60   3   
61   1   
62   4   
63   2   
64   5   
65   3   
66   6   
67   87  
68   5   
69   2   
70   5   
71   4   
72   3   
73   7   
74   8   
75   99  
76   9   
77   10  
78   68  
79   6   
80   1   
81   7   
82   3   
83   5   
84   4   
85   10  
86   3   
87   1   
88   64  
89   4   
90   1   
91   50  
92   50  
93   7   
94   9   
95   60  
96   3   
97   4   
98   8   
99   10  
100  76  
101  7   
102  1   
103  5   
104  2   
105  2   
106  7   
107  2   
108  7   
109  69  
110  96  
111  7   
112  4   
113  8   
114  5   
115  3   
116  10  
117  5   
118  5   
119  4   
120  8   
121  6   
122  1   
123  6   
124  9   
125  1   
126  1   
127  100 
128  7   
129  10  
130  6   
131  5   
132  67  
133  8   
134  74  
135  9   
136  64  
137  10  
138  3   
139  6   
140  9   
141  5   
142  58  
143  57  
144  99  
145  7   
146  8   
147  7   
148  1   
149  3   
150  10  
151  6   
152  6   
153  4   
154  51  
155  7   
156  2   
157  5   
158  6   
159  50  
160  7   
161  6   
162  8   
163  2   
164  4   
165  1   
166  6   
167  7   
168  69  
169  6   
170  10  
171  4   
172  7   
173  10  
174  1   
175  9   
176  7   
177  6   
178  7   
179  10  
180  88  
181  10  
182  8   
183  2   
184  1   
185  54  
186  2   
187  9   
188  87  
189  9   
190  6   
191  4   
192  8   
193  2   
194  9   
195  3   
196  5   
197  1   
198  5   
199  10  
200  10  
201  2   
202  4   
203  4   
204  4   
205  83  
206  10  
207  1   
208  2   
209  8   
210  4   
211  3   
212  9   
213  8   
214  3   
215  2   
216  5   
217  8   
218  74  
219  6   
220  92  
221  98  
222  9   
223  81  
224  4   
225  9   
226  1   
227  87  
228  3   
229  91  
230  55  
231  3   
232  9   
233  9   
234  8   
235  10  
236  8   
237  1   
238  1   
239  10  
240  7   
241  9   
242  9   
243  3   
244  7   
245  5   
246  65  
247  1   
248  9   
249  3   
250  9   
251  3   
252  3   
253  8   
254  3   
255  9   
256  4   
257  10  
258  8   
259  10  
260  9   
261  92  
262  1   
263  1   
264  6   
265  8   
266  6   
267  7   
268  6   
269  9   
270  4   
271  1   
272  76  
273  67  
274  6   
275  91  
276  3   
277  9   
278  7   
279  1   
280  9   
281  5   
282  3   
283  6   
284  8   
285  9   
286  3   
287  4   
288  10  
289  7   
290  10  
291  9   
292  9   
293  1   
294  65  
295  5   
296  5   
297  6   
298  1   
299  3   
300  5   
301  6   
302  1   
303  52  
304  8   
305  9   
306  10  
307  7   
308  9   
309  78  
310  4   
311  1   
312  1   
313  7   
314  5   
315  9   
316  8   
317  62  
318  9   
319  3   
320  9   
321  3   
322  6   
323  9   
324  2   
325  6   
326  9   
327  9   
328  1   
329  64  
330  4   
331  2   
332  6   
333  8   
334  2   
335  52  
336  9   
337  2   
338  8   
339  5   
340  54  
341  9   
342  9   
343  9   
344  5   
345  3   
346  4   
347  3   
348  65  
349  8   
350  5   
351  4   
352  9   
353  9   
354  5   
355  4   
356  7   
357  3   
358  3   
359  3   
360  2   
361  10  
362  4   
363  6   
364  1   
365  5   
366  9   
367  4   
368  7   
369  9   
370  2   
371  2   
372  8   
373  4   
374  90  
375  2   
376  7   
377  7   
378  7   
379  90  
380  52  
381  6   
382  3   
383  92  
384  8   
385  9   
386  76  
387  2   
388  8   
389  8   
390  78  
391  4   
392  61  
393  5   
394  2   
395  1   
396  65  
397  10  
398  6   
399  1   
400  7   
401  3   
402  3   
403  4   
404  73  
405  9   
406  9   
407  9   
408  7   
409  6   
410  2   
411  9   
412  7   
413  5   
414  60  
415  10  
416  5   
417  8   
418  4   
419  10  
420  5   
421  8   
422  69  
423  1   
424  8   
425  5   
426  4   
427  3   
428  10  
429  4   
430  3   
431  1   
432  6   
433  2   
434  76  
435  2   
436  1   
437  3   
438  1   
439  6   
440  6   
441  3   
442  98  
443  3   
444  10  
445  7   
446  8   
447  7   
448  4   
449  1   
450  3   
451  86  
452  7   
453  2   
454  8   
455  2   
456  7   
457  3   
458  3   
459  5   
460  6   
461  51  
462  51  
463  3   
464  5   
465  1   
466  87  
467  5   
468  2   
469  1   
470  5   
471  7   
472  9   
473  8   
474  5   
475  3   
476  9   
477  7   
478  62  
479  92  
480  5   
481  1   
482  4   
483  95  
484  10  
485  90  
486  78  
487  10  
488  97  
489  4   
490  7   
491  97  
492  8   
493  2   
494  10  
495  99  
496  5   
497  9   
498  7   
499  78  
500  96  
501  10  
502  1   
503  5   
504  63  
505  1   
506  2   
507  6   
508  7   
509  7   
510  55  
511  5   
512  6   
513  9   
514  5   
515  6   
516  2   
517  8   
518  3   
519  3   
520  9   
521  97  
522  2   
523  2   
524  4   
525  1   
526  53  
527  1   
528  6   
529  3   
530  4   
531  2   
532  10  
533  6   
534  57  
535  1   
536  5   
537  10  
538  55  
539  2   
540  75  
541  96  
542  8   
543  97  
544  3   
545  9   
546  3   
547  2   
548  2   
549  8   
550  10  
551  10  
552  1   
553  7   
554  4   
555  8   
556  10  
557  8   
558  9   
559  10  
560  6   
561  56  
562  1   
563  1   
564  5   
565  51  
566  8   
567  2   
568  7   
569  57  
570  5   
571  9   
572  4   
573  94  
574  1   
575  4   
576  93  
577  3   
578  9   
579  9   
580  8   
581  96  
582  10  
583  2   
584  7   
585  86  
586  1   
587  6   
588  87  
589  5   
590  2   
591  9   
592  7   
593  8   
594  7   
595  10  
596  6   
597  2   
598  2   
599  5   
600  55  
601  2   
602  5   
603  3   
604  1   
605  7   
606  10  
607  4   
608  4   
609  8   
610  9   
611  8   
612  4   
613  7   
614  8   
615  9   
616  90  
617  2   
618  82  
619  6   
620  3   
621  3   
622  6   
623  8   
624  2   
625  10  
626  6   
627  10  
628  9   
629  1   
630  10  
631  10  
632  5   
633  10  
634  51  
635  92  
636  10  
637  3   
638  3   
639  72  
640  4   
641  3   
642  98  
643  9   
644  4   
645  5   
646  5   
647  1   
648  5   
649  4   
650  91  
651  4   
652  56  
653  1   
654  10  
655  2   
656  5   
657  82  
658  9   
659  6   
660  1   
661  8   
662  8   
663  96  
664  4   
665  4   
666  86  
667  7   
668  82  
669  7   
670  10  
671  4   
672  3   
673  8   
674  3   
675  56  
676  2   
677  8   
678  5   
679  5   
680  5   
681  4   
682  10  
683  79  
684  4   
685  6   
686  1   
687  6   
688  8   
689  10  
690  5   
691  73  
692  86  
693  8   
694  5   
695  1   
696  8   
697  7   
698  8   
699  3   
700  8   
701  4   
702  6   
703  8   
704  7   
705  3   
706  3   
707  3   
708  10  
709  53  
710  2   
711  3   
712  5   
713  10  
714  86  
715  9   
716  69  
717  8   
718  94  
719  9   
720  66  
721  74  
722  8   
723  2   
724  6   
725  3   
726  5   
727  72  
728  1   
729  8   
730  8   
731  6   
732  4   
733  6   
734  6   
735  8   
736  3   
737  7   
738  7   
739  74  
740  5   
741  58  
742  3   
743  5   
744  84  
745  2   
746  62  
747  7   
748  8   
749  2   
750  3   
751  7   
752  4   
753  1   
754  69  
755  1   
756  3   
757  8   
758  3   
759  6   
760  53  
761  89  
762  9   
763  8   
764  10  
765  86  
766  2   
767  2   
768  4   
769  3   
770  71  
771  93  
772  4   
773  4   
774  2   
775  3   
776  5   
777  1   
778  6   
779  6   
780  9   
781  1   
782  4   
783  3   
784  6   
785  5   
786  1   
787  10  
788  9   
789  5   
790  4   
791  1   
792  1   
793  4   
794  7   
795  68  
796  2   
797  70  
798  5   
799  1   
800  2   
801  2   
802  5   
803  1   
804  8   
805  8   
806  2   
807  3   
808  7   
809  8   
810  5   
811  82  
812  8   
813  1   
814  10  
815  65  
816  6   
817  10  
818  1   
819  7   
820  4   
821  93  
822  4   
823  3   
824  10  
825  9   
826  1   
827  10  
828  2   
829  1   
830  3   
831  9   
832  79  
833  8   
834  2   
835  8   
836  3   
837  8   
838  69  
839  6   
840  4   
841  65  
842  10  
843  10  
844  4   
845  10  
846  5   
847  10  
848  1   
849  3   
850  74  
851  3   
852  7   
853  95  
854  89  
855  7   
856  9   
857  5   
858  9   
859  2   
860  2   
861  10  
862  4   
863  2   
864  4   
865  2   
866  2   
867  2   
868  4   
869  8   
870  68  
871  6   
872  8   
873  6   
874  4   
875  8   
876  56  
877  1   
878  2   
879  95  
880  4   
881  6   
882  3   
883  8   
884  5   
885  78  
886  6   
887  10  
888  4   
889  81  
890  76  
891  9   
892  1   
893  77  
894  4   
895  70  
896  4   
897  4   
898  1   
899  75  
900  1   
901  62  
902  5   
903  53  
904  2   
905  10  
906  4   
907  6   
908  50  
909  2   
910  2   
911  2   
912  4   
913  2   
914  2   
915  3   
916  9   
917  10  
918  6   
919  9   
920  10  
921  9   
922  5   
923  7   
924  54  
925  78  
926  8   
927  4   
928  97  
929  2   
930  10  
931  4   
932  1   
933  9   
934  1   
935  10  
936  86  
937  9   
938  1   
939  1   
940  7   
941  7   
942  2   
943  5   
944  1   
945  78  
946  80  
947  7   
948  8   
949  3   
950  3   
951  3   
952  2   
953  6   
954  2   
955  8   
956  1   
957  1   
958  6   
959  60  
960  1   
961  5   
962  6   
963  3   
964  8   
965  10  
966  10  
967  68  
968  3   
969  4   
970  1   
971  4   
972  5   
973  7   
974  2   
975  6   
976  8   
977  85  
978  8   
979  8   
980  98  
981  1   
982  2   
983  4   
984  1   
985  4   
986  7   
987  1   
988  6   
989  5   
990  2   
991  7   
992  58  
993  5   
994  57  
995  95  
996  6   
997  8   
998  7   
999  7   
1000 8   
1001 1   
1002 1   
1003 1   
1004 4   
1005 69  
1006 7   
1007 10  
1008 8   
1009 4   
1010 2   
1011 4   
1012 2   
1013 8   
1014 8   
1015 3   
1016 3   
1017 3   
1018 2   
1019 2   
1020 3   
1021 7   
1022 2   
1023 5   
1024 2   
1025 4   
1026 71  
1027 4   
1028 2   
1029 3   
1030 4   
1031 93  
1032 3   
1033 1   
1034 97  
1035 74  
1036 6   
1037 1   
1038 94  
1039 7   
1040 9   
1041 9   
1042 74  
1043 6   
1044 9   
1045 3   
1046 6   
1047 63  
1048 5   
1049 65  
1050 2   
1051 1   
1052 8   
1053 5   
1054 9   
1055 5   
1056 3   
1057 2   
1058 3   
1059 8   
1060 6   
1061 9   
1062 98  
1063 10  
1064 10  
1065 89  
1066 68  
1067 1   
1068 85  
1069 2   
1070 50  
1071 1   
1072 3   
1073 7   
1074 2   
1075 4   
1076 4   
1077 7   
1078 3   
1079 4   
1080 7   
1081 5   
1082 7   
1083 4   
1084 5   
1085 2   
1086 6   
1087 6   
1088 8   
1089 2   
1090 4   
1091 4   
1092 100 
1093 10  
1094 2   
1095 8   
1096 1   
1097 9   
1098 9   
1099 7   
1100 10  
1101 8   
1102 7   
1103 10  
1104 4   
1105 7   
1106 4   
1107 62  
1108 99  
1109 99  
1110 1   
1111 3   
1112 4   
1113 8   
1114 54  
1115 6   
1116 10  
1117 6   
1118 9   
1119 2   
1120 5   
1121 7   
1122 9   
1123 3   
1124 8   
1125 5   
1126 10  
1127 82  
1128 92  
1129 4   
1130 9   
1131 4   
1132 58  
1133 6   
1134 93  
1135 4   
1136 10  
1137 7   
1138 52  
1139 4   
1140 10  
1141 4   
1142 4   
1143 8   
1144 56  
1145 3   
1146 8   
1147 10  
1148 10  
1149 10  
1150 3   
1151 7   
1152 1   
1153 8   
1154 9   
1155 8   
1156 6   
1157 79  
1158 3   
1159 91  
1160 54  
1161 5   
1162 7   
1163 65  
1164 2   
1165 2   
1166 85  
1167 2   
1168 10  
1169 4   
1170 9   
1171 9   
1172 3   
1173 9   
1174 10  
1175 71  
1176 6   
1177 10  
1178 4   
1179 100 
1180 97  
1181 2   
1182 7   
1183 10  
1184 4   
1185 8   
1186 4   
1187 2   
1188 9   
1189 2   
1190 8   
1191 8   
1192 7   
1193 3   
1194 57  
1195 2   
1196 10  
1197 94  
1198 10  
1199 8   
1200 9   
1201 3   
1202 4   
1203 7   
1204 4   
1205 5   
1206 1   
1207 8   
1208 10  
1209 2   
1210 89  
1211 10  
1212 90  
1213 8   
1214 8   
1215 8   
1216 100 
1217 8   
1218 5   
1219 5   
1220 2   
1221 1   
1222 8   
1223 6   
1224 4   
1225 10  
1226 1   
1227 6   
1228 1   
1229 3   
1230 8   
1231 55  
1232 7   
1233 8   
1234 5   
1235 52  
1236 1   
1237 8   
1238 8   
1239 67  
1240 77  
1241 4   
1242 7   
1243 9   
1244 1   
1245 8   
1246 4   
1247 4   
1248 6   
1249 2   
1250 1   
1251 3   
1252 75  
1253 10  
1254 7   
1255 5   
1256 1   
1257 3   
1258 6   
1259 1   
1260 57  
1261 82  
1262 1   
1263 4   
1264 1   
1265 9   
1266 9   
1267 68  
1268 4   
1269 62  
1270 2   
1271 3   
1272 7   
1273 3   
1274 5   
1275 7   
1276 9   
1277 2   
1278 9   
1279 6   
1280 8   
1281 10  
1282 3   
1283 9   
1284 1   
1285 3   
1286 6   
1287 5   
1288 52  
1289 3   
1290 9   
1291 7   
1292 5   
1293 3   
1294 3   
1295 57  
1296 10  
1297 1   
1298 56  
1299 10  
1300 7   
1301 100 
1302 9   
1303 3   
1304 2   
1305 9   
1306 8   
1307 3   
1308 3   
1309 2   
1310 2   
1311 3   
1312 10  
1313 9   
1314 8   
1315 10  
1316 5   
1317 1   
1318 3   
1319 7   
1320 8   
1321 3   
1322 56  
1323 77  
1324 3   
1325 9   
1326 8   
1327 6   
1328 5   
1329 2   
1330 5   
1331 1   
1332 10  
1333 8   
1334 94  
1335 10  
1336 10  
1337 9   
1338 6   
1339 5   
1340 3   
1341 3   
1342 76  
1343 6   
1344 3   
1345 5   
1346 4   
1347 89  
1348 6   
1349 2   
1350 4   
1351 9   
1352 3   
1353 88  
1354 7   
1355 83  
1356 1   
1357 9   
1358 5   
1359 2   
1360 6   
1361 2   
1362 3   
1363 92  
1364 4   
1365 8   
1366 8   
1367 2   
1368 8   
1369 2   
1370 4   
1371 1   
1372 7   
1373 1   
1374 8   
1375 10  
1376 3   
1377 6   
1378 3   
1379 68  
1380 9   
1381 58  
1382 5   
1383 4   
1384 82  
1385 65  
1386 5   
1387 86  
1388 8   
1389 10  
1390 76  
1391 8   
1392 1   
1393 67  
1394 3   
1395 4   
1396 80  
1397 9   
1398 6   
1399 9   
1400 3   
1401 6   
1402 9   
1403 7   
1404 4   
1405 4   
1406 4   
1407 7   
1408 4   
1409 10  
1410 64  
1411 79  
1412 2   
1413 61  
1414 2   
1415 7   
1416 8   
1417 2   
1418 2   
1419 2   
1420 79  
1421 2   
1422 10  
1423 60  
1424 9   
1425 7   
1426 6   
1427 2   
1428 5   
1429 2   
1430 3   
1431 3   
1432 8   
1433 2   
1434 4   
1435 1   
1436 8   
1437 6   
1438 88  
1439 89  
1440 10  
1441 1   
1442 8   
1443 4   
1444 8   
1445 5   
1446 76  
1447 8   
1448 6   
1449 2   
1450 10  
1451 10  
1452 9   
1453 8   
1454 88  
1455 2   
1456 4   
1457 10  
1458 8   
1459 1   
1460 4   
1461 8   
1462 9   
1463 4   
1464 100 
1465 5   
1466 5   
1467 5   
1468 1   
1469 6   
1470 90  
1471 6   
1472 8   
1473 4   
1474 1   
1475 8   
1476 76  
1477 66  
1478 5   
1479 4   
1480 8   
1481 4   
1482 10  
1483 10  
1484 8   
1485 5   
1486 6   
1487 5   
1488 4   
1489 7   
1490 8   
1491 9   
1492 9   
1493 1   
1494 10  
1495 3   
1496 10  
1497 10  
1498 5   
1499 6   
1500 9   
1501 7   
1502 7   
1503 82  
1504 3   
1505 9   
1506 1   
1507 91  
1508 62  
1509 9   
1510 2   
1511 10  
1512 7   
1513 5   
1514 2   
1515 1   
1516 90  
1517 9   
1518 8   
1519 3   
1520 10  
1521 10  
1522 4   
1523 4   
1524 6   
1525 6   
1526 10  
1527 9   
1528 3   
1529 8   
1530 2   
1531 75  
1532 89  
1533 4   
1534 8   
1535 66  
1536 4   
1537 8   
1538 6   
1539 3   
1540 1   
1541 9   
1542 5   
1543 9   
1544 2   
1545 69  
1546 84  
1547 8   
1548 7   
1549 8   
1550 2   
1551 5   
1552 1   
1553 3   
1554 2   
1555 73  
1556 7   
1557 3   
1558 98  
1559 7   
1560 10  
1561 7   
1562 9   
1563 76  
1564 93  
1565 4   
1566 3   
1567 83  
1568 10  
1569 5   
1570 9   
1571 8   
1572 9   
1573 1   
1574 9   
1575 9   
1576 9   
1577 2   
1578 3   
1579 10  
1580 81  
1581 1   
1582 10  
1583 1   
1584 6   
1585 1   
1586 1   
1587 5   
1588 6   
1589 53  
1590 8   
1591 9   
1592 3   
1593 1   
1594 3   
1595 9   
1596 82  
1597 1   
1598 7   
1599 1   
1600 5   
1601 9   
1602 4   
1603 4   
1604 6   
1605 3   
1606 9   
1607 6   
1608 5   
1609 10  
1610 3   
1611 7   
1612 88  
1613 67  
1614 9   
1615 6   
1616 65  
1617 7   
1618 3   
1619 79  
1620 64  
1621 3   
1622 7   
1623 4   
1624 7   
1625 97  
1626 1   
1627 2   
1628 3   
1629 8   
1630 4   
1631 6   
1632 3   
1633 10  
1634 1   
1635 10  
1636 2   
1637 9   
1638 8   
1639 9   
1640 7   
1641 10  
1642 9   
1643 8   
1644 7   
1645 2   
1646 7   
1647 9   
1648 3   
1649 78  
1650 5   
1651 3   
1652 1   
1653 10  
1654 8   
1655 1   
1656 58  
1657 4   
1658 1   
1659 72  
1660 75  
1661 10  
1662 7   
1663 3   
1664 98  
1665 1   
1666 2   
1667 6   
1668 3   
1669 2   
1670 9   
1671 73  
1672 50  
1673 1   
1674 5   
1675 8   
1676 59  
1677 10  
1678 3   
1679 4   
1680 6   
1681 4   
1682 4   
1683 7   
1684 10  
1685 10  
1686 2   
1687 61  
1688 8   
1689 6   
1690 6   
1691 3   
1692 5   
1693 1   
1694 99  
1695 61  
1696 1   
1697 1   
1698 8   
1699 2   
1700 10  
1701 8   
1702 4   
1703 4   
1704 5   
1705 8   
1706 1   
1707 3   
1708 7   
1709 10  
1710 99  
1711 4   
1712 2   
1713 10  
1714 10  
1715 3   
1716 3   
1717 3   
1718 8   
1719 10  
1720 7   
1721 5   
1722 10  
1723 8   
1724 4   
1725 7   
1726 56  
1727 7   
1728 5   
1729 8   
1730 5   
1731 4   
1732 97  
1733 3   
1734 9   
1735 95  
1736 1   
1737 71  
1738 1   
1739 66  
1740 1   
1741 10  
1742 4   
1743 1   
1744 9   
1745 6   
1746 4   
1747 6   
1748 7   
1749 4   
1750 66  
1751 2   
1752 10  
1753 5   
1754 5   
1755 62  
1756 10  
1757 3   
1758 5   
1759 64  
1760 9   
1761 5   
1762 2   
1763 64  
1764 3   
1765 84  
1766 1   
1767 4   
1768 1   
1769 80  
1770 100 
1771 6   
1772 8   
1773 1   
1774 1   
1775 1   
1776 10  
1777 4   
1778 2   
1779 3   
1780 2   
1781 7   
1782 6   
1783 9   
1784 9   
1785 4   
1786 8   
1787 6   
1788 7   
1789 6   
1790 1   
1791 1   
1792 2   
1793 5   
1794 73  
1795 8   
1796 67  
1797 8   
1798 8   
1799 86  
1800 4   
1801 8   
1802 9   
1803 4   
1804 4   
1805 7   
1806 78  
1807 8   
1808 10  
1809 7   
1810 89  
1811 9   
1812 9   
1813 8   
1814 6   
1815 1   
1816 55  
1817 8   
1818 1   
1819 4   
1820 1   
1821 73  
1822 8   
1823 2   
1824 7   
1825 7   
1826 3   
1827 55  
1828 1   
1829 50  
1830 65  
1831 8   
1832 3   
1833 2   
1834 6   
1835 5   
1836 1   
1837 3   
1838 51  
1839 2   
1840 5   
1841 4   
1842 4   
1843 8   
1844 4   
1845 91  
1846 10  
1847 10  
1848 2   
1849 73  
1850 73  
1851 5   
1852 10  
1853 3   
1854 8   
1855 2   
1856 98  
1857 10  
1858 71  
1859 53  
1860 1   
1861 4   
1862 10  
1863 2   
1864 8   
1865 77  
1866 10  
1867 9   
1868 6   
1869 8   
1870 2   
1871 2   
1872 8   
1873 6   
1874 6   
1875 77  
1876 10  
1877 51  
1878 2   
1879 5   
1880 1   
1881 3   
1882 2   
1883 5   
1884 4   
1885 9   
1886 10  
1887 96  
1888 9   
1889 1   
1890 61  
1891 6   
1892 8   
1893 10  
1894 4   
1895 6   
1896 10  
1897 87  
1898 9   
1899 4   
1900 54  
1901 6   
1902 6   
1903 4   
1904 4   
1905 9   
1906 54  
1907 65  
1908 92  
1909 95  
1910 7   
1911 10  
1912 10  
1913 6   
1914 9   
1915 4   
1916 6   
1917 9   
1918 1   
1919 58  
1920 7   
1921 90  
1922 70  
1923 2   
1924 3   
1925 2   
1926 1   
1927 2   
1928 9   
1929 60  
1930 3   
1931 7   
1932 6   
1933 1   
1934 5   
1935 1   
1936 9   
1937 84  
1938 5   
1939 7   
1940 1   
1941 1   
1942 9   
1943 9   
1944 3   
1945 4   
1946 1   
1947 8   
1948 1   
1949 10  
1950 8   
1951 5   
1952 2   
1953 9   
1954 7   
1955 96  
1956 4   
1957 5   
1958 7   
1959 5   
1960 98  
1961 3   
1962 63  
1963 71  
1964 4   
1965 2   
1966 1   
1967 68  
1968 2   
1969 10  
1970 56  
1971 2   
1972 7   
1973 6   
1974 3   
1975 2   
1976 6   
1977 2   
1978 8   
1979 7   
1980 64  
1981 4   
1982 4   
1983 10  
1984 6   
1985 3   
1986 7   
1987 8   
1988 98  
1989 7   
1990 3   
1991 3   
1992 7   
1993 1   
1994 83  
1995 7   
1996 10  
1997 9   
1998 58  
1999 9   
2000 6   
2001 10  
2002 3   
2003 3   
2004 4   
2005 7   
2006 5   
2007 9   
2008 3   
2009 90  
2010 79  
2011 3   
2012 1   
2013 1   
2014 83  
2015 7   
2016 1   
2017 3   
2018 8   
2019 5   
2020 79  
2021 73  
2022 10  
2023 1   
2024 3   
2025 10  
2026 9   
2027 4   
2028 10  
2029 10  
2030 2   
2031 60  
2032 4   
2033 81  
2034 93  
2035 2   
2036 4   
2037 76  
2038 5   
2039 3   
2040 4   
2041 7   
2042 8   
2043 10  
2044 3   
2045 3   
2046 10  
2047 7   
2048 10  
2049 8   
2050 5   
2051 99  
2052 72  
2053 9   
2054 2   
2055 3   
2056 9   
2057 8   
2058 3   
2059 6   
2060 6   
2061 7   
2062 3   
2063 2   
2064 1   
2065 9   
2066 4   
2067 6   
2068 2   
2069 8   
2070 4   
2071 3   
2072 99  
2073 9   
2074 66  
2075 54  
2076 4   
2077 1   
2078 7   
2079 59  
2080 6   
2081 3   
2082 81  
2083 1   
2084 71  
2085 7   
2086 4   
2087 9   
2088 4   
2089 10  
2090 79  
2091 81  
2092 5   
2093 5   
2094 4   
2095 4   
2096 5   
2097 5   
2098 10  
2099 96  
2100 88  
2101 2   
2102 96  
2103 1   
2104 97  
2105 5   
2106 5   
2107 7   
2108 1   
2109 6   
2110 5   
2111 9   
2112 80  
2113 1   
2114 77  
2115 1   
2116 79  
2117 7   
2118 6   
2119 9   
2120 2   
2121 10  
2122 6   
2123 10  
2124 2   
2125 85  
2126 4   
2127 9   
2128 5   
2129 6   
2130 5   
2131 10  
2132 6   
2133 79  
2134 7   
2135 8   
2136 10  
2137 8   
2138 3   
2139 3   
2140 56  
2141 8   
2142 72  
2143 50  
2144 9   
2145 4   
2146 1   
2147 6   
2148 2   
2149 2   
2150 8   
2151 61  
2152 2   
2153 7   
2154 91  
2155 9   
2156 6   
2157 65  
2158 72  
2159 1   
2160 2   
2161 6   
2162 2   
2163 3   
2164 1   
2165 7   
2166 4   
2167 8   
2168 1   
2169 4   
2170 5   
2171 9   
2172 55  
2173 9   
2174 1   
2175 6   
2176 2   
2177 4   
2178 4   
2179 6   
2180 3   
2181 59  
2182 10  
2183 6   
2184 1   
2185 8   
2186 5   
2187 7   
2188 9   
2189 8   
2190 81  
2191 75  
2192 2   
2193 2   
2194 88  
2195 4   
2196 6   
2197 3   
2198 6   
2199 7   
2200 4   
2201 2   
2202 4   
2203 81  
2204 5   
2205 7   
2206 63  
2207 3   
2208 4   
2209 10  
2210 6   
2211 7   
2212 10  
2213 6   
2214 6   
2215 54  
2216 6   
2217 5   
2218 3   
2219 10  
2220 6   
2221 70  
2222 4   
2223 83  
2224 6   
2225 3   
2226 10  
2227 10  
2228 7   
2229 7   
2230 92  
2231 4   
2232 1   
2233 1   
2234 1   
2235 96  
2236 7   
2237 10  
2238 6   
2239 6   
2240 10  
2241 10  
2242 5   
2243 1   
2244 2   
2245 7   
2246 5   
2247 3   
2248 6   
2249 70  
2250 65  
2251 1   
2252 8   
2253 5   
2254 3   
2255 10  
2256 4   
2257 10  
2258 3   
2259 1   
2260 10  
2261 2   
2262 2   
2263 5   
2264 8   
2265 1   
2266 10  
2267 3   
2268 6   
2269 5   
2270 4   
2271 79  
2272 81  
2273 3   
2274 4   
2275 4   
2276 1   
2277 70  
2278 2   
2279 3   
2280 2   
2281 85  
2282 10  
2283 96  
2284 3   
2285 92  
2286 9   
2287 4   
2288 93  
2289 1   
2290 1   
2291 1   
2292 90  
2293 9   
2294 7   
2295 9   
2296 2   
2297 2   
2298 83  
2299 2   
2300 70  
2301 8   
2302 2   
2303 6   
2304 1   
2305 2   
2306 1   
2307 1   
2308 94  
2309 5   
2310 5   
2311 72  
2312 5   
2313 9   
2314 9   
2315 3   
2316 7   
2317 8   
2318 8   
2319 4   
2320 6   
2321 2   
2322 2   
2323 1   
2324 61  
2325 7   
2326 1   
2327 2   
2328 4   
2329 4   
2330 1   
2331 9   
2332 5   
2333 4   
2334 64  
2335 5   
2336 2   
2337 6   
2338 2   
2339 4   
2340 7   
2341 61  
2342 1   
2343 8   
2344 5   
2345 3   
2346 2   
2347 92  
2348 76  
2349 3   
2350 86  
2351 3   
2352 5   
2353 3   
2354 8   
2355 86  
2356 98  
2357 8   
2358 70  
2359 9   
2360 1   
2361 6   
2362 2   
2363 10  
2364 6   
2365 9   
2366 3   
2367 9   
2368 2   
2369 7   
2370 8   
2371 4   
2372 2   
2373 8   
2374 74  
2375 9   
2376 55  
2377 3   
2378 3   
2379 3   
2380 63  
2381 1   
2382 1   
2383 10  
2384 3   
2385 10  
2386 6   
2387 5   
2388 85  
2389 50  
2390 3   
2391 1   
2392 5   
2393 1   
2394 9   
2395 2   
2396 1   
2397 2   
2398 1   
2399 9   
2400 1   
2401 85  
2402 5   
2403 61  
2404 7   
2405 5   
2406 50  
2407 4   
2408 4   
2409 10  
2410 6   
2411 3   
2412 8   
2413 8   
2414 9   
2415 6   
2416 4   
2417 1   
2418 1   
2419 10  
2420 4   
2421 9   
2422 91  
2423 2   
2424 4   
2425 6   
2426 5   
2427 3   
2428 69  
2429 69  
2430 5   
2431 2   
2432 3   
2433 7   
2434 1   
2435 68  
2436 7   
2437 87  
2438 5   
2439 73  
2440 93  
2441 57  
2442 5   
2443 9   
2444 3   
2445 57  
2446 95  
2447 6   
2448 6   
2449 1   
2450 57  
2451 9   
2452 4   
2453 9   
2454 9   
2455 5   
2456 53  
2457 1   
2458 76  
2459 8   
2460 7   
2461 2   
2462 5   
2463 96  
2464 8   
2465 3   
2466 4   
2467 85  
2468 6   
2469 3   
2470 7   
2471 5   
2472 8   
2473 1   
2474 1   
2475 1   
2476 3   
2477 61  
2478 9   
2479 2   
2480 10  
2481 5   
2482 9   
2483 73  
2484 100 
2485 2   
2486 10  
2487 59  
2488 70  
2489 3   
2490 10  
2491 1   
2492 68  
2493 7   
2494 6   
2495 1   
2496 7   
2497 10  
2498 65  
2499 3   
2500 2   
2501 1   
2502 5   
2503 5   
2504 3   
2505 8   
2506 10  
2507 9   
2508 1   
2509 7   
2510 78  
2511 7   
2512 9   
2513 9   
2514 62  
2515 79  
2516 3   
2517 2   
2518 1   
2519 92  
2520 8   
2521 69  
2522 1   
2523 77  
2524 6   
2525 3   
2526 7   
2527 53  
2528 63  
2529 10  
2530 66  
2531 4   
2532 3   
2533 81  
2534 7   
2535 8   
2536 6   
2537 53  
2538 9   
2539 72  
2540 7   
2541 10  
2542 8   
2543 10  
2544 3   
2545 10  
2546 67  
2547 5   
2548 2   
2549 69  
2550 10  
2551 3   
2552 5   
2553 1   
2554 2   
2555 81  
2556 93  
2557 75  
2558 4   
2559 90  
2560 4   
2561 2   
2562 2   
2563 2   
2564 4   
2565 9   
2566 7   
2567 7   
2568 2   
2569 9   
2570 10  
2571 7   
2572 8   
2573 9   
2574 8   
2575 7   
2576 6   
2577 50  
2578 9   
2579 3   
2580 78  
2581 59  
2582 3   
2583 5   
2584 3   
2585 94  
2586 69  
2587 7   
2588 10  
2589 2   
2590 7   
2591 7   
2592 7   
2593 1   
2594 9   
2595 2   
2596 7   
2597 8   
2598 8   
2599 1   
2600 2   
2601 4   
2602 7   
2603 100 
2604 81  
2605 10  
2606 96  
2607 8   
2608 6   
2609 83  
2610 8   
2611 5   
2612 7   
2613 7   
2614 10  
2615 95  
2616 60  
2617 7   
2618 4   
2619 6   
2620 3   
2621 2   
2622 6   
2623 10  
2624 9   
2625 10  
2626 85  
2627 94  
2628 2   
2629 2   
2630 5   
2631 83  
2632 9   
2633 3   
2634 9   
2635 4   
2636 4   
2637 10  
2638 1   
2639 3   
2640 3   
2641 5   
2642 6   
2643 1   
2644 1   
2645 99  
2646 5   
2647 3   
2648 7   
2649 3   
2650 93  
2651 4   
2652 2   
2653 52  
2654 7   
2655 10  
2656 7   
2657 3   
2658 5   
2659 7   
2660 4   
2661 5   
2662 4   
2663 5   
2664 5   
2665 75  
2666 2   
2667 1   
2668 62  
2669 61  
2670 9   
2671 1   
2672 1   
2673 9   
2674 7   
2675 4   
2676 1   
2677 81  
2678 7   
2679 77  
2680 3   
2681 6   
2682 7   
2683 9   
2684 9   
2685 4   
2686 5   
2687 8   
2688 5   
2689 3   
2690 6   
2691 1   
2692 5   
2693 1   
2694 9   
2695 2   
2696 4   
2697 3   
2698 98  
2699 2   
2700 9   
2701 2   
2702 1   
2703 9   
2704 10  
2705 4   
2706 9   
2707 53  
2708 7   
2709 5   
2710 5   
2711 97  
2712 2   
2713 79  
2714 2   
2715 1   
2716 6   
2717 6   
2718 9   
2719 7   
2720 9   
2721 7   
2722 9   
2723 2   
2724 5   
2725 3   
2726 5   
2727 8   
2728 2   
2729 7   
2730 2   
2731 7   
2732 1   
2733 5   
2734 10  
2735 4   
2736 4   
2737 9   
2738 62  
2739 1   
2740 7   
2741 1   
2742 8   
2743 7   
2744 75  
2745 5   
2746 54  
2747 10  
2748 8   
2749 9   
2750 9   
2751 5   
2752 9   
2753 80  
2754 94  
2755 6   
2756 85  
2757 3   
2758 9   
2759 65  
2760 7   
2761 6   
2762 97  
2763 2   
2764 7   
2765 2   
2766 5   
2767 10  
2768 2   
2769 4   
2770 7   
2771 9   
2772 4   
2773 8   
2774 4   
2775 7   
2776 6   
2777 8   
2778 10  
2779 3   
2780 5   
2781 2   
2782 9   
2783 80  
2784 3   
2785 4   
2786 9   
2787 8   
2788 10  
2789 9   
2790 71  
2791 9   
2792 3   
2793 6   
2794 1   
2795 7   
2796 10  
2797 9   
2798 2   
2799 10  
2800 10  
2801 8   
2802 7   
2803 4   
2804 4   
2805 4   
2806 3   
2807 9   
2808 6   
2809 6   
2810 6   
2811 2   
2812 8   
2813 6   
2814 1   
2815 10  
2816 4   
2817 10  
2818 59  
2819 7   
2820 5   
2821 4   
2822 1   
2823 9   
2824 5   
2825 56  
2826 5   
2827 94  
2828 1   
2829 77  
2830 5   
2831 5   
2832 9   
2833 94  
2834 6   
2835 8   
2836 9   
2837 10  
2838 89  
2839 9   
2840 100 
2841 8   
2842 80  
2843 6   
2844 9   
2845 3   
2846 7   
2847 78  
2848 5   
2849 4   
2850 3   
2851 9   
2852 2   
2853 6   
2854 1   
2855 3   
2856 4   
2857 95  
2858 66  
2859 7   
2860 9   
2861 5   
2862 10  
2863 10  
2864 7   
2865 1   
2866 9   
2867 6   
2868 69  
2869 1   
2870 2   
2871 5   
2872 3   
2873 7   
2874 8   
2875 9   
2876 2   
2877 4   
2878 1   
2879 66  
2880 60  
2881 9   
2882 83  
2883 4   
2884 3   
2885 7   
2886 9   
2887 10  
2888 64  
2889 76  
2890 83  
2891 1   
2892 6   
2893 60  
2894 2   
2895 2   
2896 6   
2897 8   
2898 5   
2899 10  
2900 8   
2901 3   
2902 2   
2903 1   
2904 7   
2905 7   
2906 7   
2907 5   
2908 7   
2909 9   
2910 5   
2911 4   
2912 6   
2913 6   
2914 8   
2915 5   
2916 8   
2917 9   
2918 7   
2919 7   
2920 6   
2921 4   
2922 8   
2923 7   
2924 75  
2925 9   
2926 7   
2927 5   
2928 6   
2929 6   
2930 9   
2931 9   
2932 3   
2933 8   
2934 8   
2935 1   
2936 9   
2937 6   
2938 78  
2939 8   
2940 7   
2941 2   
2942 4   
2943 9   
2944 3   
2945 73  
2946 9   
2947 6   
2948 91  
2949 63  
2950 2   
2951 3   
2952 5   
2953 6   
2954 64  
2955 9   
2956 5   
2957 3   
2958 8   
2959 8   
2960 72  
2961 5   
2962 9   
2963 1   
2964 9   
2965 8   
2966 1   
2967 10  
2968 89  
2969 1   
2970 3   
2971 9   
2972 9   
2973 10  
2974 1   
2975 3   
2976 1   
2977 6   
2978 7   
2979 6   
2980 66  
2981 8   
2982 4   
2983 6   
2984 2   
2985 1   
2986 4   
2987 10  
2988 4   
2989 54  
2990 4   
2991 2   
2992 76  
2993 72  
2994 7   
2995 7   
2996 3   
2997 5   
2998 2   
2999 9   
3000 1   
3001 3   
3002 7   
3003 95  
3004 4   
3005 98  
3006 5   
3007 7   
3008 5   
3009 6   
3010 77  
3011 8   
3012 5   
3013 6   
3014 3   
3015 9   
3016 7   
3017 9   
3018 4   
3019 68  
3020 1   
3021 1   
3022 8   
3023 10  
3024 8   
3025 5   
3026 3   
3027 3   
3028 4   
3029 58  
3030 9   
3031 10  
3032 4   
3033 5   
3034 9   
3035 99  
3036 1   
3037 1   
3038 6   
3039 2   
3040 1   
3041 3   
3042 1   
3043 83  
3044 1   
3045 5   
3046 77  
3047 6   
3048 9   
3049 72  
3050 66  
3051 72  
3052 9   
3053 2   
3054 54  
3055 10  
3056 10  
3057 10  
3058 4   
3059 10  
3060 4   
3061 56  
3062 6   
3063 3   
3064 9   
3065 6   
3066 56  
3067 7   
3068 2   
3069 1   
3070 3   
3071 94  
3072 5   
3073 2   
3074 5   
3075 85  
3076 4   
3077 55  
3078 1   
3079 3   
3080 57  
3081 78  
3082 1   
3083 7   
3084 7   
3085 69  
3086 8   
3087 3   
3088 4   
3089 5   
3090 3   
3091 9   
3092 3   
3093 83  
3094 53  
3095 10  
3096 3   
3097 7   
3098 9   
3099 7   
3100 4   
3101 2   
3102 7   
3103 6   
3104 84  
3105 1   
3106 8   
3107 3   
3108 7   
3109 99  
3110 9   
3111 3   
3112 6   
3113 2   
3114 6   
3115 5   
3116 91  
3117 7   
3118 2   
3119 1   
3120 6   
3121 7   
3122 4   
3123 2   
3124 7   
3125 67  
3126 10  
3127 5   
3128 2   
3129 8   
3130 5   
3131 2   
3132 91  
3133 2   
3134 4   
3135 2   
3136 2   
3137 95  
3138 10  
3139 1   
3140 61  
3141 9   
3142 2   
3143 8   
3144 9   
3145 97  
3146 92  
3147 72  
3148 2   
3149 10  
3150 9   
3151 5   
3152 7   
3153 98  
3154 10  
3155 10  
3156 5   
3157 6   
3158 5   
3159 90  
3160 6   
3161 6   
3162 6   
3163 2   
3164 10  
3165 9   
3166 7   
3167 10  
3168 7   
3169 71  
3170 5   
3171 3   
3172 9   
3173 9   
3174 9   
3175 7   
3176 9   
3177 86  
3178 4   
3179 3   
3180 7   
3181 2   
3182 1   
3183 7   
3184 1   
3185 70  
3186 66  
3187 4   
3188 84  
3189 3   
3190 10  
3191 97  
3192 4   
3193 10  
3194 7   
3195 3   
3196 8   
3197 10  
3198 8   
3199 7   
3200 5   
3201 4   
3202 6   
3203 6   
3204 2   
3205 4   
3206 1   
3207 9   
3208 10  
3209 3   
3210 7   
3211 5   
3212 4   
3213 3   
3214 1   
3215 6   
3216 9   
3217 3   
3218 1   
3219 6   
3220 1   
3221 6   
3222 9   
3223 3   
3224 7   
3225 7   
3226 10  
3227 1   
3228 3   
3229 5   
3230 9   
3231 6   
3232 2   
3233 1   
3234 76  
3235 100 
3236 6   
3237 8   
3238 3   
3239 95  
3240 5   
3241 8   
3242 100 
3243 8   
3244 63  
3245 9   
3246 4   
3247 8   
3248 6   
3249 4   
3250 2   
3251 7   
3252 1   
3253 2   
3254 2   
3255 2   
3256 9   
3257 3   
3258 4   
3259 1   
3260 7   
3261 8   
3262 4   
3263 98  
3264 6   
3265 1   
3266 9   
3267 4   
3268 6   
3269 10  
3270 77  
3271 78  
3272 98  
3273 1   
3274 8   
3275 10  
3276 1   
3277 1   
3278 10  
3279 5   
3280 3   
3281 92  
3282 10  
3283 8   
3284 4   
3285 3   
3286 3   
3287 8   
3288 2   
3289 3   
3290 6   
3291 2   
3292 64  
3293 5   
3294 5   
3295 8   
3296 3   
3297 70  
3298 5   
3299 89  
3300 3   
3301 10  
3302 1   
3303 1   
3304 2   
3305 4   
3306 5   
3307 6   
3308 4   
3309 82  
3310 10  
3311 7   
3312 3   
3313 7   
3314 2   
3315 1   
3316 6   
3317 6   
3318 59  
3319 85  
3320 10  
3321 2   
3322 2   
3323 4   
3324 64  
3325 9   
3326 1   
3327 2   
3328 77  
3329 9   
3330 4   
3331 5   
3332 93  
3333 2   
3334 9   
3335 51  
3336 3   
3337 5   
3338 2   
3339 8   
3340 1   
3341 10  
3342 5   
3343 9   
3344 99  
3345 3   
3346 8   
3347 8   
3348 5   
3349 1   
3350 7   
3351 4   
3352 4   
3353 4   
3354 10  
3355 3   
3356 4   
3357 76  
3358 3   
3359 5   
3360 3   
3361 5   
3362 6   
3363 2   
3364 4   
3365 10  
3366 9   
3367 10  
3368 6   
3369 95  
3370 6   
3371 6   
3372 7   
3373 3   
3374 6   
3375 6   
3376 4   
3377 1   
3378 5   
3379 10  
3380 10  
3381 10  
3382 4   
3383 9   
3384 9   
3385 94  
3386 58  
3387 6   
3388 7   
3389 10  
3390 6   
3391 10  
3392 3   
3393 5   
3394 62  
3395 7   
3396 10  
3397 10  
3398 4   
3399 4   
3400 3   
3401 5   
3402 9   
3403 2   
3404 1   
3405 56  
3406 8   
3407 81  
3408 7   
3409 7   
3410 92  
3411 3   
3412 4   
3413 1   
3414 4   
3415 5   
3416 3   
3417 3   
3418 99  
3419 6   
3420 1   
3421 3   
3422 88  
3423 80  
3424 6   
3425 6   
3426 51  
3427 1   
3428 64  
3429 5   
3430 91  
3431 1   
3432 62  
3433 1   
3434 1   
3435 74  
3436 1   
3437 10  
3438 8   
3439 10  
3440 4   
3441 4   
3442 96  
3443 6   
3444 8   
3445 3   
3446 10  
3447 5   
3448 10  
3449 7   
3450 7   
3451 4   
3452 9   
3453 52  
3454 5   
3455 4   
3456 6   
3457 51  
3458 1   
3459 4   
3460 54  
3461 10  
3462 10  
3463 10  
3464 9   
3465 9   
3466 96  
3467 3   
3468 65  
3469 10  
3470 2   
3471 10  
3472 10  
3473 97  
3474 6   
3475 9   
3476 8   
3477 75  
3478 8   
3479 2   
3480 73  
3481 5   
3482 4   
3483 8   
3484 2   
3485 7   
3486 78  
3487 73  
3488 54  
3489 69  
3490 3   
3491 9   
3492 9   
3493 63  
3494 7   
3495 10  
3496 52  
3497 4   
3498 5   
3499 8   
3500 9   
3501 5   
3502 5   
3503 8   
3504 8   
3505 4   
3506 74  
3507 8   
3508 1   
3509 6   
3510 4   
3511 5   
3512 8   
3513 3   
3514 70  
3515 6   
3516 2   
3517 5   
3518 2   
3519 2   
3520 69  
3521 65  
3522 1   
3523 1   
3524 53  
3525 7   
3526 1   
3527 9   
3528 4   
3529 6   
3530 71  
3531 10  
3532 7   
3533 84  
3534 10  
3535 88  
3536 10  
3537 7   
3538 7   
3539 1   
3540 1   
3541 10  
3542 8   
3543 5   
3544 4   
3545 8   
3546 5   
3547 6   
3548 9   
3549 9   
3550 5   
3551 7   
3552 3   
3553 2   
3554 75  
3555 77  
3556 10  
3557 92  
3558 10  
3559 8   
3560 10  
3561 7   
3562 8   
3563 5   
3564 1   
3565 4   
3566 5   
3567 4   
3568 2   
3569 3   
3570 91  
3571 5   
3572 2   
3573 3   
3574 78  
3575 3   
3576 3   
3577 5   
3578 7   
3579 3   
3580 4   
3581 2   
3582 4   
3583 6   
3584 6   
3585 7   
3586 82  
3587 5   
3588 6   
3589 91  
3590 5   
3591 6   
3592 9   
3593 2   
3594 74  
3595 74  
3596 9   
3597 1   
3598 3   
3599 4   
3600 79  
3601 5   
3602 2   
3603 2   
3604 9   
3605 5   
3606 78  
3607 6   
3608 64  
3609 1   
3610 8   
3611 8   
3612 7   
3613 9   
3614 7   
3615 76  
3616 2   
3617 51  
3618 4   
3619 7   
3620 7   
3621 7   
3622 4   
3623 4   
3624 62  
3625 7   
3626 8   
3627 63  
3628 9   
3629 6   
3630 9   
3631 71  
3632 10  
3633 1   
3634 5   
3635 4   
3636 1   
3637 1   
3638 8   
3639 10  
3640 91  
3641 2   
3642 1   
3643 81  
3644 2   
3645 2   
3646 10  
3647 87  
3648 97  
3649 8   
3650 9   
3651 6   
3652 9   
3653 3   
3654 76  
3655 5   
3656 4   
3657 3   
3658 7   
3659 6   
3660 57  
3661 10  
3662 3   
3663 8   
3664 2   
3665 66  
3666 10  
3667 2   
3668 7   
3669 90  
3670 2   
3671 80  
3672 6   
3673 9   
3674 1   
3675 7   
3676 64  
3677 7   
3678 8   
3679 2   
3680 1   
3681 10  
3682 2   
3683 4   
3684 4   
3685 8   
3686 64  
3687 10  
3688 5   
3689 2   
3690 2   
3691 6   
3692 10  
3693 4   
3694 74  
3695 2   
3696 1   
3697 2   
3698 7   
3699 70  
3700 2   
3701 5   
3702 6   
3703 10  
3704 1   
3705 58  
3706 1   
3707 1   
3708 1   
3709 2   
3710 1   
3711 7   
3712 9   
3713 2   
3714 85  
3715 5   
3716 6   
3717 3   
3718 4   
3719 3   
3720 96  
3721 5   
3722 10  
3723 6   
3724 3   
3725 6   
3726 9   
3727 80  
3728 6   
3729 10  
3730 10  
3731 7   
3732 8   
3733 1   
3734 6   
3735 95  
3736 6   
3737 7   
3738 3   
3739 6   
3740 5   
3741 10  
3742 76  
3743 7   
3744 5   
3745 9   
3746 6   
3747 10  
3748 6   
3749 8   
3750 1   
3751 8   
3752 5   
3753 59  
3754 3   
3755 2   
3756 58  
3757 2   
3758 3   
3759 60  
3760 7   
3761 69  
3762 5   
3763 3   
3764 3   
3765 87  
3766 73  
3767 84  
3768 90  
3769 94  
3770 2   
3771 1   
3772 10  
3773 4   
3774 6   
3775 5   
3776 3   
3777 6   
3778 10  
3779 7   
3780 10  
3781 59  
3782 1   
3783 9   
3784 3   
3785 51  
3786 9   
3787 97  
3788 2   
3789 3   
3790 3   
3791 92  
3792 95  
3793 76  
3794 7   
3795 96  
3796 3   
3797 2   
3798 8   
3799 8   
3800 80  
3801 10  
3802 3   
3803 5   
3804 8   
3805 87  
3806 94  
3807 63  
3808 3   
3809 1   
3810 4   
3811 3   
3812 95  
3813 7   
3814 6   
3815 3   
3816 10  
3817 1   
3818 3   
3819 78  
3820 8   
3821 10  
3822 1   
3823 7   
3824 6   
3825 10  
3826 9   
3827 5   
3828 3   
3829 4   
3830 9   
3831 8   
3832 81  
3833 1   
3834 55  
3835 5   
3836 10  
3837 3   
3838 6   
3839 7   
3840 2   
3841 5   
3842 77  
3843 4   
3844 1   
3845 84  
3846 3   
3847 3   
3848 6   
3849 3   
3850 9   
3851 7   
3852 8   
3853 10  
3854 91  
3855 10  
3856 5   
3857 50  
3858 4   
3859 2   
3860 97  
3861 1   
3862 5   
3863 9   
3864 91  
3865 96  
3866 3   
3867 2   
3868 5   
3869 96  
3870 9   
3871 6   
3872 5   
3873 82  
3874 3   
3875 4   
3876 9   
3877 9   
3878 1   
3879 72  
3880 10  
3881 7   
3882 76  
3883 2   
3884 4   
3885 7   
3886 6   
3887 5   
3888 68  
3889 93  
3890 10  
3891 1   
3892 9   
3893 2   
3894 73  
3895 1   
3896 2   
3897 9   
3898 3   
3899 7   
3900 2   
3901 63  
3902 81  
3903 2   
3904 10  
3905 2   
3906 6   
3907 3   
3908 1   
3909 90  
3910 4   
3911 10  
3912 4   
3913 93  
3914 3   
3915 10  
3916 4   
3917 1   
3918 63  
3919 9   
3920 8   
3921 1   
3922 10  
3923 1   
3924 61  
3925 5   
3926 7   
3927 10  
3928 5   
3929 73  
3930 9   
3931 4   
3932 9   
3933 4   
3934 4   
3935 83  
3936 3   
3937 3   
3938 5   
3939 9   
3940 10  
3941 8   
3942 3   
3943 64  
3944 82  
3945 5   
3946 99  
3947 10  
3948 70  
3949 5   
3950 54  
3951 63  
3952 10  
3953 3   
3954 56  
3955 7   
3956 9   
3957 1   
3958 2   
3959 2   
3960 5   
3961 5   
3962 6   
3963 96  
3964 4   
3965 1   
3966 8   
3967 8   
3968 51  
3969 7   
3970 9   
3971 3   
3972 8   
3973 1   
3974 5   
3975 50  
3976 7   
3977 6   
3978 7   
3979 5   
3980 9   
3981 84  
3982 4   
3983 7   
3984 4   
3985 1   
3986 2   
3987 9   
3988 7   
3989 6   
3990 9   
3991 4   
3992 8   
3993 73  
3994 89  
3995 6   
3996 72  
3997 4   
3998 5   
3999 8   
4000 81  
4001 8   
4002 4   
4003 9   
4004 3   
4005 3   
4006 10  
4007 10  
4008 7   
4009 89  
4010 2   
4011 9   
4012 3   
4013 6   
4014 4   
4015 9   
4016 10  
4017 6   
4018 4   
4019 7   
4020 72  
4021 10  
4022 2   
4023 7   
4024 80  
4025 4   
4026 10  
4027 1   
4028 9   
4029 2   
4030 1   
4031 9   
4032 9   
4033 6   
4034 8   
4035 67  
4036 62  
4037 10  
4038 1   
4039 7   
4040 5   
4041 10  
4042 3   
4043 4   
4044 7   
4045 73  
4046 10  
4047 9   
4048 96  
4049 10  
4050 7   
4051 2   
4052 57  
4053 95  
4054 5   
4055 6   
4056 3   
4057 1   
4058 6   
4059 8   
4060 10  
4061 3   
4062 9   
4063 92  
4064 10  
4065 7   
4066 8   
4067 6   
4068 1   
4069 1   
4070 6   
4071 2   
4072 68  
4073 6   
4074 89  
4075 4   
4076 7   
4077 9   
4078 70  
4079 3   
4080 3   
4081 89  
4082 5   
4083 2   
4084 6   
4085 4   
4086 7   
4087 100 
4088 6   
4089 6   
4090 1   
4091 10  
4092 5   
4093 6   
4094 76  
4095 93  
4096 7   
4097 2   
4098 1   
4099 58  
4100 8   
4101 8   
4102 3   
4103 3   
4104 97  
4105 89  
4106 7   
4107 65  
4108 2   
4109 97  
4110 7   
4111 2   
4112 2   
4113 9   
4114 10  
4115 70  
4116 7   
4117 8   
4118 7   
4119 4   
4120 8   
4121 6   
4122 10  
4123 1   
4124 2   
4125 9   
4126 10  
4127 7   
4128 5   
4129 70  
4130 6   
4131 9   
4132 95  
4133 5   
4134 6   
4135 2   
4136 3   
4137 1   
4138 86  
4139 5   
4140 3   
4141 54  
4142 5   
4143 2   
4144 7   
4145 1   
4146 9   
4147 4   
4148 2   
4149 89  
4150 93  
4151 3   
4152 6   
4153 2   
4154 6   
4155 61  
4156 5   
4157 2   
4158 99  
4159 98  
4160 1   
4161 7   
4162 9   
4163 10  
4164 4   
4165 7   
4166 7   
4167 5   
4168 5   
4169 8   
4170 2   
4171 2   
4172 9   
4173 1   
4174 5   
4175 3   
4176 62  
4177 7   
4178 8   
4179 5   
4180 7   
4181 8   
4182 1   
4183 8   
4184 7   
4185 81  
4186 10  
4187 87  
4188 1   
4189 3   
4190 5   
4191 76  
4192 5   
4193 9   
4194 3   
4195 91  
4196 93  
4197 1   
4198 7   
4199 8   
4200 4   
4201 8   
4202 2   
4203 7   
4204 7   
4205 2   
4206 10  
4207 8   
4208 99  
4209 1   
4210 3   
4211 1   
4212 4   
4213 9   
4214 1   
4215 6   
4216 3   
4217 83  
4218 5   
4219 5   
4220 6   
4221 3   
4222 9   
4223 2   
4224 1   
4225 5   
4226 3   
4227 8   
4228 3   
4229 1   
4230 6   
4231 6   
4232 5   
4233 2   
4234 7   
4235 4   
4236 2   
4237 8   
4238 3   
4239 53  
4240 51  
4241 5   
4242 3   
4243 71  
4244 81  
4245 10  
4246 3   
4247 8   
4248 2   
4249 2   
4250 10  
4251 4   
4252 1   
4253 4   
4254 8   
4255 4   
4256 10  
4257 2   
4258 7   
4259 76  
4260 8   
4261 9   
4262 5   
4263 90  
4264 2   
4265 3   
4266 66  
4267 4   
4268 6   
4269 53  
4270 7   
4271 10  
4272 76  
4273 6   
4274 7   
4275 3   
4276 5   
4277 1   
4278 4   
4279 3   
4280 2   
4281 1   
4282 1   
4283 4   
4284 100 
4285 4   
4286 87  
4287 2   
4288 5   
4289 4   
4290 4   
4291 98  
4292 5   
4293 3   
4294 53  
4295 94  
4296 4   
4297 4   
4298 4   
4299 5   
4300 3   
4301 66  
4302 1   
4303 10  
4304 86  
4305 3   
4306 7   
4307 7   
4308 2   
4309 3   
4310 82  
4311 84  
4312 7   
4313 96  
4314 79  
4315 4   
4316 2   
4317 5   
4318 4   
4319 8   
4320 6   
4321 2   
4322 8   
4323 9   
4324 10  
4325 92  
4326 4   
4327 3   
4328 8   
4329 5   
4330 61  
4331 99  
4332 10  
4333 2   
4334 4   
4335 5   
4336 9   
4337 10  
4338 91  
4339 1   
4340 2   
4341 2   
4342 7   
4343 6   
4344 10  
4345 7   
4346 6   
4347 62  
4348 56  
4349 1   
4350 2   
4351 8   
4352 4   
4353 3   
4354 3   
4355 5   
4356 6   
4357 10  
4358 9   
4359 3   
4360 9   
4361 1   
4362 1   
4363 2   
4364 9   
4365 65  
4366 8   
4367 6   
4368 71  
4369 3   
4370 1   
4371 4   
4372 8   
4373 7   
4374 9   
4375 85  
4376 7   
4377 9   
4378 9   
4379 1   
4380 3   
4381 91  
4382 4   
4383 8   
4384 6   
4385 4   
4386 3   
4387 5   
4388 82  
4389 1   
4390 1   
4391 5   
4392 10  
4393 2   
4394 3   
4395 9   
4396 7   
4397 5   
4398 8   
4399 94  
4400 8   
4401 7   
4402 5   
4403 4   
4404 9   
4405 1   
4406 8   
4407 3   
4408 2   
4409 8   
4410 10  
4411 1   
4412 4   
4413 7   
4414 4   
4415 7   
4416 3   
4417 7   
4418 8   
4419 3   
4420 9   
4421 6   
4422 6   
4423 8   
4424 5   
4425 76  
4426 2   
4427 8   
4428 4   
4429 64  
4430 4   
4431 6   
4432 6   
4433 9   
4434 1   
4435 6   
4436 8   
4437 9   
4438 2   
4439 1   
4440 3   
4441 8   
4442 3   
4443 4   
4444 53  
4445 3   
4446 4   
4447 68  
4448 10  
4449 7   
4450 4   
4451 3   
4452 5   
4453 9   
4454 9   
4455 7   
4456 72  
4457 6   
4458 83  
4459 1   
4460 8   
4461 93  
4462 8   
4463 9   
4464 9   
4465 7   
4466 5   
4467 6   
4468 10  
4469 5   
4470 5   
4471 88  
4472 7   
4473 2   
4474 79  
4475 1   
4476 7   
4477 4   
4478 8   
4479 8   
4480 5   
4481 70  
4482 10  
4483 3   
4484 59  
4485 8   
4486 85  
4487 3   
4488 1   
4489 8   
4490 2   
4491 8   
4492 5   
4493 7   
4494 3   
4495 9   
4496 5   
4497 7   
4498 84  
4499 10  
4500 3   
4501 74  
4502 2   
4503 1   
4504 5   
4505 3   
4506 2   
4507 6   
4508 2   
4509 2   
4510 1   
4511 2   
4512 7   
4513 4   
4514 5   
4515 4   
4516 4   
4517 9   
4518 1   
4519 10  
4520 95  
4521 2   
4522 2   
4523 3   
4524 8   
4525 4   
4526 1   
4527 3   
4528 6   
4529 2   
4530 1   
4531 10  
4532 89  
4533 4   
4534 80  
4535 5   
4536 97  
4537 2   
4538 9   
4539 7   
4540 3   
4541 1   
4542 10  
4543 1   
4544 5   
4545 9   
4546 3   
4547 4   
4548 4   
4549 10  
4550 4   
4551 9   
4552 4   
4553 8   
4554 7   
4555 2   
4556 81  
4557 6   
4558 3   
4559 7   
4560 10  
4561 9   
4562 2   
4563 5   
4564 5   
4565 3   
4566 6   
4567 61  
4568 7   
4569 2   
4570 1   
4571 4   
4572 5   
4573 3   
4574 1   
4575 10  
4576 6   
4577 7   
4578 6   
4579 1   
4580 8   
4581 82  
4582 5   
4583 1   
4584 1   
4585 3   
4586 6   
4587 5   
4588 73  
4589 60  
4590 10  
4591 10  
4592 6   
4593 5   
4594 6   
4595 3   
4596 72  
4597 10  
4598 56  
4599 3   
4600 85  
4601 3   
4602 1   
4603 54  
4604 9   
4605 4   
4606 2   
4607 6   
4608 1   
4609 9   
4610 79  
4611 6   
4612 7   
4613 5   
4614 8   
4615 2   
4616 4   
4617 5   
4618 3   
4619 5   
4620 98  
4621 54  
4622 2   
4623 10  
4624 7   
4625 3   
4626 5   
4627 3   
4628 2   
4629 5   
4630 65  
4631 9   
4632 5   
4633 2   
4634 1   
4635 68  
4636 9   
4637 81  
4638 7   
4639 6   
4640 9   
4641 9   
4642 4   
4643 7   
4644 6   
4645 4   
4646 10  
4647 5   
4648 6   
4649 10  
4650 5   
4651 7   
4652 2   
4653 2   
4654 5   
4655 57  
4656 9   
4657 6   
4658 7   
4659 4   
4660 8   
4661 7   
4662 2   
4663 8   
4664 10  
4665 3   
4666 10  
4667 5   
4668 7   
4669 3   
4670 60  
4671 6   
4672 7   
4673 7   
4674 3   
4675 10  
4676 6   
4677 9   
4678 8   
4679 2   
4680 4   
4681 3   
4682 3   
4683 5   
4684 83  
4685 82  
4686 6   
4687 10  
4688 88  
4689 1   
4690 5   
4691 87  
4692 3   
4693 2   
4694 8   
4695 5   
4696 75  
4697 5   
4698 10  
4699 7   
4700 3   
4701 83  
4702 70  
4703 3   
4704 4   
4705 6   
4706 9   
4707 7   
4708 6   
4709 2   
4710 90  
4711 10  
4712 8   
4713 4   
4714 8   
4715 9   
4716 3   
4717 3   
4718 2   
4719 2   
4720 5   
4721 6   
4722 7   
4723 2   
4724 10  
4725 1   
4726 96  
4727 7   
4728 9   
4729 5   
4730 9   
4731 51  
4732 6   
4733 7   
4734 4   
4735 53  
4736 8   
4737 62  
4738 3   
4739 3   
4740 9   
4741 4   
4742 7   
4743 7   
4744 4   
4745 10  
4746 99  
4747 2   
4748 7   
4749 68  
4750 9   
4751 71  
4752 1   
4753 7   
4754 6   
4755 98  
4756 4   
4757 67  
4758 6   
4759 9   
4760 10  
4761 60  
4762 79  
4763 3   
4764 10  
4765 7   
4766 8   
4767 54  
4768 8   
4769 10  
4770 4   
4771 10  
4772 6   
4773 67  
4774 5   
4775 5   
4776 5   
4777 5   
4778 6   
4779 6   
4780 7   
4781 10  
4782 89  
4783 2   
4784 83  
4785 7   
4786 5   
4787 2   
4788 97  
4789 1   
4790 3   
4791 7   
4792 8   
4793 52  
4794 6   
4795 9   
4796 4   
4797 5   
4798 3   
4799 2   
4800 4   
4801 10  
4802 5   
4803 2   
4804 3   
4805 77  
4806 8   
4807 5   
4808 76  
4809 6   
4810 2   
4811 10  
4812 82  
4813 7   
4814 6   
4815 10  
4816 7   
4817 3   
4818 9   
4819 3   
4820 3   
4821 9   
4822 8   
4823 3   
4824 7   
4825 87  
4826 64  
4827 3   
4828 8   
4829 7   
4830 69  
4831 1   
4832 2   
4833 1   
4834 84  
4835 5   
4836 5   
4837 99  
4838 3   
4839 10  
4840 8   
4841 59  
4842 7   
4843 99  
4844 8   
4845 5   
4846 4   
4847 90  
4848 7   
4849 8   
4850 51  
4851 83  
4852 3   
4853 6   
4854 9   
4855 10  
4856 88  
4857 7   
4858 67  
4859 84  
4860 9   
4861 1   
4862 69  
4863 1   
4864 9   
4865 1   
4866 10  
4867 7   
4868 6   
4869 6   
4870 65  
4871 68  
4872 6   
4873 4   
4874 5   
4875 95  
4876 7   
4877 7   
4878 84  
4879 4   
4880 9   
4881 3   
4882 9   
4883 6   
4884 75  
4885 3   
4886 5   
4887 4   
4888 9   
4889 91  
4890 2   
4891 5   
4892 5   
4893 2   
4894 10  
4895 5   
4896 9   
4897 7   
4898 10  
4899 6   
4900 7   
4901 1   
4902 6   
4903 92  
4904 7   
4905 10  
4906 10  
4907 3   
4908 91  
4909 77  
4910 92  
4911 10  
4912 2   
4913 64  
4914 7   
4915 7   
4916 5   
4917 96  
4918 5   
4919 96  
4920 1   
4921 10  
4922 8   
4923 9   
4924 6   
4925 72  
4926 3   
4927 72  
4928 71  
4929 9   
4930 6   
4931 10  
4932 5   
4933 3   
4934 84  
4935 4   
4936 6   
4937 9   
4938 3   
4939 61  
4940 7   
4941 6   
4942 2   
4943 66  
4944 1   
4945 2   
4946 96  
4947 8   
4948 76  
4949 85  
4950 1   
4951 6   
4952 71  
4953 2   
4954 6   
4955 10  
4956 4   
4957 7   
4958 8   
4959 7   
4960 10  
4961 6   
4962 4   
4963 5   
4964 9   
4965 7   
4966 3   
4967 6   
4968 9   
4969 7   
4970 83  
4971 7   
4972 10  
4973 4   
4974 98  
4975 4   
4976 1   
4977 4   
4978 1   
4979 9   
4980 91  
4981 2   
4982 97  
4983 67  
4984 7   
4985 3   
4986 86  
4987 7   
4988 77  
4989 8   
4990 8   
4991 88  
4992 4   
4993 8   
4994 7   
4995 8   
4996 1   
4997 71  
4998 4   
4999 10  
5000 79  
5001 1   
5002 4   
5003 10  
5004 3   
5005 9   
5006 8   
5007 10  
5008 2   
5009 3   
5010 2   
5011 9   
5012 4   
5013 10  
5014 6   
5015 2   
5016 2   
5017 56  
5018 4   
5019 60  
5020 9   
5021 10  
5022 4   
5023 1   
5024 5   
5025 8   
5026 9   
5027 6   
5028 93  
5029 6   
5030 57  
5031 9   
5032 8   
5033 2   
5034 7   
5035 1   
5036 5   
5037 87  
5038 6   
5039 7   
5040 4   
5041 4   
5042 2   
5043 9   
5044 58  
5045 4   
5046 7   
5047 90  
5048 6   
5049 100 
5050 4   
5051 3   
5052 1   
5053 7   
5054 7   
5055 7   
5056 7   
5057 87  
5058 10  
5059 66  
5060 3   
5061 3   
5062 5   
5063 7   
5064 88  
5065 3   
5066 5   
5067 2   
5068 5   
5069 3   
5070 8   
5071 8   
5072 6   
5073 6   
5074 5   
5075 1   
5076 2   
5077 6   
5078 9   
5079 79  
5080 6   
5081 1   
5082 7   
5083 51  
5084 2   
5085 4   
5086 10  
5087 9   
5088 6   
5089 6   
5090 7   
5091 8   
5092 3   
5093 8   
5094 7   
5095 8   
5096 83  
5097 2   
5098 2   
5099 93  
5100 8   
5101 56  
5102 7   
5103 6   
5104 2   
5105 86  
5106 8   
5107 100 
5108 7   
5109 10  
5110 7   
5111 2   
5112 96  
5113 10  
5114 9   
5115 2   
5116 2   
5117 2   
5118 88  
5119 5   
5120 83  
5121 10  
5122 1   
5123 5   
5124 6   
5125 81  
5126 8   
5127 9   
5128 9   
5129 2   
5130 3   
5131 2   
5132 10  
5133 8   
5134 1   
5135 2   
5136 6   
5137 5   
5138 7   
5139 94  
5140 8   
5141 9   
5142 10  
5143 1   
5144 5   
5145 2   
5146 9   
5147 8   
5148 8   
5149 2   
5150 7   
5151 5   
5152 3   
5153 1   
5154 52  
5155 4   
5156 5   
5157 8   
5158 65  
5159 59  
5160 71  
5161 10  
5162 3   
5163 99  
5164 90  
5165 6   
5166 4   
5167 2   
5168 6   
5169 7   
5170 1   
5171 10  
5172 80  
5173 56  
5174 2   
5175 3   
5176 4   
5177 3   
5178 4   
5179 5   
5180 82  
5181 51  
5182 62  
5183 55  
5184 10  
5185 7   
5186 5   
5187 70  
5188 4   
5189 4   
5190 4   
5191 9   
5192 4   
5193 8   
5194 7   
5195 10  
5196 1   
5197 8   
5198 61  
5199 2   
5200 57  
5201 6   
5202 9   
5203 4   
5204 7   
5205 6   
5206 8   
5207 6   
5208 9   
5209 96  
5210 3   
5211 8   
5212 66  
5213 2   
5214 1   
5215 1   
5216 10  
5217 8   
5218 4   
5219 4   
5220 9   
5221 8   
5222 2   
5223 6   
5224 1   
5225 2   
5226 1   
5227 7   
5228 6   
5229 7   
5230 8   
5231 94  
5232 9   
5233 10  
5234 5   
5235 2   
5236 1   
5237 7   
5238 50  
5239 9   
5240 4   
5241 6   
5242 4   
5243 4   
5244 56  
5245 1   
5246 3   
5247 53  
5248 6   
5249 5   
5250 84  
5251 2   
5252 7   
5253 2   
5254 2   
5255 65  
5256 9   
5257 84  
5258 7   
5259 81  
5260 5   
5261 7   
5262 4   
5263 2   
5264 73  
5265 3   
5266 4   
5267 3   
5268 56  
5269 9   
5270 3   
5271 4   
5272 81  
5273 10  
5274 67  
5275 3   
5276 8   
5277 5   
5278 8   
5279 3   
5280 3   
5281 55  
5282 9   
5283 10  
5284 1   
5285 5   
5286 8   
5287 4   
5288 67  
5289 64  
5290 4   
5291 7   
5292 7   
5293 60  
5294 3   
5295 1   
5296 6   
5297 5   
5298 2   
5299 3   
5300 7   
5301 4   
5302 5   
5303 77  
5304 3   
5305 5   
5306 1   
5307 2   
5308 4   
5309 6   
5310 10  
5311 9   
5312 6   
5313 3   
5314 50  
5315 9   
5316 5   
5317 7   
5318 1   
5319 1   
5320 6   
5321 2   
5322 1   
5323 9   
5324 61  
5325 5   
5326 10  
5327 81  
5328 7   
5329 8   
5330 4   
5331 4   
5332 98  
5333 5   
5334 4   
5335 7   
5336 4   
5337 6   
5338 6   
5339 7   
5340 7   
5341 8   
5342 10  
5343 3   
5344 87  
5345 1   
5346 7   
5347 1   
5348 10  
5349 6   
5350 2   
5351 8   
5352 5   
5353 10  
5354 4   
5355 78  
5356 5   
5357 71  
5358 6   
5359 3   
5360 5   
5361 93  
5362 9   
5363 9   
5364 7   
5365 7   
5366 65  
5367 2   
5368 9   
5369 7   
5370 4   
5371 5   
5372 69  
5373 51  
5374 7   
5375 1   
5376 7   
5377 9   
5378 3   
5379 8   
5380 1   
5381 10  
5382 10  
5383 7   
5384 81  
5385 3   
5386 89  
5387 8   
5388 1   
5389 10  
5390 1   
5391 9   
5392 2   
5393 8   
5394 9   
5395 3   
5396 88  
5397 8   
5398 8   
5399 7   
5400 65  
5401 8   
5402 7   
5403 71  
5404 8   
5405 3   
5406 4   
5407 63  
5408 7   
5409 73  
5410 2   
5411 94  
5412 2   
5413 1   
5414 70  
5415 6   
5416 7   
5417 2   
5418 1   
5419 6   
5420 6   
5421 9   
5422 85  
5423 9   
5424 1   
5425 8   
5426 9   
5427 2   
5428 1   
5429 5   
5430 1   
5431 1   
5432 5   
5433 9   
5434 75  
5435 2   
5436 2   
5437 64  
5438 6   
5439 10  
5440 7   
5441 7   
5442 2   
5443 2   
5444 1   
5445 3   
5446 2   
5447 1   
5448 4   
5449 7   
5450 8   
5451 6   
5452 5   
5453 7   
5454 7   
5455 10  
5456 10  
5457 68  
5458 99  
5459 8   
5460 8   
5461 9   
5462 5   
5463 5   
5464 7   
5465 9   
5466 2   
5467 2   
5468 7   
5469 7   
5470 66  
5471 90  
5472 2   
5473 100 
5474 7   
5475 1   
5476 5   
5477 9   
5478 4   
5479 10  
5480 9   
5481 5   
5482 5   
5483 5   
5484 7   
5485 6   
5486 1   
5487 3   
5488 2   
5489 5   
5490 3   
5491 3   
5492 7   
5493 77  
5494 10  
5495 4   
5496 59  
5497 3   
5498 10  
5499 8   
5500 8   
5501 10  
5502 65  
5503 2   
5504 10  
5505 1   
5506 10  
5507 2   
5508 6   
5509 2   
5510 1   
5511 1   
5512 63  
5513 1   
5514 8   
5515 6   
5516 5   
5517 77  
5518 63  
5519 4   
5520 2   
5521 53  
5522 5   
5523 2   
5524 8   
5525 7   
5526 7   
5527 7   
5528 1   
5529 5   
5530 8   
5531 10  
5532 7   
5533 87  
5534 8   
5535 5   
5536 4   
5537 10  
5538 7   
5539 8   
5540 5   
5541 3   
5542 7   
5543 6   
5544 95  
5545 65  
5546 2   
5547 3   
5548 9   
5549 4   
5550 6   
5551 91  
5552 1   
5553 10  
5554 74  
5555 60  
5556 9   
5557 3   
5558 50  
5559 6   
5560 6   
5561 1   
5562 7   
5563 2   
5564 79  
5565 10  
5566 9   
5567 1   
5568 3   
5569 100 
5570 9   
5571 8   
5572 8   
5573 93  
5574 5   
5575 6   
5576 3   
5577 6   
5578 10  
5579 5   
5580 1   
5581 89  
5582 97  
5583 4   
5584 9   
5585 3   
5586 8   
5587 6   
5588 4   
5589 5   
5590 8   
5591 6   
5592 6   
5593 96  
5594 8   
5595 50  
5596 2   
5597 10  
5598 5   
5599 96  
5600 9   
5601 5   
5602 84  
5603 9   
5604 8   
5605 94  
5606 8   
5607 6   
5608 10  
5609 71  
5610 4   
5611 7   
5612 5   
5613 65  
5614 8   
5615 8   
5616 6   
5617 97  
5618 10  
5619 2   
5620 10  
5621 3   
5622 5   
5623 10  
5624 8   
5625 10  
5626 2   
5627 81  
5628 7   
5629 7   
5630 6   
5631 10  
5632 5   
5633 6   
5634 9   
5635 9   
5636 3   
5637 1   
5638 1   
5639 5   
5640 55  
5641 5   
5642 6   
5643 2   
5644 4   
5645 5   
5646 8   
5647 1   
5648 2   
5649 3   
5650 10  
5651 1   
5652 6   
5653 5   
5654 4   
5655 5   
5656 3   
5657 5   
5658 5   
5659 5   
5660 79  
5661 4   
5662 2   
5663 10  
5664 63  
5665 3   
5666 10  
5667 2   
5668 2   
5669 6   
5670 10  
5671 6   
5672 63  
5673 2   
5674 7   
5675 91  
5676 7   
5677 8   
5678 9   
5679 62  
5680 4   
5681 7   
5682 8   
5683 1   
5684 8   
5685 6   
5686 8   
5687 10  
5688 4   
5689 5   
5690 68  
5691 80  
5692 4   
5693 5   
5694 1   
5695 1   
5696 95  
5697 1   
5698 10  
5699 77  
5700 7   
5701 7   
5702 8   
5703 1   
5704 84  
5705 10  
5706 10  
5707 54  
5708 2   
5709 5   
5710 9   
5711 7   
5712 85  
5713 7   
5714 9   
5715 6   
5716 54  
5717 7   
5718 7   
5719 7   
5720 10  
5721 6   
5722 9   
5723 2   
5724 8   
5725 1   
5726 81  
5727 2   
5728 75  
5729 10  
5730 2   
5731 10  
5732 8   
5733 5   
5734 5   
5735 6   
5736 4   
5737 50  
5738 74  
5739 5   
5740 53  
5741 5   
5742 4   
5743 3   
5744 9   
5745 4   
5746 4   
5747 8   
5748 5   
5749 6   
5750 2   
5751 6   
5752 5   
5753 10  
5754 73  
5755 2   
5756 8   
5757 8   
5758 2   
5759 9   
5760 8   
5761 5   
5762 10  
5763 58  
5764 8   
5765 10  
5766 3   
5767 8   
5768 6   
5769 78  
5770 4   
5771 7   
5772 10  
5773 5   
5774 99  
5775 3   
5776 10  
5777 8   
5778 5   
5779 82  
5780 1   
5781 5   
5782 8   
5783 93  
5784 9   
5785 8   
5786 3   
5787 1   
5788 1   
5789 1   
5790 7   
5791 7   
5792 5   
5793 7   
5794 10  
5795 6   
5796 9   
5797 65  
5798 80  
5799 6   
5800 3   
5801 4   
5802 81  
5803 2   
5804 5   
5805 3   
5806 2   
5807 3   
5808 71  
5809 8   
5810 81  
5811 78  
5812 1   
5813 10  
5814 5   
5815 3   
5816 6   
5817 1   
5818 8   
5819 2   
5820 2   
5821 9   
5822 5   
5823 91  
5824 2   
5825 64  
5826 2   
5827 8   
5828 77  
5829 8   
5830 1   
5831 7   
5832 6   
5833 3   
5834 2   
5835 52  
5836 3   
5837 7   
5838 5   
5839 8   
5840 4   
5841 7   
5842 4   
5843 86  
5844 7   
5845 10  
5846 4   
5847 5   
5848 9   
5849 2   
5850 73  
5851 96  
5852 4   
5853 9   
5854 3   
5855 3   
5856 2   
5857 1   
5858 10  
5859 8   
5860 10  
5861 7   
5862 9   
5863 87  
5864 3   
5865 7   
5866 2   
5867 55  
5868 1   
5869 10  
5870 3   
5871 6   
5872 4   
5873 10  
5874 10  
5875 1   
5876 10  
5877 9   
5878 6   
5879 50  
5880 10  
5881 5   
5882 6   
5883 75  
5884 4   
5885 5   
5886 1   
5887 4   
5888 5   
5889 2   
5890 3   
5891 7   
5892 51  
5893 10  
5894 70  
5895 5   
5896 72  
5897 1   
5898 5   
5899 61  
5900 53  
5901 7   
5902 7   
5903 8   
5904 2   
5905 77  
5906 4   
5907 1   
5908 1   
5909 6   
5910 2   
5911 5   
5912 2   
5913 5   
5914 1   
5915 4   
5916 9   
5917 91  
5918 2   
5919 10  
5920 85  
5921 6   
5922 1   
5923 7   
5924 9   
5925 6   
5926 80  
5927 99  
5928 5   
5929 3   
5930 7   
5931 7   
5932 10  
5933 89  
5934 6   
5935 5   
5936 8   
5937 62  
5938 2   
5939 1   
5940 9   
5941 4   
5942 8   
5943 4   
5944 9   
5945 98  
5946 8   
5947 88  
5948 79  
5949 2   
5950 76  
5951 9   
5952 10  
5953 5   
5954 9   
5955 3   
5956 3   
5957 6   
5958 87  
5959 2   
5960 3   
5961 7   
5962 9   
5963 79  
5964 10  
5965 4   
5966 7   
5967 10  
5968 4   
5969 10  
5970 6   
5971 94  
5972 87  
5973 10  
5974 10  
5975 8   
5976 6   
5977 8   
5978 5   
5979 5   
5980 10  
5981 4   
5982 4   
5983 6   
5984 4   
5985 6   
5986 4   
5987 4   
5988 68  
5989 1   
5990 5   
5991 4   
5992 100 
5993 2   
5994 10  
5995 7   
5996 2   
5997 3   
5998 5   
5999 10  
6000 71  
6001 10  
6002 7   
6003 6   
6004 2   
6005 80  
6006 7   
6007 8   
6008 4   
6009 5   
6010 2   
6011 2   
6012 63  
6013 10  
6014 7   
6015 8   
6016 4   
6017 4   
6018 3   
6019 7   
6020 51  
6021 94  
6022 10  
6023 5   
6024 3   
6025 5   
6026 6   
6027 1   
6028 3   
6029 7   
6030 5   
6031 10  
6032 6   
6033 3   
6034 6   
6035 8   
6036 4   
6037 6   
6038 2   
6039 10  
6040 86  
6041 1   
6042 7   
6043 3   
6044 96  
6045 53  
6046 9   
6047 4   
6048 5   
6049 9   
6050 7   
6051 1   
6052 10  
6053 9   
6054 3   
6055 5   
6056 6   
6057 7   
6058 3   
6059 81  
6060 4   
6061 7   
6062 88  
6063 1   
6064 7   
6065 7   
6066 76  
6067 1   
6068 2   
6069 8   
6070 7   
6071 3   
6072 7   
6073 8   
6074 9   
6075 1   
6076 10  
6077 3   
6078 8   
6079 4   
6080 2   
6081 7   
6082 2   
6083 99  
6084 3   
6085 61  
6086 9   
6087 5   
6088 3   
6089 4   
6090 3   
6091 4   
6092 5   
6093 5   
6094 10  
6095 78  
6096 6   
6097 2   
6098 4   
6099 83  
6100 62  
6101 9   
6102 63  
6103 7   
6104 10  
6105 10  
6106 6   
6107 58  
6108 64  
6109 9   
6110 54  
6111 2   
6112 7   
6113 9   
6114 5   
6115 1   
6116 10  
6117 4   
6118 4   
6119 5   
6120 8   
6121 8   
6122 97  
6123 9   
6124 10  
6125 9   
6126 10  
6127 10  
6128 65  
6129 4   
6130 86  
6131 8   
6132 75  
6133 7   
6134 5   
6135 1   
6136 2   
6137 3   
6138 3   
6139 84  
6140 61  
6141 73  
6142 1   
6143 10  
6144 5   
6145 7   
6146 3   
6147 8   
6148 5   
6149 10  
6150 9   
6151 6   
6152 3   
6153 4   
6154 2   
6155 3   
6156 3   
6157 57  
6158 2   
6159 4   
6160 3   
6161 8   
6162 9   
6163 1   
6164 2   
6165 10  
6166 7   
6167 8   
6168 4   
6169 3   
6170 55  
6171 4   
6172 9   
6173 4   
6174 50  
6175 4   
6176 76  
6177 1   
6178 100 
6179 6   
6180 8   
6181 2   
6182 79  
6183 6   
6184 61  
6185 6   
6186 5   
6187 10  
6188 2   
6189 10  
6190 2   
6191 72  
6192 1   
6193 9   
6194 80  
6195 5   
6196 94  
6197 96  
6198 78  
6199 9   
6200 1   
6201 4   
6202 6   
6203 55  
6204 10  
6205 6   
6206 3   
6207 6   
6208 9   
6209 6   
6210 4   
6211 10  
6212 7   
6213 61  
6214 1   
6215 72  
6216 5   
6217 9   
6218 4   
6219 10  
6220 96  
6221 6   
6222 59  
6223 6   
6224 4   
6225 8   
6226 6   
6227 8   
6228 7   
6229 70  
6230 3   
6231 10  
6232 6   
6233 10  
6234 9   
6235 2   
6236 5   
6237 72  
6238 5   
6239 10  
6240 9   
6241 8   
6242 4   
6243 8   
6244 7   
6245 9   
6246 10  
6247 6   
6248 2   
6249 10  
6250 77  
6251 10  
6252 2   
6253 91  
6254 8   
6255 6   
6256 7   
6257 5   
6258 62  
6259 6   
6260 5   
6261 4   
6262 1   
6263 7   
6264 4   
6265 5   
6266 10  
6267 5   
6268 4   
6269 9   
6270 74  
6271 63  
6272 2   
6273 10  
6274 10  
6275 2   
6276 10  
6277 3   
6278 8   
6279 77  
6280 2   
6281 8   
6282 3   
6283 6   
6284 3   
6285 2   
6286 5   
6287 8   
6288 9   
6289 80  
6290 62  
6291 5   
6292 9   
6293 9   
6294 5   
6295 5   
6296 6   
6297 5   
6298 3   
6299 88  
6300 5   
6301 1   
6302 5   
6303 10  
6304 8   
6305 53  
6306 2   
6307 2   
6308 9   
6309 95  
6310 1   
6311 5   
6312 6   
6313 6   
6314 6   
6315 100 
6316 2   
6317 5   
6318 10  
6319 6   
6320 1   
6321 7   
6322 4   
6323 69  
6324 7   
6325 6   
6326 6   
6327 2   
6328 9   
6329 3   
6330 5   
6331 3   
6332 6   
6333 3   
6334 1   
6335 3   
6336 5   
6337 3   
6338 2   
6339 1   
6340 5   
6341 10  
6342 3   
6343 82  
6344 97  
6345 7   
6346 2   
6347 1   
6348 1   
6349 2   
6350 9   
6351 10  
6352 5   
6353 4   
6354 6   
6355 8   
6356 7   
6357 6   
6358 8   
6359 3   
6360 10  
6361 10  
6362 10  
6363 10  
6364 6   
6365 4   
6366 4   
6367 5   
6368 8   
6369 5   
6370 7   
6371 6   
6372 5   
6373 8   
6374 10  
6375 5   
6376 70  
6377 55  
6378 78  
6379 53  
6380 4   
6381 7   
6382 2   
6383 6   
6384 1   
6385 10  
6386 3   
6387 6   
6388 10  
6389 6   
6390 10  
6391 8   
6392 1   
6393 7   
6394 10  
6395 5   
6396 84  
6397 1   
6398 10  
6399 1   
6400 9   
6401 1   
6402 6   
6403 6   
6404 6   
6405 4   
6406 3   
6407 4   
6408 7   
6409 4   
6410 10  
6411 57  
6412 5   
6413 7   
6414 51  
6415 8   
6416 98  
6417 86  
6418 10  
6419 7   
6420 8   
6421 75  
6422 3   
6423 7   
6424 3   
6425 9   
6426 5   
6427 10  
6428 5   
6429 7   
6430 99  
6431 6   
6432 3   
6433 9   
6434 5   
6435 10  
6436 3   
6437 10  
6438 5   
6439 62  
6440 8   
6441 6   
6442 7   
6443 5   
6444 2   
6445 10  
6446 8   
6447 10  
6448 4   
6449 6   
6450 5   
6451 9   
6452 6   
6453 4   
6454 10  
6455 9   
6456 2   
6457 3   
6458 7   
6459 6   
6460 1   
6461 10  
6462 2   
6463 7   
6464 1   
6465 8   
6466 100 
6467 9   
6468 52  
6469 5   
6470 10  
6471 3   
6472 59  
6473 1   
6474 4   
6475 9   
6476 5   
6477 1   
6478 1   
6479 1   
6480 95  
6481 2   
6482 9   
6483 10  
6484 6   
6485 8   
6486 1   
6487 97  
6488 8   
6489 4   
6490 7   
6491 84  
6492 2   
6493 3   
6494 9   
6495 10  
6496 8   
6497 64  
6498 55  
6499 4   
6500 2   
6501 2   
6502 7   
6503 5   
6504 74  
6505 8   
6506 4   
6507 68  
6508 9   
6509 53  
6510 1   
6511 4   
6512 8   
6513 5   
6514 8   
6515 2   
6516 10  
6517 1   
6518 85  
6519 2   
6520 9   
6521 7   
6522 8   
6523 50  
6524 6   
6525 5   
6526 8   
6527 9   
6528 7   
6529 80  
6530 5   
6531 7   
6532 6   
6533 50  
6534 3   
6535 8   
6536 70  
6537 6   
6538 81  
6539 3   
6540 1   
6541 4   
6542 9   
6543 10  
6544 4   
6545 7   
6546 91  
6547 6   
6548 1   
6549 3   
6550 1   
6551 7   
6552 7   
6553 3   
6554 81  
6555 9   
6556 1   
6557 5   
6558 52  
6559 4   
6560 3   
6561 9   
6562 10  
6563 2   
6564 6   
6565 1   
6566 3   
6567 56  
6568 5   
6569 6   
6570 4   
6571 9   
6572 5   
6573 52  
6574 7   
6575 6   
6576 4   
6577 8   
6578 9   
6579 8   
6580 66  
6581 7   
6582 4   
6583 9   
6584 3   
6585 3   
6586 5   
6587 5   
6588 7   
6589 6   
6590 5   
6591 7   
6592 10  
6593 3   
6594 8   
6595 10  
6596 1   
6597 5   
6598 58  
6599 5   
6600 1   
6601 1   
6602 89  
6603 8   
6604 5   
6605 6   
6606 1   
6607 2   
6608 10  
6609 58  
6610 2   
6611 8   
6612 7   
6613 2   
6614 3   
6615 3   
6616 6   
6617 9   
6618 1   
6619 57  
6620 5   
6621 9   
6622 6   
6623 4   
6624 5   
6625 7   
6626 6   
6627 2   
6628 89  
6629 4   
6630 3   
6631 61  
6632 10  
6633 3   
6634 4   
6635 9   
6636 1   
6637 95  
6638 4   
6639 1   
6640 5   
6641 2   
6642 4   
6643 7   
6644 9   
6645 4   
6646 6   
6647 8   
6648 10  
6649 2   
6650 2   
6651 1   
6652 9   
6653 8   
6654 6   
6655 2   
6656 2   
6657 1   
6658 98  
6659 9   
6660 3   
6661 79  
6662 7   
6663 6   
6664 5   
6665 6   
6666 4   
6667 6   
6668 3   
6669 7   
6670 9   
6671 6   
6672 10  
6673 89  
6674 2   
6675 1   
6676 1   
6677 8   
6678 7   
6679 2   
6680 5   
6681 10  
6682 7   
6683 94  
6684 1   
6685 7   
6686 62  
6687 8   
6688 2   
6689 6   
6690 4   
6691 1   
6692 1   
6693 64  
6694 1   
6695 8   
6696 7   
6697 5   
6698 10  
6699 2   
6700 7   
6701 2   
6702 7   
6703 4   
6704 8   
6705 4   
6706 4   
6707 1   
6708 5   
6709 96  
6710 70  
6711 9   
6712 9   
6713 4   
6714 10  
6715 6   
6716 8   
6717 3   
6718 9   
6719 2   
6720 10  
6721 2   
6722 6   
6723 10  
6724 2   
6725 10  
6726 1   
6727 8   
6728 57  
6729 63  
6730 100 
6731 8   
6732 9   
6733 4   
6734 7   
6735 6   
6736 6   
6737 9   
6738 5   
6739 1   
6740 8   
6741 9   
6742 10  
6743 1   
6744 10  
6745 1   
6746 5   
6747 5   
6748 6   
6749 5   
6750 6   
6751 74  
6752 10  
6753 2   
6754 7   
6755 1   
6756 6   
6757 96  
6758 10  
6759 1   
6760 89  
6761 6   
6762 4   
6763 2   
6764 8   
6765 7   
6766 1   
6767 1   
6768 1   
6769 4   
6770 6   
6771 9   
6772 9   
6773 8   
6774 8   
6775 10  
6776 10  
6777 2   
6778 10  
6779 6   
6780 5   
6781 65  
6782 7   
6783 10  
6784 6   
6785 9   
6786 95  
6787 51  
6788 5   
6789 8   
6790 3   
6791 1   
6792 5   
6793 64  
6794 53  
6795 1   
6796 61  
6797 88  
6798 3   
6799 60  
6800 3   
6801 9   
6802 90  
6803 7   
6804 8   
6805 9   
6806 2   
6807 10  
6808 3   
6809 5   
6810 4   
6811 98  
6812 2   
6813 2   
6814 10  
6815 10  
6816 69  
6817 8   
6818 3   
6819 7   
6820 2   
6821 3   
6822 5   
6823 5   
6824 7   
6825 1   
6826 2   
6827 83  
6828 6   
6829 2   
6830 4   
6831 6   
6832 63  
6833 1   
6834 9   
6835 10  
6836 85  
6837 8   
6838 5   
6839 9   
6840 62  
6841 58  
6842 9   
6843 2   
6844 5   
6845 8   
6846 1   
6847 8   
6848 7   
6849 6   
6850 5   
6851 9   
6852 3   
6853 3   
6854 1   
6855 1   
6856 4   
6857 2   
6858 97  
6859 3   
6860 54  
6861 3   
6862 7   
6863 90  
6864 70  
6865 4   
6866 9   
6867 9   
6868 52  
6869 2   
6870 7   
6871 1   
6872 7   
6873 8   
6874 5   
6875 8   
6876 3   
6877 9   
6878 84  
6879 2   
6880 5   
6881 9   
6882 3   
6883 91  
6884 5   
6885 5   
6886 83  
6887 5   
6888 78  
6889 4   
6890 5   
6891 8   
6892 8   
6893 1   
6894 8   
6895 2   
6896 1   
6897 4   
6898 3   
6899 65  
6900 7   
6901 7   
6902 10  
6903 7   
6904 2   
6905 5   
6906 8   
6907 6   
6908 3   
6909 10  
6910 5   
6911 3   
6912 7   
6913 3   
6914 5   
6915 1   
6916 85  
6917 5   
6918 6   
6919 3   
6920 6   
6921 1   
6922 65  
6923 1   
6924 6   
6925 6   
6926 6   
6927 5   
6928 10  
6929 78  
6930 53  
6931 2   
6932 3   
6933 10  
6934 5   
6935 57  
6936 2   
6937 5   
6938 1   
6939 4   
6940 10  
6941 5   
6942 10  
6943 4   
6944 6   
6945 89  
6946 7   
6947 5   
6948 4   
6949 6   
6950 1   
6951 1   
6952 2   
6953 3   
6954 8   
6955 9   
6956 3   
6957 1   
6958 3   
6959 4   
6960 5   
6961 56  
6962 3   
6963 8   
6964 8   
6965 3   
6966 7   
6967 10  
6968 5   
6969 1   
6970 5   
6971 88  
6972 5   
6973 8   
6974 10  
6975 2   
6976 9   
6977 7   
6978 1   
6979 3   
6980 64  
6981 5   
6982 1   
6983 7   
6984 55  
6985 8   
6986 5   
6987 3   
6988 1   
6989 1   
6990 6   
6991 1   
6992 8   
6993 9   
6994 6   
6995 1   
6996 6   
6997 6   
6998 8   
6999 3   
7000 10  
7001 6   
7002 10  
7003 5   
7004 2   
7005 71  
7006 6   
7007 3   
7008 6   
7009 1   
7010 9   
7011 8   
7012 2   
7013 4   
7014 5   
7015 9   
7016 4   
7017 77  
7018 1   
7019 80  
7020 1   
7021 7   
7022 5   
7023 96  
7024 4   
7025 3   
7026 7   
7027 5   
7028 86  
7029 7   
7030 3   
7031 7   
7032 8   
7033 2   
7034 6   
7035 4   
7036 9   
7037 71  
7038 81  
7039 9   
7040 8   
7041 5   
7042 61  
7043 5   
7044 52  
7045 3   
7046 10  
7047 5   
7048 7   
7049 4   
7050 2   
7051 8   
7052 10  
7053 2   
7054 10  
7055 2   
7056 1   
7057 10  
7058 1   
7059 61  
7060 6   
7061 1   
7062 94  
7063 74  
7064 5   
7065 7   
7066 93  
7067 8   
7068 70  
7069 8   
7070 64  
7071 8   
7072 91  
7073 2   
7074 90  
7075 9   
7076 4   
7077 98  
7078 2   
7079 9   
7080 1   
7081 83  
7082 60  
7083 8   
7084 9   
7085 50  
7086 2   
7087 9   
7088 1   
7089 6   
7090 7   
7091 4   
7092 57  
7093 94  
7094 55  
7095 6   
7096 6   
7097 86  
7098 5   
7099 67  
7100 2   
7101 5   
7102 2   
7103 9   
7104 10  
7105 1   
7106 3   
7107 5   
7108 9   
7109 95  
7110 10  
7111 1   
7112 6   
7113 3   
7114 6   
7115 7   
7116 64  
7117 69  
7118 5   
7119 2   
7120 10  
7121 6   
7122 8   
7123 2   
7124 91  
7125 10  
7126 10  
7127 7   
7128 10  
7129 3   
7130 2   
7131 8   
7132 10  
7133 8   
7134 4   
7135 1   
7136 8   
7137 1   
7138 8   
7139 8   
7140 2   
7141 1   
7142 10  
7143 7   
7144 2   
7145 2   
7146 92  
7147 97  
7148 8   
7149 2   
7150 7   
7151 3   
7152 4   
7153 10  
7154 66  
7155 4   
7156 86  
7157 10  
7158 7   
7159 96  
7160 67  
7161 10  
7162 10  
7163 92  
7164 4   
7165 9   
7166 7   
7167 6   
7168 10  
7169 84  
7170 74  
7171 3   
7172 3   
7173 86  
7174 5   
7175 3   
7176 8   
7177 6   
7178 4   
7179 1   
7180 90  
7181 9   
7182 3   
7183 86  
7184 10  
7185 90  
7186 9   
7187 9   
7188 5   
7189 8   
7190 1   
7191 4   
7192 7   
7193 58  
7194 10  
7195 5   
7196 8   
7197 5   
7198 10  
7199 65  
7200 10  
7201 3   
7202 95  
7203 1   
7204 2   
7205 9   
7206 4   
7207 6   
7208 10  
7209 1   
7210 95  
7211 10  
7212 6   
7213 8   
7214 6   
7215 9   
7216 8   
7217 6   
7218 8   
7219 78  
7220 5   
7221 86  
7222 6   
7223 3   
7224 10  
7225 3   
7226 7   
7227 10  
7228 76  
7229 5   
7230 9   
7231 2   
7232 9   
7233 93  
7234 59  
7235 3   
7236 4   
7237 3   
7238 3   
7239 6   
7240 10  
7241 92  
7242 9   
7243 2   
7244 4   
7245 1   
7246 7   
7247 9   
7248 7   
7249 69  
7250 6   
7251 4   
7252 1   
7253 2   
7254 3   
7255 6   
7256 6   
7257 2   
7258 4   
7259 2   
7260 8   
7261 5   
7262 74  
7263 55  
7264 3   
7265 3   
7266 4   
7267 78  
7268 79  
7269 6   
7270 51  
7271 76  
7272 1   
7273 62  
7274 9   
7275 10  
7276 77  
7277 7   
7278 95  
7279 4   
7280 74  
7281 3   
7282 1   
7283 9   
7284 66  
7285 7   
7286 8   
7287 59  
7288 2   
7289 3   
7290 4   
7291 9   
7292 96  
7293 3   
7294 58  
7295 6   
7296 10  
7297 1   
7298 3   
7299 1   
7300 2   
7301 50  
7302 1   
7303 79  
7304 69  
7305 2   
7306 4   
7307 4   
7308 78  
7309 1   
7310 3   
7311 9   
7312 7   
7313 8   
7314 4   
7315 73  
7316 76  
7317 5   
7318 1   
7319 5   
7320 6   
7321 76  
7322 10  
7323 7   
7324 5   
7325 6   
7326 3   
7327 83  
7328 9   
7329 5   
7330 1   
7331 1   
7332 95  
7333 3   
7334 10  
7335 51  
7336 7   
7337 6   
7338 9   
7339 10  
7340 71  
7341 3   
7342 74  
7343 64  
7344 6   
7345 10  
7346 3   
7347 4   
7348 7   
7349 4   
7350 78  
7351 3   
7352 1   
7353 4   
7354 10  
7355 3   
7356 90  
7357 8   
7358 5   
7359 76  
7360 5   
7361 7   
7362 4   
7363 8   
7364 2   
7365 3   
7366 9   
7367 10  
7368 7   
7369 6   
7370 53  
7371 95  
7372 5   
7373 4   
7374 10  
7375 8   
7376 8   
7377 1   
7378 67  
7379 9   
7380 5   
7381 8   
7382 2   
7383 88  
7384 9   
7385 5   
7386 78  
7387 95  
7388 3   
7389 6   
7390 99  
7391 9   
7392 65  
7393 7   
7394 72  
7395 1   
7396 10  
7397 3   
7398 6   
7399 8   
7400 3   
7401 9   
7402 5   
7403 1   
7404 3   
7405 6   
7406 10  
7407 1   
7408 1   
7409 2   
7410 6   
7411 71  
7412 5   
7413 3   
7414 3   
7415 8   
7416 5   
7417 4   
7418 2   
7419 9   
7420 3   
7421 90  
7422 1   
7423 8   
7424 9   
7425 2   
7426 63  
7427 7   
7428 3   
7429 96  
7430 4   
7431 2   
7432 7   
7433 99  
7434 55  
7435 3   
7436 7   
7437 3   
7438 5   
7439 10  
7440 3   
7441 3   
7442 2   
7443 3   
7444 2   
7445 70  
7446 10  
7447 2   
7448 5   
7449 7   
7450 2   
7451 8   
7452 6   
7453 1   
7454 6   
7455 3   
7456 9   
7457 3   
7458 10  
7459 1   
7460 7   
7461 8   
7462 9   
7463 7   
7464 2   
7465 6   
7466 3   
7467 71  
7468 2   
7469 50  
7470 4   
7471 10  
7472 10  
7473 6   
7474 70  
7475 10  
7476 8   
7477 1   
7478 10  
7479 2   
7480 65  
7481 3   
7482 59  
7483 4   
7484 8   
7485 87  
7486 98  
7487 3   
7488 5   
7489 2   
7490 66  
7491 3   
7492 65  
7493 5   
7494 56  
7495 7   
7496 99  
7497 9   
7498 4   
7499 3   
7500 99  
7501 5   
7502 10  
7503 7   
7504 10  
7505 4   
7506 10  
7507 2   
7508 4   
7509 8   
7510 1   
7511 5   
7512 2   
7513 3   
7514 10  
7515 4   
7516 94  
7517 2   
7518 4   
7519 99  
7520 10  
7521 8   
7522 95  
7523 7   
7524 6   
7525 8   
7526 91  
7527 7   
7528 9   
7529 8   
7530 6   
7531 1   
7532 3   
7533 8   
7534 10  
7535 6   
7536 67  
7537 51  
7538 1   
7539 9   
7540 4   
7541 7   
7542 81  
7543 4   
7544 2   
7545 5   
7546 3   
7547 50  
7548 7   
7549 3   
7550 9   
7551 3   
7552 10  
7553 5   
7554 5   
7555 10  
7556 4   
7557 6   
7558 3   
7559 69  
7560 10  
7561 7   
7562 10  
7563 70  
7564 10  
7565 5   
7566 4   
7567 7   
7568 8   
7569 1   
7570 5   
7571 5   
7572 8   
7573 3   
7574 10  
7575 5   
7576 60  
7577 8   
7578 8   
7579 77  
7580 6   
7581 3   
7582 8   
7583 1   
7584 5   
7585 10  
7586 3   
7587 7   
7588 6   
7589 10  
7590 10  
7591 10  
7592 10  
7593 3   
7594 3   
7595 4   
7596 6   
7597 2   
7598 5   
7599 1   
7600 5   
7601 4   
7602 10  
7603 10  
7604 7   
7605 7   
7606 4   
7607 67  
7608 2   
7609 1   
7610 1   
7611 3   
7612 6   
7613 2   
7614 6   
7615 1   
7616 10  
7617 5   
7618 5   
7619 9   
7620 4   
7621 1   
7622 2   
7623 8   
7624 8   
7625 7   
7626 77  
7627 1   
7628 3   
7629 4   
7630 7   
7631 81  
7632 97  
7633 6   
7634 6   
7635 6   
7636 4   
7637 7   
7638 63  
7639 80  
7640 3   
7641 1   
7642 7   
7643 4   
7644 6   
7645 6   
7646 9   
7647 3   
7648 6   
7649 9   
7650 5   
7651 3   
7652 5   
7653 1   
7654 6   
7655 5   
7656 90  
7657 6   
7658 5   
7659 100 
7660 8   
7661 6   
7662 2   
7663 10  
7664 84  
7665 3   
7666 10  
7667 7   
7668 7   
7669 10  
7670 3   
7671 68  
7672 1   
7673 9   
7674 10  
7675 1   
7676 9   
7677 9   
7678 95  
7679 10  
7680 6   
7681 4   
7682 8   
7683 9   
7684 5   
7685 1   
7686 5   
7687 10  
7688 7   
7689 56  
7690 87  
7691 94  
7692 7   
7693 62  
7694 9   
7695 5   
7696 10  
7697 7   
7698 10  
7699 10  
7700 5   
7701 9   
7702 6   
7703 56  
7704 8   
7705 4   
7706 3   
7707 6   
7708 78  
7709 2   
7710 69  
7711 2   
7712 8   
7713 94  
7714 3   
7715 5   
7716 6   
7717 5   
7718 3   
7719 7   
7720 2   
7721 3   
7722 3   
7723 8   
7724 73  
7725 10  
7726 3   
7727 5   
7728 76  
7729 4   
7730 4   
7731 6   
7732 6   
7733 90  
7734 2   
7735 10  
7736 1   
7737 9   
7738 10  
7739 4   
7740 6   
7741 3   
7742 2   
7743 6   
7744 93  
7745 7   
7746 67  
7747 4   
7748 9   
7749 9   
7750 4   
7751 1   
7752 4   
7753 8   
7754 1   
7755 2   
7756 3   
7757 6   
7758 7   
7759 6   
7760 6   
7761 97  
7762 1   
7763 5   
7764 2   
7765 4   
7766 100 
7767 5   
7768 2   
7769 3   
7770 7   
7771 1   
7772 2   
7773 2   
7774 10  
7775 6   
7776 8   
7777 5   
7778 75  
7779 97  
7780 2   
7781 55  
7782 7   
7783 2   
7784 10  
7785 4   
7786 55  
7787 9   
7788 5   
7789 100 
7790 8   
7791 8   
7792 4   
7793 97  
7794 70  
7795 4   
7796 1   
7797 2   
7798 4   
7799 4   
7800 94  
7801 8   
7802 2   
7803 91  
7804 6   
7805 8   
7806 9   
7807 2   
7808 3   
7809 1   
7810 6   
7811 59  
7812 5   
7813 1   
7814 4   
7815 1   
7816 5   
7817 8   
7818 2   
7819 2   
7820 10  
7821 7   
7822 4   
7823 5   
7824 8   
7825 10  
7826 4   
7827 1   
7828 10  
7829 8   
7830 7   
7831 6   
7832 10  
7833 4   
7834 4   
7835 2   
7836 1   
7837 82  
7838 1   
7839 9   
7840 7   
7841 76  
7842 8   
7843 10  
7844 2   
7845 6   
7846 69  
7847 87  
7848 8   
7849 4   
7850 8   
7851 7   
7852 6   
7853 7   
7854 8   
7855 1   
7856 6   
7857 95  
7858 3   
7859 4   
7860 9   
7861 5   
7862 61  
7863 1   
7864 5   
7865 5   
7866 1   
7867 5   
7868 65  
7869 1   
7870 5   
7871 10  
7872 93  
7873 4   
7874 9   
7875 9   
7876 7   
7877 9   
7878 1   
7879 75  
7880 54  
7881 1   
7882 6   
7883 8   
7884 3   
7885 7   
7886 96  
7887 8   
7888 4   
7889 5   
7890 8   
7891 1   
7892 8   
7893 10  
7894 7   
7895 1   
7896 8   
7897 91  
7898 1   
7899 6   
7900 3   
7901 8   
7902 9   
7903 74  
7904 10  
7905 75  
7906 1   
7907 7   
7908 5   
7909 6   
7910 4   
7911 72  
7912 9   
7913 10  
7914 91  
7915 8   
7916 3   
7917 4   
7918 1   
7919 10  
7920 10  
7921 58  
7922 6   
7923 8   
7924 3   
7925 7   
7926 4   
7927 4   
7928 7   
7929 1   
7930 7   
7931 1   
7932 10  
7933 3   
7934 66  
7935 2   
7936 7   
7937 3   
7938 2   
7939 3   
7940 61  
7941 5   
7942 9   
7943 4   
7944 2   
7945 4   
7946 10  
7947 7   
7948 10  
7949 10  
7950 87  
7951 5   
7952 10  
7953 1   
7954 8   
7955 4   
7956 78  
7957 3   
7958 6   
7959 4   
7960 97  
7961 9   
7962 7   
7963 10  
7964 1   
7965 2   
7966 89  
7967 8   
7968 1   
7969 2   
7970 10  
7971 1   
7972 3   
7973 9   
7974 7   
7975 9   
7976 10  
7977 7   
7978 7   
7979 4   
7980 90  
7981 2   
7982 9   
7983 6   
7984 9   
7985 7   
7986 64  
7987 1   
7988 6   
7989 6   
7990 6   
7991 63  
7992 9   
7993 7   
7994 3   
7995 6   
7996 5   
7997 3   
7998 10  
7999 5   
8000 5   
8001 98  
8002 8   
8003 8   
8004 4   
8005 4   
8006 56  
8007 9   
8008 52  
8009 7   
8010 66  
8011 10  
8012 1   
8013 8   
8014 6   
8015 6   
8016 6   
8017 8   
8018 57  
8019 1   
8020 4   
8021 9   
8022 2   
8023 7   
8024 8   
8025 1   
8026 3   
8027 5   
8028 9   
8029 91  
8030 1   
8031 6   
8032 5   
8033 55  
8034 1   
8035 1   
8036 7   
8037 8   
8038 1   
8039 2   
8040 8   
8041 10  
8042 1   
8043 8   
8044 65  
8045 6   
8046 10  
8047 3   
8048 3   
8049 52  
8050 6   
8051 10  
8052 5   
8053 1   
8054 6   
8055 3   
8056 1   
8057 10  
8058 5   
8059 93  
8060 9   
8061 7   
8062 6   
8063 5   
8064 79  
8065 1   
8066 9   
8067 7   
8068 3   
8069 5   
8070 5   
8071 2   
8072 2   
8073 1   
8074 2   
8075 3   
8076 7   
8077 8   
8078 6   
8079 4   
8080 3   
8081 1   
8082 71  
8083 5   
8084 8   
8085 9   
8086 1   
8087 5   
8088 4   
8089 4   
8090 6   
8091 9   
8092 1   
8093 1   
8094 5   
8095 9   
8096 6   
8097 50  
8098 8   
8099 8   
8100 3   
8101 8   
8102 1   
8103 8   
8104 7   
8105 6   
8106 4   
8107 8   
8108 9   
8109 8   
8110 6   
8111 9   
8112 3   
8113 3   
8114 1   
8115 50  
8116 9   
8117 3   
8118 1   
8119 8   
8120 5   
8121 6   
8122 10  
8123 7   
8124 1   
8125 67  
8126 7   
8127 1   
8128 7   
8129 1   
8130 5   
8131 82  
8132 3   
8133 7   
8134 3   
8135 2   
8136 88  
8137 3   
8138 87  
8139 7   
8140 10  
8141 65  
8142 7   
8143 65  
8144 10  
8145 6   
8146 10  
8147 50  
8148 3   
8149 1   
8150 7   
8151 5   
8152 7   
8153 2   
8154 10  
8155 1   
8156 9   
8157 73  
8158 1   
8159 10  
8160 10  
8161 5   
8162 9   
8163 73  
8164 92  
8165 8   
8166 5   
8167 2   
8168 4   
8169 2   
8170 6   
8171 3   
8172 8   
8173 5   
8174 5   
8175 9   
8176 6   
8177 3   
8178 1   
8179 85  
8180 3   
8181 10  
8182 3   
8183 1   
8184 1   
8185 8   
8186 7   
8187 59  
8188 9   
8189 1   
8190 60  
8191 5   
8192 83  
8193 4   
8194 66  
8195 10  
8196 2   
8197 10  
8198 3   
8199 4   
8200 4   
8201 8   
8202 6   
8203 5   
8204 6   
8205 10  
8206 3   
8207 9   
8208 69  
8209 4   
8210 8   
8211 1   
8212 9   
8213 2   
8214 2   
8215 4   
8216 5   
8217 9   
8218 4   
8219 8   
8220 8   
8221 2   
8222 4   
8223 10  
8224 90  
8225 3   
8226 4   
8227 5   
8228 6   
8229 70  
8230 9   
8231 9   
8232 70  
8233 3   
8234 3   
8235 3   
8236 5   
8237 5   
8238 3   
8239 7   
8240 2   
8241 4   
8242 7   
8243 3   
8244 1   
8245 100 
8246 2   
8247 88  
8248 4   
8249 4   
8250 9   
8251 10  
8252 9   
8253 87  
8254 96  
8255 71  
8256 56  
8257 1   
8258 10  
8259 2   
8260 7   
8261 3   
8262 53  
8263 9   
8264 6   
8265 5   
8266 88  
8267 85  
8268 57  
8269 68  
8270 6   
8271 93  
8272 2   
8273 3   
8274 3   
8275 2   
8276 9   
8277 9   
8278 8   
8279 1   
8280 1   
8281 2   
8282 5   
8283 7   
8284 5   
8285 8   
8286 7   
8287 7   
8288 2   
8289 2   
8290 4   
8291 2   
8292 1   
8293 1   
8294 10  
8295 1   
8296 6   
8297 97  
8298 6   
8299 5   
8300 9   
8301 3   
8302 69  
8303 6   
8304 8   
8305 64  
8306 9   
8307 3   
8308 3   
8309 97  
8310 4   
8311 8   
8312 3   
8313 10  
8314 5   
8315 10  
8316 1   
8317 3   
8318 6   
8319 3   
8320 4   
8321 7   
8322 7   
8323 1   
8324 6   
8325 7   
8326 94  
8327 3   
8328 9   
8329 2   
8330 5   
8331 6   
8332 6   
8333 81  
8334 10  
8335 1   
8336 10  
8337 7   
8338 8   
8339 6   
8340 1   
8341 94  
8342 3   
8343 1   
8344 62  
8345 4   
8346 9   
8347 3   
8348 5   
8349 10  
8350 3   
8351 2   
8352 8   
8353 3   
8354 5   
8355 8   
8356 1   
8357 10  
8358 6   
8359 6   
8360 10  
8361 9   
8362 7   
8363 91  
8364 9   
8365 56  
8366 7   
8367 2   
8368 5   
8369 9   
8370 9   
8371 3   
8372 7   
8373 4   
8374 7   
8375 5   
8376 5   
8377 9   
8378 5   
8379 1   
8380 1   
8381 1   
8382 7   
8383 74  
8384 4   
8385 59  
8386 6   
8387 4   
8388 10  
8389 8   
8390 5   
8391 2   
8392 7   
8393 9   
8394 2   
8395 9   
8396 2   
8397 4   
8398 7   
8399 93  
8400 6   
8401 8   
8402 2   
8403 3   
8404 2   
8405 2   
8406 2   
8407 5   
8408 7   
8409 1   
8410 7   
8411 7   
8412 1   
8413 4   
8414 81  
8415 95  
8416 8   
8417 2   
8418 100 
8419 1   
8420 3   
8421 1   
8422 3   
8423 4   
8424 3   
8425 10  
8426 79  
8427 100 
8428 4   
8429 5   
8430 58  
8431 7   
8432 10  
8433 8   
8434 6   
8435 52  
8436 9   
8437 2   
8438 6   
8439 10  
8440 6   
8441 78  
8442 5   
8443 84  
8444 1   
8445 8   
8446 7   
8447 6   
8448 100 
8449 62  
8450 95  
8451 4   
8452 7   
8453 8   
8454 3   
8455 4   
8456 6   
8457 7   
8458 4   
8459 4   
8460 4   
8461 51  
8462 5   
8463 6   
8464 93  
8465 6   
8466 9   
8467 82  
8468 3   
8469 56  
8470 2   
8471 8   
8472 66  
8473 5   
8474 3   
8475 66  
8476 6   
8477 10  
8478 9   
8479 3   
8480 78  
8481 2   
8482 3   
8483 4   
8484 74  
8485 9   
8486 9   
8487 7   
8488 5   
8489 2   
8490 99  
8491 1   
8492 79  
8493 9   
8494 10  
8495 1   
8496 3   
8497 6   
8498 96  
8499 4   
8500 65  
8501 59  
8502 4   
8503 3   
8504 7   
8505 1   
8506 61  
8507 6   
8508 10  
8509 8   
8510 2   
8511 3   
8512 3   
8513 10  
8514 9   
8515 1   
8516 4   
8517 6   
8518 6   
8519 4   
8520 6   
8521 1   
8522 1   
8523 1   
8524 8   
8525 8   
8526 7   
8527 5   
8528 3   
8529 7   
8530 79  
8531 3   
8532 8   
8533 51  
8534 3   
8535 9   
8536 6   
8537 8   
8538 60  
8539 6   
8540 9   
8541 2   
8542 2   
8543 5   
8544 4   
8545 3   
8546 5   
8547 5   
8548 94  
8549 8   
8550 1   
8551 5   
8552 9   
8553 50  
8554 8   
8555 10  
8556 8   
8557 4   
8558 10  
8559 6   
8560 8   
8561 1   
8562 3   
8563 6   
8564 7   
8565 9   
8566 3   
8567 7   
8568 2   
8569 9   
8570 9   
8571 5   
8572 5   
8573 6   
8574 69  
8575 1   
8576 2   
8577 9   
8578 3   
8579 5   
8580 3   
8581 84  
8582 1   
8583 4   
8584 2   
8585 4   
8586 10  
8587 6   
8588 8   
8589 3   
8590 7   
8591 4   
8592 6   
8593 2   
8594 2   
8595 6   
8596 6   
8597 3   
8598 97  
8599 1   
8600 1   
8601 2   
8602 86  
8603 7   
8604 9   
8605 71  
8606 10  
8607 4   
8608 6   
8609 2   
8610 89  
8611 3   
8612 53  
8613 3   
8614 78  
8615 9   
8616 6   
8617 3   
8618 9   
8619 69  
8620 10  
8621 8   
8622 10  
8623 8   
8624 10  
8625 2   
8626 8   
8627 9   
8628 57  
8629 56  
8630 7   
8631 3   
8632 4   
8633 65  
8634 4   
8635 7   
8636 7   
8637 3   
8638 9   
8639 66  
8640 5   
8641 7   
8642 9   
8643 6   
8644 7   
8645 67  
8646 1   
8647 4   
8648 9   
8649 10  
8650 7   
8651 8   
8652 6   
8653 3   
8654 96  
8655 4   
8656 74  
8657 9   
8658 6   
8659 9   
8660 10  
8661 2   
8662 75  
8663 4   
8664 1   
8665 6   
8666 10  
8667 93  
8668 98  
8669 1   
8670 67  
8671 3   
8672 5   
8673 8   
8674 2   
8675 53  
8676 8   
8677 87  
8678 6   
8679 76  
8680 84  
8681 62  
8682 9   
8683 10  
8684 7   
8685 3   
8686 7   
8687 5   
8688 2   
8689 10  
8690 3   
8691 7   
8692 1   
8693 53  
8694 2   
8695 5   
8696 10  
8697 3   
8698 100 
8699 6   
8700 9   
8701 9   
8702 6   
8703 6   
8704 7   
8705 9   
8706 2   
8707 3   
8708 4   
8709 9   
8710 8   
8711 5   
8712 5   
8713 2   
8714 7   
8715 58  
8716 76  
8717 2   
8718 3   
8719 7   
8720 73  
8721 8   
8722 1   
8723 72  
8724 56  
8725 10  
8726 9   
8727 3   
8728 90  
8729 5   
8730 6   
8731 77  
8732 73  
8733 3   
8734 4   
8735 97  
8736 1   
8737 100 
8738 8   
8739 56  
8740 6   
8741 8   
8742 7   
8743 1   
8744 8   
8745 8   
8746 56  
8747 1   
8748 10  
8749 7   
8750 3   
8751 3   
8752 4   
8753 53  
8754 51  
8755 3   
8756 2   
8757 1   
8758 7   
8759 5   
8760 9   
8761 5   
8762 8   
8763 3   
8764 3   
8765 92  
8766 73  
8767 3   
8768 5   
8769 5   
8770 1   
8771 5   
8772 86  
8773 81  
8774 85  
8775 2   
8776 1   
8777 4   
8778 7   
8779 7   
8780 7   
8781 9   
8782 62  
8783 61  
8784 6   
8785 7   
8786 1   
8787 98  
8788 5   
8789 8   
8790 10  
8791 2   
8792 5   
8793 54  
8794 9   
8795 5   
8796 59  
8797 5   
8798 1   
8799 7   
8800 7   
8801 7   
8802 2   
8803 93  
8804 7   
8805 10  
8806 10  
8807 9   
8808 7   
8809 8   
8810 10  
8811 3   
8812 4   
8813 8   
8814 4   
8815 73  
8816 1   
8817 10  
8818 3   
8819 6   
8820 4   
8821 10  
8822 10  
8823 75  
8824 4   
8825 2   
8826 66  
8827 3   
8828 2   
8829 57  
8830 1   
8831 59  
8832 4   
8833 78  
8834 2   
8835 7   
8836 51  
8837 2   
8838 6   
8839 5   
8840 2   
8841 69  
8842 1   
8843 5   
8844 52  
8845 6   
8846 2   
8847 6   
8848 6   
8849 6   
8850 10  
8851 5   
8852 68  
8853 10  
8854 8   
8855 10  
8856 97  
8857 4   
8858 61  
8859 1   
8860 9   
8861 6   
8862 85  
8863 2   
8864 9   
8865 78  
8866 2   
8867 9   
8868 78  
8869 98  
8870 59  
8871 1   
8872 53  
8873 100 
8874 10  
8875 4   
8876 3   
8877 2   
8878 10  
8879 8   
8880 2   
8881 7   
8882 4   
8883 9   
8884 8   
8885 9   
8886 83  
8887 5   
8888 3   
8889 5   
8890 8   
8891 9   
8892 3   
8893 7   
8894 10  
8895 7   
8896 50  
8897 92  
8898 9   
8899 1   
8900 1   
8901 94  
8902 1   
8903 2   
8904 10  
8905 5   
8906 2   
8907 5   
8908 6   
8909 5   
8910 9   
8911 6   
8912 6   
8913 3   
8914 6   
8915 71  
8916 7   
8917 79  
8918 1   
8919 80  
8920 5   
8921 2   
8922 3   
8923 10  
8924 4   
8925 62  
8926 10  
8927 1   
8928 61  
8929 1   
8930 90  
8931 86  
8932 1   
8933 5   
8934 9   
8935 8   
8936 1   
8937 7   
8938 10  
8939 7   
8940 5   
8941 1   
8942 8   
8943 5   
8944 5   
8945 2   
8946 9   
8947 99  
8948 89  
8949 5   
8950 67  
8951 6   
8952 9   
8953 9   
8954 4   
8955 3   
8956 9   
8957 3   
8958 9   
8959 10  
8960 7   
8961 51  
8962 5   
8963 7   
8964 2   
8965 2   
8966 4   
8967 10  
8968 4   
8969 10  
8970 3   
8971 7   
8972 64  
8973 1   
8974 3   
8975 54  
8976 61  
8977 4   
8978 100 
8979 1   
8980 8   
8981 2   
8982 2   
8983 1   
8984 4   
8985 4   
8986 4   
8987 4   
8988 8   
8989 7   
8990 1   
8991 96  
8992 3   
8993 9   
8994 80  
8995 1   
8996 89  
8997 1   
8998 71  
8999 9   
9000 2   
9001 6   
9002 5   
9003 6   
9004 85  
9005 9   
9006 9   
9007 5   
9008 69  
9009 7   
9010 4   
9011 55  
9012 50  
9013 69  
9014 1   
9015 1   
9016 7   
9017 10  
9018 7   
9019 98  
9020 52  
9021 1   
9022 57  
9023 4   
9024 5   
9025 2   
9026 3   
9027 9   
9028 3   
9029 9   
9030 7   
9031 75  
9032 7   
9033 5   
9034 6   
9035 94  
9036 4   
9037 1   
9038 5   
9039 94  
9040 68  
9041 10  
9042 1   
9043 5   
9044 3   
9045 64  
9046 3   
9047 8   
9048 7   
9049 9   
9050 99  
9051 4   
9052 99  
9053 10  
9054 2   
9055 1   
9056 2   
9057 8   
9058 89  
9059 10  
9060 8   
9061 63  
9062 52  
9063 6   
9064 6   
9065 6   
9066 2   
9067 7   
9068 4   
9069 62  
9070 2   
9071 9   
9072 76  
9073 1   
9074 5   
9075 56  
9076 5   
9077 1   
9078 55  
9079 7   
9080 2   
9081 8   
9082 5   
9083 9   
9084 4   
9085 5   
9086 1   
9087 8   
9088 7   
9089 6   
9090 2   
9091 10  
9092 7   
9093 10  
9094 9   
9095 10  
9096 9   
9097 6   
9098 2   
9099 6   
9100 10  
9101 4   
9102 1   
9103 9   
9104 5   
9105 5   
9106 3   
9107 7   
9108 50  
9109 4   
9110 7   
9111 2   
9112 1   
9113 7   
9114 76  
9115 5   
9116 67  
9117 8   
9118 2   
9119 73  
9120 79  
9121 9   
9122 96  
9123 1   
9124 8   
9125 1   
9126 7   
9127 59  
9128 7   
9129 1   
9130 93  
9131 1   
9132 6   
9133 9   
9134 55  
9135 4   
9136 9   
9137 9   
9138 3   
9139 10  
9140 59  
9141 1   
9142 2   
9143 1   
9144 3   
9145 100 
9146 1   
9147 8   
9148 1   
9149 3   
9150 6   
9151 97  
9152 2   
9153 6   
9154 8   
9155 71  
9156 8   
9157 6   
9158 9   
9159 3   
9160 6   
9161 67  
9162 3   
9163 51  
9164 4   
9165 61  
9166 8   
9167 3   
9168 2   
9169 3   
9170 91  
9171 4   
9172 3   
9173 8   
9174 2   
9175 80  
9176 1   
9177 8   
9178 4   
9179 8   
9180 4   
9181 1   
9182 81  
9183 7   
9184 6   
9185 58  
9186 4   
9187 4   
9188 8   
9189 2   
9190 5   
9191 7   
9192 100 
9193 57  
9194 2   
9195 6   
9196 6   
9197 7   
9198 2   
9199 76  
9200 9   
9201 10  
9202 6   
9203 1   
9204 7   
9205 10  
9206 8   
9207 4   
9208 8   
9209 1   
9210 10  
9211 2   
9212 62  
9213 1   
9214 7   
9215 7   
9216 10  
9217 74  
9218 2   
9219 100 
9220 2   
9221 6   
9222 2   
9223 1   
9224 6   
9225 1   
9226 2   
9227 4   
9228 7   
9229 8   
9230 8   
9231 6   
9232 5   
9233 10  
9234 8   
9235 75  
9236 8   
9237 50  
9238 10  
9239 89  
9240 2   
9241 4   
9242 7   
9243 90  
9244 2   
9245 72  
9246 3   
9247 7   
9248 7   
9249 2   
9250 4   
9251 8   
9252 1   
9253 6   
9254 6   
9255 83  
9256 3   
9257 65  
9258 57  
9259 9   
9260 7   
9261 95  
9262 52  
9263 10  
9264 10  
9265 6   
9266 1   
9267 6   
9268 2   
9269 7   
9270 2   
9271 4   
9272 6   
9273 67  
9274 98  
9275 1   
9276 10  
9277 10  
9278 10  
9279 9   
9280 3   
9281 9   
9282 10  
9283 7   
9284 1   
9285 9   
9286 3   
9287 10  
9288 6   
9289 9   
9290 7   
9291 10  
9292 6   
9293 3   
9294 4   
9295 3   
9296 56  
9297 4   
9298 5   
9299 2   
9300 6   
9301 2   
9302 66  
9303 7   
9304 7   
9305 66  
9306 6   
9307 1   
9308 60  
9309 5   
9310 99  
9311 68  
9312 2   
9313 2   
9314 10  
9315 2   
9316 3   
9317 5   
9318 3   
9319 2   
9320 2   
9321 10  
9322 6   
9323 3   
9324 2   
9325 1   
9326 7   
9327 2   
9328 10  
9329 5   
9330 8   
9331 10  
9332 4   
9333 6   
9334 3   
9335 10  
9336 4   
9337 6   
9338 52  
9339 3   
9340 8   
9341 10  
9342 10  
9343 6   
9344 5   
9345 2   
9346 81  
9347 10  
9348 7   
9349 7   
9350 54  
9351 10  
9352 2   
9353 10  
9354 9   
9355 10  
9356 10  
9357 7   
9358 2   
9359 10  
9360 9   
9361 2   
9362 8   
9363 1   
9364 2   
9365 2   
9366 10  
9367 5   
9368 8   
9369 7   
9370 3   
9371 8   
9372 2   
9373 9   
9374 3   
9375 6   
9376 3   
9377 1   
9378 63  
9379 2   
9380 9   
9381 59  
9382 6   
9383 3   
9384 66  
9385 8   
9386 3   
9387 1   
9388 6   
9389 4   
9390 6   
9391 6   
9392 4   
9393 9   
9394 7   
9395 9   
9396 6   
9397 93  
9398 10  
9399 9   
9400 66  
9401 8   
9402 6   
9403 8   
9404 3   
9405 5   
9406 59  
9407 7   
9408 52  
9409 10  
9410 2   
9411 4   
9412 3   
9413 4   
9414 8   
9415 4   
9416 8   
9417 77  
9418 2   
9419 4   
9420 1   
9421 7   
9422 63  
9423 83  
9424 67  
9425 53  
9426 8   
9427 7   
9428 4   
9429 55  
9430 5   
9431 9   
9432 5   
9433 7   
9434 3   
9435 2   
9436 1   
9437 59  
9438 2   
9439 2   
9440 97  
9441 9   
9442 3   
9443 5   
9444 2   
9445 8   
9446 5   
9447 4   
9448 4   
9449 5   
9450 8   
9451 10  
9452 3   
9453 1   
9454 4   
9455 9   
9456 7   
9457 51  
9458 89  
9459 9   
9460 10  
9461 2   
9462 96  
9463 9   
9464 2   
9465 7   
9466 1   
9467 3   
9468 4   
9469 10  
9470 6   
9471 1   
9472 3   
9473 6   
9474 1   
9475 78  
9476 4   
9477 2   
9478 3   
9479 9   
9480 52  
9481 3   
9482 5   
9483 5   
9484 76  
9485 74  
9486 6   
9487 1   
9488 1   
9489 1   
9490 4   
9491 57  
9492 10  
9493 8   
9494 8   
9495 4   
9496 8   
9497 7   
9498 10  
9499 9   
9500 6   
9501 7   
9502 5   
9503 10  
9504 8   
9505 10  
9506 4   
9507 8   
9508 2   
9509 87  
9510 3   
9511 1   
9512 1   
9513 5   
9514 1   
9515 1   
9516 10  
9517 9   
9518 2   
9519 1   
9520 7   
9521 7   
9522 95  
9523 8   
9524 10  
9525 94  
9526 2   
9527 54  
9528 9   
9529 6   
9530 2   
9531 77  
9532 6   
9533 9   
9534 3   
9535 4   
9536 65  
9537 8   
9538 3   
9539 8   
9540 8   
9541 1   
9542 4   
9543 6   
9544 10  
9545 2   
9546 7   
9547 3   
9548 4   
9549 2   
9550 1   
9551 55  
9552 86  
9553 6   
9554 7   
9555 4   
9556 76  
9557 9   
9558 9   
9559 6   
9560 8   
9561 8   
9562 84  
9563 1   
9564 71  
9565 1   
9566 89  
9567 7   
9568 7   
9569 10  
9570 5   
9571 3   
9572 2   
9573 1   
9574 5   
9575 1   
9576 3   
9577 8   
9578 8   
9579 2   
9580 10  
9581 5   
9582 4   
9583 10  
9584 1   
9585 3   
9586 2   
9587 3   
9588 7   
9589 3   
9590 5   
9591 93  
9592 6   
9593 9   
9594 5   
9595 9   
9596 66  
9597 3   
9598 4   
9599 4   
9600 10  
9601 2   
9602 77  
9603 4   
9604 10  
9605 5   
9606 6   
9607 9   
9608 4   
9609 69  
9610 7   
9611 1   
9612 3   
9613 8   
9614 2   
9615 5   
9616 4   
9617 2   
9618 4   
9619 6   
9620 1   
9621 6   
9622 4   
9623 9   
9624 91  
9625 3   
9626 5   
9627 68  
9628 2   
9629 4   
9630 51  
9631 1   
9632 68  
9633 5   
9634 2   
9635 7   
9636 5   
9637 2   
9638 73  
9639 10  
9640 75  
9641 91  
9642 7   
9643 9   
9644 9   
9645 71  
9646 10  
9647 55  
9648 99  
9649 57  
9650 3   
9651 3   
9652 6   
9653 10  
9654 1   
9655 4   
9656 5   
9657 6   
9658 3   
9659 10  
9660 97  
9661 4   
9662 2   
9663 77  
9664 3   
9665 8   
9666 9   
9667 9   
9668 5   
9669 2   
9670 4   
9671 9   
9672 9   
9673 6   
9674 51  
9675 96  
9676 4   
9677 3   
9678 4   
9679 2   
9680 5   
9681 74  
9682 8   
9683 87  
9684 9   
9685 1   
9686 1   
9687 4   
9688 10  
9689 9   
9690 3   
9691 5   
9692 4   
9693 1   
9694 7   
9695 85  
9696 69  
9697 87  
9698 5   
9699 74  
9700 2   
9701 8   
9702 100 
9703 5   
9704 8   
9705 7   
9706 1   
9707 6   
9708 6   
9709 3   
9710 8   
9711 4   
9712 97  
9713 3   
9714 7   
9715 3   
9716 10  
9717 3   
9718 3   
9719 2   
9720 8   
9721 4   
9722 66  
9723 10  
9724 3   
9725 7   
9726 8   
9727 76  
9728 10  
9729 5   
9730 7   
9731 10  
9732 2   
9733 7   
9734 3   
9735 97  
9736 1   
9737 5   
9738 1   
9739 10  
9740 1   
9741 3   
9742 9   
9743 86  
9744 4   
9745 1   
9746 7   
9747 10  
9748 4   
9749 8   
9750 10  
9751 73  
9752 3   
9753 10  
9754 4   
9755 9   
9756 4   
9757 1   
9758 3   
9759 7   
9760 7   
9761 72  
9762 1   
9763 5   
9764 7   
9765 63  
9766 3   
9767 2   
9768 5   
9769 6   
9770 8   
9771 1   
9772 6   
9773 7   
9774 86  
9775 5   
9776 8   
9777 3   
9778 9   
9779 6   
9780 8   
9781 3   
9782 6   
9783 4   
9784 62  
9785 5   
9786 10  
9787 4   
9788 1   
9789 65  
9790 8   
9791 6   
9792 3   
9793 85  
9794 72  
9795 2   
9796 8   
9797 5   
9798 5   
9799 4   
9800 5   
9801 4   
9802 9   
9803 9   
9804 7   
9805 8   
9806 7   
9807 97  
9808 76  
9809 3   
9810 65  
9811 94  
9812 10  
9813 8   
9814 7   
9815 6   
9816 8   
9817 7   
9818 9   
9819 9   
9820 86  
9821 83  
9822 4   
9823 5   
9824 1   
9825 7   
9826 3   
9827 1   
9828 8   
9829 6   
9830 2   
9831 3   
9832 71  
9833 1   
9834 9   
9835 1   
9836 5   
9837 9   
9838 1   
9839 1   
9840 10  
9841 3   
9842 2   
9843 9   
9844 1   
9845 7   
9846 5   
9847 6   
9848 68  
9849 4   
9850 5   
9851 69  
9852 10  
9853 8   
9854 8   
9855 4   
9856 2   
9857 8   
9858 50  
9859 57  
9860 8   
9861 75  
9862 6   
9863 4   
9864 2   
9865 4   
9866 6   
9867 3   
9868 2   
9869 9   
9870 3   
9871 1   
9872 2   
9873 5   
9874 1   
9875 4   
9876 9   
9877 4   
9878 5   
9879 10  
9880 3   
9881 2   
9882 6   
9883 10  
9884 10  
9885 2   
9886 6   
9887 2   
9888 10  
9889 10  
9890 8   
9891 4   
9892 61  
9893 97  
9894 4   
9895 2   
9896 53  
9897 4   
9898 8   
9899 8   
9900 80  
9901 7   
9902 7   
9903 9   
9904 5   
9905 3   
9906 88  
9907 1   
9908 5   
9909 5   
9910 6   
9911 2   
9912 5   
9913 8   
9914 10  
9915 10  
9916 6   
9917 4   
9918 1   
9919 3   
9920 4   
9921 6   
9922 5   
9923 9   
9924 6   
9925 2   
9926 9   
9927 2   
9928 5   
9929 7   
9930 2   
9931 82  
9932 10  
9933 4   
9934 9   
9935 6   
9936 6   
9937 4   
9938 4   
9939 4   
9940 2   
9941 3   
9942 66  
9943 6   
9944 9   
9945 10  
9946 1   
9947 4   
9948 5   
9949 1   
9950 7   
9951 2   
9952 9   
9953 97  
9954 1   
9955 68  
9956 2   
9957 6   
9958 5   
9959 6   
9960 5   
9961 1   
9962 6   
9963 8   
9964 9   
9965 91  
9966 4   
9967 1   
9968 3   
9969 5   
9970 50  
9971 10  
9972 6   
9973 1   
9974 76  
9975 9   
9976 1   
9977 1   
9978 6   
9979 63  
9980 9   
9981 3   
9982 56  
9983 5   
9984 5   
9985 4   
9986 85  
9987 10  
9988 8   
9989 9   
9990 85  
9991 6   
9992 8   
9993 10  
9994 9   
9995 6   
9996 3   
9997 2   
9998 6   
9999 3   
10000 5   
10001 10  
10002 3   
10003 3   
10004 74  
10005 70  
10006 5   
10007 5   
10008 4   
10009 7   
10010 10  
10011 5   
10012 6   
10013 8   
10014 10  
10015 9   
10016 3   
10017 8   
10018 1   
10019 7   
10020 8   
10021 3   
10022 8   
10023 9   
10024 7   
10025 7   
10026 2   
10027 66  
10028 8   
10029 6   
10030 7   
10031 7   
10032 9   
10033 59  
10034 10  
10035 4   
10036 65  
10037 70  
10038 6   
10039 5   
10040 5   
10041 7   
10042 86  
10043 53  
10044 91  
10045 9   
10046 7   
10047 95  
10048 4   
10049 86  
10050 8   
10051 7   
10052 1   
10053 9   
10054 6   
10055 5   
10056 3   
10057 6   
10058 7   
10059 7   
10060 2   
10061 6   
10062 75  
10063 4   
10064 10  
10065 8   
10066 3   
10067 1   
10068 10  
10069 2   
10070 4   
10071 4   
10072 74  
10073 7   
10074 3   
10075 5   
10076 8   
10077 75  
10078 8   
10079 3   
10080 7   
10081 5   
10082 8   
10083 6   
10084 71  
10085 5   
10086 2   
10087 1   
10088 6   
10089 5   
10090 3   
10091 64  
10092 87  
10093 4   
10094 5   
10095 97  
10096 8   
10097 7   
10098 7   
10099 62  
10100 3   
10101 7   
10102 77  
10103 1   
10104 96  
10105 67  
10106 2   
10107 2   
10108 3   
10109 77  
10110 3   
10111 6   
10112 1   
10113 8   
10114 9   
10115 88  
10116 2   
10117 87  
10118 7   
10119 8   
10120 1   
10121 4   
10122 3   
10123 7   
10124 9   
10125 6   
10126 4   
10127 10  
10128 2   
10129 54  
10130 95  
10131 8   
10132 10  
10133 1   
10134 2   
10135 8   
10136 10  
10137 3   
10138 1   
10139 3   
10140 2   
10141 1   
10142 4   
10143 6   
10144 9   
10145 5   
10146 5   
10147 1   
10148 6   
10149 9   
10150 8   
10151 6   
10152 7   
10153 5   
10154 9   
10155 1   
10156 6   
10157 9   
10158 4   
10159 5   
10160 51  
10161 78  
10162 7   
10163 4   
10164 67  
10165 7   
10166 3   
10167 61  
10168 3   
10169 3   
10170 9   
10171 4   
10172 5   
10173 5   
10174 3   
10175 67  
10176 9   
10177 9   
10178 94  
10179 5   
10180 4   
10181 2   
10182 2   
10183 6   
10184 4   
10185 1   
10186 8   
10187 8   
10188 8   
10189 10  
10190 9   
10191 1   
10192 1   
10193 4   
10194 9   
10195 1   
10196 9   
10197 7   
10198 92  
10199 10  
10200 5   
10201 1   
10202 7   
10203 9   
10204 2   
10205 2   
10206 2   
10207 4   
10208 7   
10209 3   
10210 2   
10211 90  
10212 2   
10213 1   
10214 99  
10215 9   
10216 10  
10217 74  
10218 59  
10219 9   
10220 6   
10221 3   
10222 87  
10223 1   
10224 2   
10225 74  
10226 3   
10227 1   
10228 6   
10229 72  
10230 3   
10231 5   
10232 10  
10233 6   
10234 2   
10235 1   
10236 4   
10237 2   
10238 8   
10239 7   
10240 4   
10241 4   
10242 2   
10243 7   
10244 7   
10245 50  
10246 8   
10247 2   
10248 1   
10249 10  
10250 10  
10251 2   
10252 77  
10253 9   
10254 53  
10255 2   
10256 5   
10257 5   
10258 5   
10259 99  
10260 9   
10261 2   
10262 1   
10263 1   
10264 1   
10265 7   
10266 6   
10267 5   
10268 53  
10269 1   
10270 10  
10271 2   
10272 9   
10273 4   
10274 10  
10275 1   
10276 9   
10277 8   
10278 4   
10279 2   
10280 10  
10281 1   
10282 72  
10283 4   
10284 1   
10285 3   
10286 99  
10287 4   
10288 6   
10289 4   
10290 84  
10291 1   
10292 1   
10293 52  
10294 6   
10295 6   
10296 2   
10297 8   
10298 70  
10299 7   
10300 9   
10301 62  
10302 53  
10303 5   
10304 3   
10305 8   
10306 5   
10307 9   
10308 98  
10309 7   
10310 1   
10311 5   
10312 4   
10313 52  
10314 3   
10315 5   
10316 1   
10317 1   
10318 10  
10319 1   
10320 61  
10321 9   
10322 7   
10323 3   
10324 1   
10325 5   
10326 8   
10327 3   
10328 9   
10329 1   
10330 5   
10331 5   
10332 93  
10333 8   
10334 3   
10335 1   
10336 1   
10337 3   
10338 66  
10339 9   
10340 6   
10341 2   
10342 5   
10343 10  
10344 8   
10345 7   
10346 91  
10347 8   
10348 51  
10349 8   
10350 5   
10351 56  
10352 1   
10353 2   
10354 6   
10355 8   
10356 6   
10357 4   
10358 9   
10359 8   
10360 9   
10361 3   
10362 5   
10363 4   
10364 8   
10365 82  
10366 2   
10367 8   
10368 2   
10369 6   
10370 1   
10371 4   
10372 9   
10373 3   
10374 2   
10375 4   
10376 3   
10377 2   
10378 3   
10379 2   
10380 5   
10381 3   
10382 51  
10383 7   
10384 4   
10385 4   
10386 4   
10387 98  
10388 9   
10389 1   
10390 8   
10391 2   
10392 70  
10393 5   
10394 81  
10395 97  
10396 3   
10397 6   
10398 50  
10399 1   
10400 8   
10401 58  
10402 4   
10403 5   
10404 10  
10405 82  
10406 1   
10407 2   
10408 9   
10409 4   
10410 1   
10411 82  
10412 1   
10413 2   
10414 7   
10415 9   
10416 10  
10417 51  
10418 1   
10419 9   
10420 1   
10421 6   
10422 9   
10423 2   
10424 4   
10425 3   
10426 6   
10427 2   
10428 7   
10429 2   
10430 2   
10431 9   
10432 2   
10433 6   
10434 59  
10435 100 
10436 1   
10437 8   
10438 7   
10439 7   
10440 8   
10441 9   
10442 7   
10443 2   
10444 7   
10445 1   
10446 8   
10447 54  
10448 6   
10449 10  
10450 3   
10451 2   
10452 9   
10453 5   
10454 7   
10455 69  
10456 7   
10457 74  
10458 99  
10459 10  
10460 95  
10461 68  
10462 100 
10463 2   
10464 1   
10465 93  
10466 2   
10467 2   
10468 6   
10469 1   
10470 9   
10471 8   
10472 9   
10473 8   
10474 8   
10475 8   
10476 5   
10477 3   
10478 8   
10479 4   
10480 2   
10481 8   
10482 2   
10483 8   
10484 6   
10485 53  
10486 5   
10487 3   
10488 1   
10489 87  
10490 7   
10491 8   
10492 9   
10493 2   
10494 82  
10495 9   
10496 1   
10497 10  
10498 9   
10499 4   
10500 7   
10501 3   
10502 10  
10503 7   
10504 8   
10505 8   
10506 9   
10507 6   
10508 8   
10509 2   
10510 7   
10511 9   
10512 7   
10513 6   
10514 71  
10515 2   
10516 4   
10517 4   
10518 8   
10519 8   
10520 5   
10521 8   
10522 2   
10523 99  
10524 10  
10525 3   
10526 9   
10527 3   
10528 94  
10529 57  
10530 5   
10531 7   
10532 4   
10533 8   
10534 54  
10535 85  
10536 81  
10537 8   
10538 5   
10539 10  
10540 4   
10541 2   
10542 9   
10543 7   
10544 3   
10545 5   
10546 4   
10547 9   
10548 6   
10549 4   
10550 56  
10551 6   
10552 8   
10553 2   
10554 89  
10555 10  
10556 89  
10557 5   
10558 4   
10559 9   
10560 6   
10561 6   
10562 2   
10563 8   
10564 84  
10565 7   
10566 1   
10567 98  
10568 90  
10569 9   
10570 6   
10571 6   
10572 92  
10573 3   
10574 5   
10575 6   
10576 70  
10577 10  
10578 10  
10579 6   
10580 1   
10581 6   
10582 4   
10583 74  
10584 61  
10585 6   
10586 94  
10587 4   
10588 10  
10589 100 
10590 5   
10591 4   
10592 5   
10593 10  
10594 10  
10595 9   
10596 8   
10597 2   
10598 6   
10599 7   
10600 2   
10601 5   
10602 3   
10603 6   
10604 7   
10605 1   
10606 5   
10607 95  
10608 2   
10609 9   
10610 9   
10611 59  
10612 1   
10613 10  
10614 7   
10615 75  
10616 7   
10617 1   
10618 3   
10619 5   
10620 57  
10621 9   
10622 3   
10623 4   
10624 79  
10625 4   
10626 3   
10627 7   
10628 51  
10629 88  
10630 10  
10631 80  
10632 2   
10633 6   
10634 4   
10635 91  
10636 10  
10637 3   
10638 10  
10639 6   
10640 9   
10641 6   
10642 1   
10643 9   
10644 63  
10645 80  
10646 6   
10647 10  
10648 10  
10649 10  
10650 6   
10651 4   
10652 6   
10653 3   
10654 8   
10655 8   
10656 5   
10657 6   
10658 1   
10659 10  
10660 91  
10661 2   
10662 8   
10663 10  
10664 2   
10665 1   
10666 8   
10667 9   
10668 5   
10669 9   
10670 2   
10671 4   
10672 6   
10673 52  
10674 10  
10675 4   
10676 10  
10677 3   
10678 7   
10679 5   
10680 9   
10681 6   
10682 5   
10683 4   
10684 2   
10685 76  
10686 7   
10687 9   
10688 7   
10689 2   
10690 10  
10691 6   
10692 6   
10693 8   
10694 3   
10695 72  
10696 58  
10697 3   
10698 2   
10699 4   
10700 76  
10701 1   
10702 7   
10703 2   
10704 7   
10705 2   
10706 5   
10707 3   
10708 3   
10709 9   
10710 1   
10711 10  
10712 90  
10713 5   
10714 55  
10715 89  
10716 8   
10717 66  
10718 2   
10719 7   
10720 1   
10721 100 
10722 5   
10723 5   
10724 91  
10725 4   
10726 5   
10727 4   
10728 9   
10729 10  
10730 5   
10731 3   
10732 4   
10733 10  
10734 84  
10735 8   
10736 57  
10737 7   
10738 4   
10739 85  
10740 53  
10741 4   
10742 7   
10743 6   
10744 1   
10745 4   
10746 94  
10747 61  
10748 99  
10749 91  
10750 2   
10751 9   
10752 4   
10753 6   
10754 6   
10755 5   
10756 3   
10757 72  
10758 6   
10759 1   
10760 8   
10761 10  
10762 8   
10763 5   
10764 6   
10765 8   
10766 5   
10767 10  
10768 6   
10769 2   
10770 3   
10771 8   
10772 85  
10773 1   
10774 3   
10775 4   
10776 63  
10777 1   
10778 3   
10779 7   
10780 2   
10781 8   
10782 60  
10783 9   
10784 9   
10785 5   
10786 74  
10787 9   
10788 7   
10789 6   
10790 5   
10791 3   
10792 1   
10793 3   
10794 10  
10795 6   
10796 3   
10797 8   
10798 9   
10799 10  
10800 4   
10801 10  
10802 5   
10803 79  
10804 9   
10805 5   
10806 7   
10807 4   
10808 9   
10809 51  
10810 6   
10811 6   
10812 1   
10813 10  
10814 5   
10815 3   
10816 4   
10817 1   
10818 53  
10819 78  
10820 4   
10821 92  
10822 71  
10823 8   
10824 6   
10825 3   
10826 9   
10827 7   
10828 54  
10829 10  
10830 9   
10831 61  
10832 6   
10833 6   
10834 7   
10835 2   
10836 2   
10837 7   
10838 1   
10839 6   
10840 2   
10841 53  
10842 7   
10843 1   
10844 6   
10845 4   
10846 2   
10847 10  
10848 4   
10849 5   
10850 5   
10851 52  
10852 4   
10853 76  
10854 81  
10855 3   
10856 2   
10857 4   
10858 4   
10859 9   
10860 64  
10861 3   
10862 2   
10863 10  
10864 9   
10865 3   
10866 10  
10867 3   
10868 60  
10869 90  
10870 6   
10871 9   
10872 76  
10873 6   
10874 3   
10875 5   
10876 6   
10877 5   
10878 9   
10879 86  
10880 6   
10881 3   
10882 5   
10883 4   
10884 10  
10885 5   
10886 98  
10887 6   
10888 2   
10889 1   
10890 3   
10891 95  
10892 2   
10893 7   
10894 5   
10895 56  
10896 3   
10897 5   
10898 52  
10899 62  
10900 10  
10901 4   
10902 1   
10903 98  
10904 10  
10905 92  
10906 4   
10907 1   
10908 3   
10909 10  
10910 5   
10911 78  
10912 2   
10913 10  
10914 88  
10915 4   
10916 78  
10917 1   
10918 1   
10919 5   
10920 3   
10921 9   
10922 6   
10923 6   
10924 3   
10925 72  
10926 5   
10927 8   
10928 7   
10929 9   
10930 1   
10931 59  
10932 2   
10933 1   
10934 6   
10935 6   
10936 8   
10937 2   
10938 8   
10939 9   
10940 4   
10941 9   
10942 73  
10943 8   
10944 64  
10945 4   
10946 4   
10947 4   
10948 8   
10949 7   
10950 6   
10951 3   
10952 3   
10953 3   
10954 59  
10955 4   
10956 9   
10957 3   
10958 8   
10959 78  
10960 1   
10961 2   
10962 4   
10963 53  
10964 4   
10965 6   
10966 8   
10967 9   
10968 9   
10969 54  
10970 4   
10971 9   
10972 6   
10973 9   
10974 6   
10975 92  
10976 7   
10977 10  
10978 3   
10979 8   
10980 8   
10981 4   
10982 9   
10983 5   
10984 58  
10985 98  
10986 1   
10987 7   
10988 9   
10989 10  
10990 6   
10991 79  
10992 7   
10993 3   
10994 3   
10995 3   
10996 2   
10997 9   
10998 10  
10999 9   
11000 7   
11001 3   
11002 1   
11003 3   
11004 5   
11005 2   
11006 3   
11007 1   
11008 86  
11009 1   
11010 58  
11011 5   
11012 3   
11013 9   
11014 64  
11015 6   
11016 7   
11017 7   
11018 8   
11019 6   
11020 8   
11021 10  
11022 5   
11023 98  
11024 4   
11025 6   
11026 1   
11027 10  
11028 80  
11029 3   
11030 84  
11031 10  
11032 9   
11033 7   
11034 3   
11035 10  
11036 4   
11037 7   
11038 1   
11039 9   
11040 10  
11041 7   
11042 83  
11043 7   
11044 6   
11045 2   
11046 4   
11047 9   
11048 93  
11049 8   
11050 4   
11051 2   
11052 100 
11053 67  
11054 2   
11055 80  
11056 7   
11057 1   
11058 60  
11059 3   
11060 4   
11061 52  
11062 6   
11063 1   
11064 6   
11065 73  
11066 55  
11067 10  
11068 9   
11069 10  
11070 4   
11071 8   
11072 1   
11073 10  
11074 10  
11075 4   
11076 10  
11077 3   
11078 2   
11079 1   
11080 6   
11081 5   
11082 4   
11083 85  
11084 92  
11085 5   
11086 6   
11087 54  
11088 6   
11089 10  
11090 2   
11091 99  
11092 10  
11093 10  
11094 5   
11095 5   
11096 10  
11097 78  
11098 6   
11099 5   
11100 85  
11101 76  
11102 5   
11103 65  
11104 10  
11105 10  
11106 66  
11107 66  
11108 8   
11109 4   
11110 9   
11111 62  
11112 7   
11113 8   
11114 8   
11115 2   
11116 1   
11117 96  
11118 5   
11119 9   
11120 6   
11121 7   
11122 58  
11123 2   
11124 8   
11125 2   
11126 3   
11127 2   
11128 7   
11129 71  
11130 2   
11131 7   
11132 6   
11133 10  
11134 8   
11135 8   
11136 3   
11137 66  
11138 6   
11139 5   
11140 3   
11141 89  
11142 2   
11143 92  
11144 3   
11145 1   
11146 6   
11147 56  
11148 8   
11149 1   
11150 3   
11151 7   
11152 5   
11153 2   
11154 3   
11155 6   
11156 6   
11157 2   
11158 5   
11159 1   
11160 3   
11161 6   
11162 5   
11163 5   
11164 8   
11165 3   
11166 10  
11167 100 
11168 6   
11169 9   
11170 8   
11171 6   
11172 10  
11173 2   
11174 7   
11175 9   
11176 77  
11177 3   
11178 3   
11179 6   
11180 7   
11181 1   
11182 3   
11183 8   
11184 3   
11185 2   
11186 5   
11187 7   
11188 6   
11189 8   
11190 8   
11191 5   
11192 6   
11193 3   
11194 4   
11195 9   
11196 98  
11197 6   
11198 3   
11199 4   
11200 2   
11201 9   
11202 9   
11203 8   
11204 7   
11205 4   
11206 6   
11207 8   
11208 80  
11209 3   
11210 4   
11211 10  
11212 10  
11213 8   
11214 9   
11215 54  
11216 1   
11217 1   
11218 10  
11219 4   
11220 1   
11221 8   
11222 7   
11223 8   
11224 6   
11225 7   
11226 7   
11227 4   
11228 6   
11229 8   
11230 6   
11231 4   
11232 61  
11233 10  
11234 10  
11235 4   
11236 4   
11237 9   
11238 8   
11239 10  
11240 5   
11241 9   
11242 2   
11243 68  
11244 3   
11245 9   
11246 9   
11247 2   
11248 88  
11249 5   
11250 6   
11251 6   
11252 54  
11253 5   
11254 3   
11255 75  
11256 2   
11257 2   
11258 6   
11259 94  
11260 9   
11261 3   
11262 2   
11263 4   
11264 5   
11265 1   
11266 4   
11267 7   
11268 2   
11269 86  
11270 87  
11271 2   
11272 65  
11273 3   
11274 4   
11275 8   
11276 2   
11277 6   
11278 4   
11279 10  
11280 84  
11281 95  
11282 2   
11283 5   
11284 10  
11285 6   
11286 9   
11287 4   
11288 5   
11289 77  
11290 9   
11291 10  
11292 5   
11293 78  
11294 7   
11295 84  
11296 5   
11297 2   
11298 5   
11299 4   
11300 3   
11301 5   
11302 6   
11303 2   
11304 3   
11305 7   
11306 9   
11307 7   
11308 10  
11309 5   
11310 2   
11311 4   
11312 5   
11313 7   
11314 7   
11315 84  
11316 3   
11317 84  
11318 3   
11319 2   
11320 10  
11321 5   
11322 88  
11323 4   
11324 8   
11325 6   
11326 4   
11327 1   
11328 7   
11329 4   
11330 2   
11331 4   
11332 5   
11333 7   
11334 6   
11335 10  
11336 9   
11337 7   
11338 3   
11339 2   
11340 1   
11341 6   
11342 1   
11343 96  
11344 4   
11345 2   
11346 2   
11347 8   
11348 58  
11349 8   
11350 9   
11351 75  
11352 2   
11353 78  
11354 2   
11355 3   
11356 87  
11357 4   
11358 5   
11359 10  
11360 8   
11361 5   
11362 9   
11363 75  
11364 9   
11365 2   
11366 6   
11367 10  
11368 1   
11369 8   
11370 85  
11371 84  
11372 6   
11373 10  
11374 10  
11375 6   
11376 2   
11377 9   
11378 4   
11379 4   
11380 4   
11381 5   
11382 4   
11383 4   
11384 8   
11385 8   
11386 4   
11387 8   
11388 4   
11389 4   
11390 1   
11391 5   
11392 71  
11393 6   
11394 77  
11395 8   
11396 3   
11397 6   
11398 3   
11399 60  
11400 2   
11401 96  
11402 1   
11403 8   
11404 5   
11405 4   
11406 7   
11407 1   
11408 7   
11409 8   
11410 5   
11411 7   
11412 9   
11413 93  
11414 5   
11415 9   
11416 4   
11417 6   
11418 3   
11419 2   
11420 8   
11421 4   
11422 4   
11423 2   
11424 2   
11425 3   
11426 2   
11427 8   
11428 7   
11429 7   
11430 7   
11431 8   
11432 2   
11433 80  
11434 8   
11435 52  
11436 2   
11437 4   
11438 5   
11439 4   
11440 10  
11441 67  
11442 4   
11443 9   
11444 5   
11445 9   
11446 62  
11447 7   
11448 8   
11449 4   
11450 2   
11451 86  
11452 4   
11453 9   
11454 9   
11455 4   
11456 1   
11457 96  
11458 5   
11459 8   
11460 9   
11461 1   
11462 5   
11463 10  
11464 6   
11465 10  
11466 56  
11467 6   
11468 3   
11469 5   
11470 1   
11471 6   
11472 5   
11473 84  
11474 5   
11475 94  
11476 62  
11477 10  
11478 7   
11479 8   
11480 100 
11481 1   
11482 2   
11483 1   
11484 4   
11485 2   
11486 6   
11487 2   
11488 7   
11489 7   
11490 3   
11491 5   
11492 95  
11493 10  
11494 4   
11495 51  
11496 5   
11497 87  
11498 5   
11499 2   
11500 5   
11501 10  
11502 10  
11503 2   
11504 85  
11505 2   
11506 55  
11507 2   
11508 3   
11509 8   
11510 7   
11511 8   
11512 3   
11513 4   
11514 54  
11515 1   
11516 54  
11517 3   
11518 67  
11519 7   
11520 2   
11521 4   
11522 68  
11523 6   
11524 3   
11525 5   
11526 8   
11527 10  
11528 9   
11529 3   
11530 10  
11531 7   
11532 87  
11533 7   
11534 2   
11535 7   
11536 2   
11537 68  
11538 97  
11539 95  
11540 70  
11541 10  
11542 90  
11543 55  
11544 59  
11545 53  
11546 5   
11547 4   
11548 3   
11549 8   
11550 4   
11551 8   
11552 93  
11553 3   
11554 4   
11555 3   
11556 84  
11557 7   
11558 8   
11559 85  
11560 1   
11561 61  
11562 54  
11563 7   
11564 10  
11565 10  
11566 10  
11567 2   
11568 1   
11569 9   
11570 9   
11571 9   
11572 2   
11573 10  
11574 86  
11575 4   
11576 10  
11577 4   
11578 4   
11579 10  
11580 2   
11581 10  
11582 81  
11583 6   
11584 90  
11585 2   
11586 8   
11587 5   
11588 1   
11589 85  
11590 7   
11591 7   
11592 10  
11593 9   
11594 8   
11595 5   
11596 4   
11597 84  
11598 1   
11599 62  
11600 9   
11601 2   
11602 91  
11603 10  
11604 9   
11605 8   
11606 7   
11607 74  
11608 71  
11609 3   
11610 8   
11611 2   
11612 9   
11613 8   
11614 5   
11615 1   
11616 10  
11617 78  
11618 3   
11619 95  
11620 10  
11621 63  
11622 8   
11623 4   
11624 1   
11625 94  
11626 2   
11627 4   
11628 7   
11629 1   
11630 99  
11631 10  
11632 9   
11633 3   
11634 6   
11635 4   
11636 6   
11637 5   
11638 7   
11639 3   
11640 6   
11641 10  
11642 8   
11643 2   
11644 6   
11645 7   
11646 6   
11647 6   
11648 7   
11649 5   
11650 4   
11651 7   
11652 9   
11653 9   
11654 8   
11655 53  
11656 1   
11657 3   
11658 77  
11659 73  
11660 3   
11661 80  
11662 3   
11663 2   
11664 8   
11665 10  
11666 86  
11667 3   
11668 3   
11669 8   
11670 8   
11671 8   
11672 1   
11673 3   
11674 8   
11675 1   
11676 3   
11677 3   
11678 6   
11679 9   
11680 8   
11681 4   
11682 85  
11683 81  
11684 5   
11685 5   
11686 6   
11687 4   
11688 2   
11689 8   
11690 3   
11691 65  
11692 93  
11693 7   
11694 54  
11695 3   
11696 3   
11697 98  
11698 10  
11699 88  
11700 7   
11701 10  
11702 6   
11703 2   
11704 1   
11705 1   
11706 3   
11707 3   
11708 9   
11709 2   
11710 10  
11711 6   
11712 10  
11713 3   
11714 81  
11715 57  
11716 53  
11717 1   
11718 53  
11719 10  
11720 6   
11721 1   
11722 2   
11723 8   
11724 2   
11725 5   
11726 2   
11727 3   
11728 4   
11729 2   
11730 6   
11731 8   
11732 1   
11733 1   
11734 10  
11735 50  
11736 7   
11737 1   
11738 2   
11739 4   
11740 9   
11741 92  
11742 83  
11743 65  
11744 71  
11745 3   
11746 92  
11747 7   
11748 2   
11749 72  
11750 66  
11751 3   
11752 6   
11753 91  
11754 67  
11755 4   
11756 96  
11757 9   
11758 7   
11759 10  
11760 5   
11761 7   
11762 8   
11763 67  
11764 9   
11765 53  
11766 4   
11767 5   
11768 1   
11769 6   
11770 1   
11771 2   
11772 7   
11773 6   
11774 1   
11775 2   
11776 7   
11777 10  
11778 5   
11779 9   
11780 6   
11781 7   
11782 8   
11783 8   
11784 7   
11785 6   
11786 4   
11787 8   
11788 5   
11789 2   
11790 9   
11791 5   
11792 53  
11793 5   
11794 8   
11795 2   
11796 10  
11797 3   
11798 8   
11799 68  
11800 3   
11801 5   
11802 5   
11803 2   
11804 100 
11805 5   
11806 5   
11807 59  
11808 8   
11809 1   
11810 7   
11811 4   
11812 8   
11813 2   
11814 1   
11815 6   
11816 9   
11817 2   
11818 8   
11819 6   
11820 2   
11821 9   
11822 7   
11823 70  
11824 8   
11825 6   
11826 8   
11827 6   
11828 5   
11829 6   
11830 3   
11831 10  
11832 1   
11833 9   
11834 9   
11835 1   
11836 1   
11837 5   
11838 2   
11839 9   
11840 2   
11841 8   
11842 2   
11843 71  
11844 6   
11845 8   
11846 6   
11847 7   
11848 1   
11849 4   
11850 2   
11851 8   
11852 67  
11853 2   
11854 2   
11855 3   
11856 4   
11857 9   
11858 8   
11859 10  
11860 5   
11861 6   
11862 6   
11863 9   
11864 5   
11865 3   
11866 86  
11867 6   
11868 4   
11869 6   
11870 97  
11871 7   
11872 52  
11873 3   
11874 6   
11875 10  
11876 7   
11877 83  
11878 4   
11879 50  
11880 3   
11881 3   
11882 9   
11883 5   
11884 6   
11885 63  
11886 2   
11887 10  
11888 99  
11889 9   
11890 2   
11891 2   
11892 9   
11893 1   
11894 3   
11895 9   
11896 1   
11897 10  
11898 4   
11899 97  
11900 4   
11901 84  
11902 1   
11903 5   
11904 9   
11905 9   
11906 82  
11907 5   
11908 51  
11909 3   
11910 3   
11911 4   
11912 86  
11913 2   
11914 10  
11915 1   
11916 7   
11917 65  
11918 7   
11919 70  
11920 4   
11921 10  
11922 4   
11923 83  
11924 3   
11925 98  
11926 8   
11927 6   
11928 66  
11929 3   
11930 8   
11931 7   
11932 4   
11933 4   
11934 8   
11935 10  
11936 3   
11937 9   
11938 4   
11939 82  
11940 54  
11941 86  
11942 86  
11943 61  
11944 95  
11945 8   
11946 62  
11947 1   
11948 5   
11949 63  
11950 84  
11951 87  
11952 98  
11953 10  
11954 72  
11955 4   
11956 7   
11957 8   
11958 4   
11959 3   
11960 3   
11961 3   
11962 8   
11963 1   
11964 7   
11965 77  
11966 3   
11967 93  
11968 6   
11969 3   
11970 4   
11971 3   
11972 91  
11973 2   
11974 2   
11975 5   
11976 10  
11977 6   
11978 7   
11979 1   
11980 4   
11981 10  
11982 5   
11983 66  
11984 99  
11985 100 
11986 75  
11987 5   
11988 6   
11989 79  
11990 68  
11991 8   
11992 8   
11993 1   
11994 88  
11995 10  
11996 87  
11997 8   
11998 84  
11999 7   
12000 6   
12001 7   
12002 5   
12003 73  
12004 5   
12005 71  
12006 7   
12007 8   
12008 9   
12009 1   
12010 94  
12011 9   
12012 10  
12013 10  
12014 4   
12015 4   
12016 8   
12017 10  
12018 2   
12019 70  
12020 3   
12021 5   
12022 69  
12023 7   
12024 2   
12025 2   
12026 7   
12027 97  
12028 4   
12029 2   
12030 80  
12031 4   
12032 1   
12033 5   
12034 5   
12035 7   
12036 9   
12037 8   
12038 4   
12039 9   
12040 5   
12041 4   
12042 84  
12043 9   
12044 1   
12045 5   
12046 6   
12047 1   
12048 69  
12049 2   
12050 10  
12051 58  
12052 90  
12053 6   
12054 7   
12055 1   
12056 4   
12057 3   
12058 9   
12059 1   
12060 6   
12061 4   
12062 77  
12063 2   
12064 92  
12065 3   
12066 9   
12067 6   
12068 9   
12069 2   
12070 5   
12071 5   
12072 6   
12073 53  
12074 7   
12075 10  
12076 6   
12077 10  
12078 2   
12079 77  
12080 6   
12081 4   
12082 96  
12083 1   
12084 80  
12085 76  
12086 61  
12087 5   
12088 69  
12089 7   
12090 5   
12091 7   
12092 7   
12093 58  
12094 81  
12095 7   
12096 5   
12097 79  
12098 4   
12099 2   
12100 98  
12101 2   
12102 10  
12103 8   
12104 2   
12105 4   
12106 65  
12107 80  
12108 4   
12109 3   
12110 91  
12111 10  
12112 6   
12113 91  
12114 8   
12115 9   
12116 6   
12117 1   
12118 99  
12119 1   
12120 9   
12121 5   
12122 4   
12123 2   
12124 80  
12125 7   
12126 5   
12127 4   
12128 1   
12129 4   
12130 4   
12131 2   
12132 3   
12133 4   
12134 90  
12135 4   
12136 2   
12137 8   
12138 9   
12139 4   
12140 62  
12141 3   
12142 3   
12143 4   
12144 10  
12145 5   
12146 5   
12147 57  
12148 8   
12149 4   
12150 5   
12151 7   
12152 9   
12153 64  
12154 2   
12155 9   
12156 10  
12157 4   
12158 9   
12159 5   
12160 9   
12161 7   
12162 8   
12163 10  
12164 4   
12165 97  
12166 52  
12167 8   
12168 5   
12169 7   
12170 8   
12171 8   
12172 3   
12173 62  
12174 9   
12175 4   
12176 1   
12177 10  
12178 10  
12179 8   
12180 99  
12181 6   
12182 2   
12183 6   
12184 60  
12185 92  
12186 10  
12187 94  
12188 5   
12189 56  
12190 2   
12191 6   
12192 3   
12193 4   
12194 10  
12195 1   
12196 1   
12197 81  
12198 6   
12199 7   
12200 3   
12201 6   
12202 87  
12203 1   
12204 1   
12205 9   
12206 75  
12207 9   
12208 2   
12209 5   
12210 2   
12211 7   
12212 84  
12213 9   
12214 10  
12215 4   
12216 6   
12217 5   
12218 9   
12219 6   
12220 3   
12221 4   
12222 3   
12223 7   
12224 59  
12225 4   
12226 2   
12227 7   
12228 5   
12229 7   
12230 6   
12231 2   
12232 4   
12233 9   
12234 5   
12235 2   
12236 5   
12237 8   
12238 57  
12239 66  
12240 3   
12241 5   
12242 5   
12243 9   
12244 9   
12245 3   
12246 62  
12247 7   
12248 5   
12249 4   
12250 3   
12251 5   
12252 86  
12253 1   
12254 6   
12255 10  
12256 83  
12257 9   
12258 95  
12259 94  
12260 10  
12261 3   
12262 9   
12263 100 
12264 81  
12265 2   
12266 4   
12267 1   
12268 6   
12269 8   
12270 3   
12271 9   
12272 84  
12273 3   
12274 80  
12275 8   
12276 3   
12277 8   
12278 10  
12279 3   
12280 4   
12281 95  
12282 1   
12283 1   
12284 3   
12285 10  
12286 77  
12287 10  
12288 6   
12289 4   
12290 4   
12291 10  
12292 3   
12293 68  
12294 2   
12295 10  
12296 3   
12297 3   
12298 1   
12299 2   
12300 3   
12301 88  
12302 82  
12303 10  
12304 7   
12305 10  
12306 7   
12307 85  
12308 8   
12309 61  
12310 9   
12311 3   
12312 10  
12313 9   
12314 74  
12315 61  
12316 4   
12317 3   
12318 3   
12319 3   
12320 6   
12321 1   
12322 2   
12323 2   
12324 4   
12325 3   
12326 4   
12327 5   
12328 10  
12329 4   
12330 5   
12331 3   
12332 6   
12333 7   
12334 83  
12335 80  
12336 56  
12337 3   
12338 10  
12339 3   
12340 3   
12341 6   
12342 5   
12343 9   
12344 1   
12345 1   
12346 3   
12347 4   
12348 1   
12349 8   
12350 84  
12351 86  
12352 98  
12353 6   
12354 4   
12355 3   
12356 1   
12357 6   
12358 10  
12359 72  
12360 7   
12361 4   
12362 69  
12363 5   
12364 8   
12365 3   
12366 5   
12367 97  
12368 7   
12369 4   
12370 3   
12371 7   
12372 10  
12373 66  
12374 9   
12375 90  
12376 9   
12377 5   
12378 86  
12379 9   
12380 7   
12381 86  
12382 7   
12383 8   
12384 10  
12385 7   
12386 6   
12387 8   
12388 1   
12389 3   
12390 10  
12391 4   
12392 1   
12393 4   
12394 2   
12395 9   
12396 1   
12397 2   
12398 2   
12399 2   
12400 4   
12401 1   
12402 6   
12403 3   
12404 1   
12405 10  
12406 10  
12407 10  
12408 3   
12409 10  
12410 8   
12411 91  
12412 4   
12413 96  
12414 5   
12415 10  
12416 3   
12417 6   
12418 6   
12419 6   
12420 9   
12421 8   
12422 56  
12423 9   
12424 76  
12425 92  
12426 8   
12427 6   
12428 5   
12429 10  
12430 3   
12431 4   
12432 9   
12433 6   
12434 10  
12435 5   
12436 4   
12437 67  
12438 8   
12439 5   
12440 86  
12441 69  
12442 3   
12443 1   
12444 82  
12445 1   
12446 10  
12447 4   
12448 2   
12449 7   
12450 50  
12451 6   
12452 81  
12453 7   
12454 95  
12455 4   
12456 8   
12457 2   
12458 1   
12459 7   
12460 8   
12461 4   
12462 7   
12463 7   
12464 3   
12465 6   
12466 70  
12467 9   
12468 55  
12469 10  
12470 9   
12471 6   
12472 6   
12473 2   
12474 77  
12475 3   
12476 2   
12477 1   
12478 77  
12479 5   
12480 68  
12481 6   
12482 98  
12483 59  
12484 2   
12485 72  
12486 3   
12487 1   
12488 3   
12489 9   
12490 58  
12491 5   
12492 56  
12493 8   
12494 1   
12495 51  
12496 3   
12497 5   
12498 96  
12499 6   
12500 96  
12501 57  
12502 6   
12503 5   
12504 7   
12505 10  
12506 54  
12507 5   
12508 8   
12509 5   
12510 76  
12511 91  
12512 55  
12513 8   
12514 10  
12515 9   
12516 87  
12517 9   
12518 1   
12519 8   
12520 7   
12521 1   
12522 79  
12523 7   
12524 4   
12525 10  
12526 1   
12527 2   
12528 1   
12529 99  
12530 10  
12531 9   
12532 7   
12533 1   
12534 9   
12535 2   
12536 91  
12537 74  
12538 68  
12539 2   
12540 9   
12541 64  
12542 55  
12543 5   
12544 85  
12545 4   
12546 4   
12547 5   
12548 2   
12549 6   
12550 65  
12551 5   
12552 99  
12553 3   
12554 10  
12555 62  
12556 3   
12557 2   
12558 7   
12559 5   
12560 10  
12561 9   
12562 8   
12563 6   
12564 9   
12565 1   
12566 5   
12567 6   
12568 87  
12569 6   
12570 6   
12571 3   
12572 6   
12573 10  
12574 4   
12575 3   
12576 2   
12577 74  
12578 8   
12579 3   
12580 4   
12581 4   
12582 5   
12583 70  
12584 5   
12585 7   
12586 6   
12587 7   
12588 8   
12589 4   
12590 9   
12591 5   
12592 10  
12593 61  
12594 5   
12595 10  
12596 8   
12597 56  
12598 50  
12599 3   
12600 3   
12601 1   
12602 9   
12603 2   
12604 5   
12605 7   
12606 10  
12607 2   
12608 1   
12609 8   
12610 1   
12611 64  
12612 86  
12613 4   
12614 1   
12615 7   
12616 6   
12617 52  
12618 8   
12619 5   
12620 5   
12621 2   
12622 9   
12623 5   
12624 10  
12625 85  
12626 8   
12627 7   
12628 77  
12629 86  
12630 4   
12631 5   
12632 81  
12633 2   
12634 7   
12635 10  
12636 7   
12637 6   
12638 78  
12639 7   
12640 2   
12641 9   
12642 2   
12643 2   
12644 7   
12645 2   
12646 1   
12647 6   
12648 9   
12649 5   
12650 91  
12651 5   
12652 7   
12653 2   
12654 63  
12655 66  
12656 3   
12657 2   
12658 5   
12659 89  
12660 54  
12661 7   
12662 2   
12663 9   
12664 2   
12665 4   
12666 7   
12667 5   
12668 58  
12669 10  
12670 3   
12671 3   
12672 7   
12673 1   
12674 10  
12675 8   
12676 95  
12677 10  
12678 5   
12679 6   
12680 96  
12681 1   
12682 6   
12683 9   
12684 2   
12685 3   
12686 10  
12687 9   
12688 10  
12689 5   
12690 1   
12691 3   
12692 4   
12693 1   
12694 1   
12695 5   
12696 2   
12697 78  
12698 8   
12699 10  
12700 4   
12701 5   
12702 68  
12703 10  
12704 3   
12705 8   
12706 9   
12707 64  
12708 8   
12709 68  
12710 4   
12711 5   
12712 10  
12713 7   
12714 1   
12715 4   
12716 4   
12717 96  
12718 9   
12719 4   
12720 4   
12721 3   
12722 5   
12723 7   
12724 8   
12725 2   
12726 5   
12727 7   
12728 93  
12729 7   
12730 2   
12731 5   
12732 89  
12733 10  
12734 10  
12735 1   
12736 69  
12737 9   
12738 1   
12739 65  
12740 8   
12741 8   
12742 94  
12743 10  
12744 7   
12745 5   
12746 3   
12747 5   
12748 1   
12749 7   
12750 1   
12751 84  
12752 52  
12753 9   
12754 3   
12755 4   
12756 7   
12757 5   
12758 6   
12759 4   
12760 1   
12761 6   
12762 10  
12763 4   
12764 8   
12765 8   
12766 1   
12767 9   
12768 93  
12769 86  
12770 5   
12771 68  
12772 5   
12773 3   
12774 10  
12775 3   
12776 6   
12777 9   
12778 4   
12779 4   
12780 5   
12781 7   
12782 1   
12783 10  
12784 2   
12785 6   
12786 52  
12787 4   
12788 7   
12789 2   
12790 7   
12791 6   
12792 10  
12793 10  
12794 8   
12795 4   
12796 7   
12797 7   
12798 3   
12799 10  
12800 3   
12801 2   
12802 74  
12803 57  
12804 7   
12805 9   
12806 9   
12807 85  
12808 9   
12809 84  
12810 68  
12811 7   
12812 3   
12813 1   
12814 55  
12815 4   
12816 1   
12817 2   
12818 1   
12819 54  
12820 8   
12821 4   
12822 5   
12823 2   
12824 77  
12825 4   
12826 56  
12827 4   
12828 7   
12829 6   
12830 3   
12831 5   
12832 2   
12833 10  
12834 5   
12835 1   
12836 99  
12837 3   
12838 7   
12839 71  
12840 91  
12841 6   
12842 5   
12843 5   
12844 5   
12845 5   
12846 7   
12847 65  
12848 4   
12849 2   
12850 6   
12851 9   
12852 73  
12853 79  
12854 8   
12855 1   
12856 66  
12857 8   
12858 8   
12859 10  
12860 84  
12861 5   
12862 4   
12863 1   
12864 3   
12865 9   
12866 2   
12867 7   
12868 10  
12869 9   
12870 3   
12871 6   
12872 81  
12873 7   
12874 53  
12875 8   
12876 70  
12877 2   
12878 7   
12879 62  
12880 56  
12881 8   
12882 62  
12883 68  
12884 56  
12885 1   
12886 1   
12887 1   
12888 8   
12889 1   
12890 7   
12891 1   
12892 1   
12893 4   
12894 73  
12895 100 
12896 10  
12897 2   
12898 7   
12899 2   
12900 6   
12901 1   
12902 6   
12903 3   
12904 7   
12905 9   
12906 79  
12907 3   
12908 8   
12909 3   
12910 2   
12911 1   
12912 1   
12913 87  
12914 6   
12915 5   
12916 8   
12917 4   
12918 7   
12919 67  
12920 74  
12921 1   
12922 1   
12923 5   
12924 8   
12925 6   
12926 4   
12927 6   
12928 55  
12929 8   
12930 64  
12931 10  
12932 6   
12933 2   
12934 7   
12935 8   
12936 2   
12937 5   
12938 9   
12939 10  
12940 4   
12941 1   
12942 4   
12943 8   
12944 83  
12945 5   
12946 1   
12947 3   
12948 10  
12949 3   
12950 8   
12951 2   
12952 74  
12953 2   
12954 8   
12955 4   
12956 99  
12957 1   
12958 3   
12959 66  
12960 8   
12961 10  
12962 8   
12963 78  
12964 63  
12965 10  
12966 3   
12967 1   
12968 10  
12969 1   
12970 1   
12971 1   
12972 3   
12973 7   
12974 8   
12975 1   
12976 73  
12977 84  
12978 79  
12979 10  
12980 64  
12981 5   
12982 6   
12983 10  
12984 9   
12985 8   
12986 8   
12987 8   
12988 96  
12989 4   
12990 8   
12991 2   
12992 5   
12993 1   
12994 80  
12995 73  
12996 1   
12997 7   
12998 4   
12999 7   
13000 10  
13001 9   
13002 94  
13003 90  
13004 67  
13005 2   
13006 7   
13007 6   
13008 6   
13009 10  
13010 95  
13011 5   
13012 8   
13013 4   
13014 7   
13015 10  
13016 63  
13017 5   
13018 5   
13019 55  
13020 4   
13021 2   
13022 2   
13023 9   
13024 2   
13025 3   
13026 88  
13027 10  
13028 8   
13029 7   
13030 2   
13031 86  
13032 5   
13033 93  
13034 68  
13035 5   
13036 9   
13037 7   
13038 7   
13039 7   
13040 8   
13041 91  
13042 1   
13043 6   
13044 97  
13045 10  
13046 1   
13047 7   
13048 9   
13049 9   
13050 10  
13051 6   
13052 6   
13053 1   
13054 1   
13055 96  
13056 7   
13057 10  
13058 8   
13059 9   
13060 5   
13061 6   
13062 8   
13063 7   
13064 4   
13065 8   
13066 1   
13067 1   
13068 3   
13069 6   
13070 6   
13071 5   
13072 94  
13073 76  
13074 88  
13075 5   
13076 5   
13077 8   
13078 8   
13079 4   
13080 7   
13081 9   
13082 10  
13083 2   
13084 9   
13085 7   
13086 2   
13087 1   
13088 10  
13089 1   
13090 4   
13091 53  
13092 2   
13093 76  
13094 2   
13095 5   
13096 2   
13097 1   
13098 87  
13099 4   
13100 8   
13101 3   
13102 7   
13103 99  
13104 98  
13105 8   
13106 1   
13107 8   
13108 2   
13109 4   
13110 2   
13111 5   
13112 2   
13113 1   
13114 4   
13115 7   
13116 6   
13117 2   
13118 5   
13119 10  
13120 4   
13121 72  
13122 56  
13123 8   
13124 10  
13125 7   
13126 8   
13127 6   
13128 7   
13129 2   
13130 1   
13131 1   
13132 3   
13133 2   
13134 2   
13135 6   
13136 8   
13137 50  
13138 2   
13139 4   
13140 62  
13141 1   
13142 4   
13143 2   
13144 72  
13145 8   
13146 2   
13147 8   
13148 1   
13149 9   
13150 100 
13151 8   
13152 1   
13153 99  
13154 9   
13155 60  
13156 1   
13157 3   
13158 4   
13159 96  
13160 6   
13161 80  
13162 99  
13163 3   
13164 4   
13165 2   
13166 1   
13167 2   
13168 2   
13169 9   
13170 10  
13171 5   
13172 77  
13173 3   
13174 10  
13175 2   
13176 3   
13177 9   
13178 9   
13179 10  
13180 4   
13181 7   
13182 1   
13183 66  
13184 1   
13185 3   
13186 68  
13187 8   
13188 8   
13189 7   
13190 3   
13191 8   
13192 9   
13193 9   
13194 55  
13195 3   
13196 96  
13197 8   
13198 4   
13199 5   
13200 60  
13201 9   
13202 63  
13203 4   
13204 3   
13205 10  
13206 66  
13207 10  
13208 2   
13209 98  
13210 10  
13211 5   
13212 9   
13213 8   
13214 54  
13215 2   
13216 4   
13217 83  
13218 1   
13219 6   
13220 58  
13221 4   
13222 3   
13223 62  
13224 7   
13225 10  
13226 5   
13227 10  
13228 5   
13229 8   
13230 7   
13231 5   
13232 3   
13233 9   
13234 71  
13235 58  
13236 5   
13237 2   
13238 6   
13239 4   
13240 99  
13241 4   
13242 8   
13243 64  
13244 64  
13245 3   
13246 86  
13247 3   
13248 91  
13249 4   
13250 4   
13251 10  
13252 9   
13253 6   
13254 8   
13255 7   
13256 3   
13257 4   
13258 6   
13259 95  
13260 2   
13261 10  
13262 82  
13263 6   
13264 7   
13265 65  
13266 3   
13267 9   
13268 9   
13269 7   
13270 9   
13271 10  
13272 8   
13273 8   
13274 1   
13275 5   
13276 59  
13277 9   
13278 4   
13279 54  
13280 3   
13281 9   
13282 8   
13283 71  
13284 88  
13285 8   
13286 10  
13287 7   
13288 7   
13289 4   
13290 3   
13291 98  
13292 4   
13293 10  
13294 4   
13295 6   
13296 7   
13297 6   
13298 7   
13299 6   
13300 79  
13301 78  
13302 2   
13303 74  
13304 10  
13305 88  
13306 50  
13307 2   
13308 5   
13309 59  
13310 1   
13311 3   
13312 97  
13313 1   
13314 2   
13315 79  
13316 8   
13317 50  
13318 1   
13319 67  
13320 8   
13321 4   
13322 4   
13323 7   
13324 6   
13325 53  
13326 1   
13327 1   
13328 3   
13329 10  
13330 8   
13331 5   
13332 8   
13333 4   
13334 10  
13335 7   
13336 9   
13337 7   
13338 5   
13339 7   
13340 71  
13341 4   
13342 70  
13343 3   
13344 3   
13345 2   
13346 8   
13347 5   
13348 9   
13349 9   
13350 2   
13351 10  
13352 58  
13353 10  
13354 1   
13355 4   
13356 4   
13357 50  
13358 7   
13359 3   
13360 7   
13361 8   
13362 7   
13363 1   
13364 4   
13365 4   
13366 5   
13367 4   
13368 2   
13369 9   
13370 7   
13371 8   
13372 56  
13373 9   
13374 1   
13375 2   
13376 8   
13377 6   
13378 7   
13379 61  
13380 10  
13381 1   
13382 10  
13383 7   
13384 8   
13385 3   
13386 6   
13387 70  
13388 5   
13389 55  
13390 8   
13391 88  
13392 10  
13393 1   
13394 6   
13395 10  
13396 8   
13397 9   
13398 3   
13399 1   
13400 4   
13401 7   
13402 4   
13403 2   
13404 4   
13405 9   
13406 80  
13407 78  
13408 6   
13409 98  
13410 3   
13411 3   
13412 1   
13413 3   
13414 5   
13415 68  
13416 95  
13417 2   
13418 51  
13419 82  
13420 59  
13421 3   
13422 8   
13423 6   
13424 4   
13425 6   
13426 2   
13427 5   
13428 86  
13429 7   
13430 56  
13431 65  
13432 93  
13433 7   
13434 1   
13435 1   
13436 1   
13437 4   
13438 3   
13439 4   
13440 5   
13441 9   
13442 9   
13443 8   
13444 84  
13445 8   
13446 1   
13447 92  
13448 70  
13449 1   
13450 6   
13451 8   
13452 8   
13453 7   
13454 5   
13455 9   
13456 7   
13457 3   
13458 3   
13459 79  
13460 10  
13461 89  
13462 4   
13463 5   
13464 10  
13465 10  
13466 4   
13467 92  
13468 8   
13469 5   
13470 99  
13471 7   
13472 4   
13473 5   
13474 9   
13475 4   
13476 3   
13477 5   
13478 7   
13479 4   
13480 7   
13481 9   
13482 10  
13483 7   
13484 2   
13485 3   
13486 3   
13487 6   
13488 3   
13489 6   
13490 4   
13491 4   
13492 2   
13493 98  
13494 2   
13495 9   
13496 82  
13497 6   
13498 9   
13499 4   
13500 98  
13501 3   
13502 1   
13503 92  
13504 7   
13505 7   
13506 61  
13507 62  
13508 5   
13509 1   
13510 9   
13511 9   
13512 2   
13513 7   
13514 7   
13515 7   
13516 5   
13517 50  
13518 1   
13519 87  
13520 82  
13521 100 
13522 98  
13523 2   
13524 6   
13525 7   
13526 66  
13527 97  
13528 2   
13529 7   
13530 50  
13531 8   
13532 10  
13533 10  
13534 6   
13535 78  
13536 1   
13537 7   
13538 7   
13539 8   
13540 8   
13541 3   
13542 3   
13543 9   
13544 6   
13545 62  
13546 95  
13547 54  
13548 6   
13549 9   
13550 8   
13551 1   
13552 3   
13553 77  
13554 2   
13555 10  
13556 6   
13557 3   
13558 8   
13559 8   
13560 10  
13561 8   
13562 80  
13563 76  
13564 97  
13565 5   
13566 8   
13567 1   
13568 4   
13569 10  
13570 2   
13571 10  
13572 6   
13573 4   
13574 4   
13575 1   
13576 1   
13577 9   
13578 6   
13579 5   
13580 64  
13581 2   
13582 4   
13583 5   
13584 2   
13585 6   
13586 7   
13587 7   
13588 2   
13589 10  
13590 8   
13591 5   
13592 3   
13593 1   
13594 78  
13595 98  
13596 77  
13597 1   
13598 9   
13599 5   
13600 3   
13601 6   
13602 8   
13603 10  
13604 9   
13605 6   
13606 2   
13607 10  
13608 8   
13609 7   
13610 4   
13611 5   
13612 4   
13613 5   
13614 7   
13615 8   
13616 7   
13617 64  
13618 5   
13619 10  
13620 10  
13621 6   
13622 4   
13623 51  
13624 3   
13625 54  
13626 2   
13627 3   
13628 54  
13629 1   
13630 2   
13631 99  
13632 4   
13633 6   
13634 2   
13635 8   
13636 6   
13637 4   
13638 5   
13639 3   
13640 4   
13641 81  
13642 82  
13643 8   
13644 6   
13645 5   
13646 8   
13647 6   
13648 2   
13649 77  
13650 2   
13651 96  
13652 2   
13653 2   
13654 6   
13655 8   
13656 4   
13657 1   
13658 97  
13659 100 
13660 7   
13661 75  
13662 10  
13663 8   
13664 3   
13665 7   
13666 100 
13667 73  
13668 4   
13669 8   
13670 10  
13671 7   
13672 8   
13673 5   
13674 7   
13675 1   
13676 8   
13677 10  
13678 4   
13679 9   
13680 8   
13681 10  
13682 68  
13683 10  
13684 2   
13685 9   
13686 8   
13687 8   
13688 10  
13689 8   
13690 7   
13691 6   
13692 5   
13693 9   
13694 2   
13695 10  
13696 80  
13697 3   
13698 81  
13699 1   
13700 8   
13701 6   
13702 90  
13703 58  
13704 6   
13705 1   
13706 3   
13707 68  
13708 5   
13709 1   
13710 86  
13711 10  
13712 10  
13713 6   
13714 8   
13715 5   
13716 7   
13717 59  
13718 79  
13719 70  
13720 3   
13721 3   
13722 88  
13723 51  
13724 63  
13725 62  
13726 10  
13727 2   
13728 10  
13729 3   
13730 6   
13731 4   
13732 5   
13733 10  
13734 4   
13735 9   
13736 5   
13737 6   
13738 6   
13739 69  
13740 1   
13741 3   
13742 8   
13743 83  
13744 50  
13745 90  
13746 5   
13747 10  
13748 10  
13749 2   
13750 7   
13751 10  
13752 8   
13753 9   
13754 7   
13755 4   
13756 5   
13757 88  
13758 1   
13759 6   
13760 4   
13761 9   
13762 89  
13763 2   
13764 6   
13765 8   
13766 7   
13767 10  
13768 90  
13769 10  
13770 5   
13771 2   
13772 69  
13773 1   
13774 2   
13775 9   
13776 1   
13777 3   
13778 10  
13779 9   
13780 76  
13781 9   
13782 58  
13783 2   
13784 9   
13785 74  
13786 9   
13787 6   
13788 7   
13789 4   
13790 2   
13791 4   
13792 2   
13793 1   
13794 6   
13795 1   
13796 9   
13797 7   
13798 96  
13799 2   
13800 6   
13801 6   
13802 6   
13803 8   
13804 3   
13805 2   
13806 10  
13807 9   
13808 10  
13809 10  
13810 74  
13811 6   
13812 7   
13813 2   
13814 8   
13815 7   
13816 5   
13817 2   
13818 10  
13819 9   
13820 10  
13821 3   
13822 10  
13823 3   
13824 2   
13825 10  
13826 8   
13827 7   
13828 8   
13829 59  
13830 2   
13831 65  
13832 9   
13833 9   
13834 4   
13835 6   
13836 54  
13837 10  
13838 77  
13839 1   
13840 66  
13841 2   
13842 1   
13843 6   
13844 80  
13845 92  
13846 3   
13847 10  
13848 10  
13849 2   
13850 99  
13851 3   
13852 9   
13853 7   
13854 4   
13855 10  
13856 2   
13857 1   
13858 61  
13859 7   
13860 3   
13861 6   
13862 10  
13863 82  
13864 8   
13865 5   
13866 81  
13867 4   
13868 2   
13869 4   
13870 8   
13871 10  
13872 10  
13873 9   
13874 1   
13875 66  
13876 3   
13877 6   
13878 6   
13879 9   
13880 3   
13881 67  
13882 10  
13883 95  
13884 10  
13885 10  
13886 5   
13887 4   
13888 5   
13889 6   
13890 9   
13891 95  
13892 5   
13893 2   
13894 6   
13895 6   
13896 10  
13897 9   
13898 3   
13899 92  
13900 3   
13901 86  
13902 2   
13903 4   
13904 7   
13905 7   
13906 8   
13907 1   
13908 2   
13909 2   
13910 3   
13911 5   
13912 10  
13913 60  
13914 5   
13915 5   
13916 51  
13917 4   
13918 50  
13919 8   
13920 2   
13921 10  
13922 4   
13923 8   
13924 6   
13925 74  
13926 3   
13927 7   
13928 81  
13929 9   
13930 79  
13931 92  
13932 9   
13933 5   
13934 3   
13935 9   
13936 6   
13937 4   
13938 4   
13939 3   
13940 6   
13941 1   
13942 81  
13943 4   
13944 3   
13945 4   
13946 3   
13947 88  
13948 6   
13949 3   
13950 78  
13951 3   
13952 7   
13953 7   
13954 4   
13955 75  
13956 8   
13957 3   
13958 5   
13959 1   
13960 1   
13961 10  
13962 7   
13963 7   
13964 75  
13965 2   
13966 1   
13967 3   
13968 7   
13969 4   
13970 2   
13971 2   
13972 3   
13973 88  
13974 6   
13975 53  
13976 1   
13977 9   
13978 6   
13979 1   
13980 3   
13981 3   
13982 6   
13983 8   
13984 87  
13985 2   
13986 10  
13987 6   
13988 60  
13989 5   
13990 2   
13991 98  
13992 1   
13993 9   
13994 5   
13995 6   
13996 8   
13997 3   
13998 1   
13999 94  
14000 6   
14001 4   
14002 8   
14003 10  
14004 5   
14005 81  
14006 1   
14007 4   
14008 1   
14009 81  
14010 1   
14011 10  
14012 78  
14013 8   
14014 55  
14015 8   
14016 9   
14017 8   
14018 8   
14019 5   
14020 8   
14021 73  
14022 10  
14023 8   
14024 85  
14025 7   
14026 2   
14027 71  
14028 6   
14029 64  
14030 10  
14031 4   
14032 2   
14033 2   
14034 8   
14035 5   
14036 1   
14037 5   
14038 3   
14039 6   
14040 1   
14041 4   
14042 7   
14043 8   
14044 8   
14045 4   
14046 52  
14047 4   
14048 2   
14049 4   
14050 8   
14051 4   
14052 79  
14053 10  
14054 5   
14055 5   
14056 57  
14057 4   
14058 8   
14059 1   
14060 1   
14061 9   
14062 8   
14063 50  
14064 10  
14065 61  
14066 97  
14067 5   
14068 5   
14069 10  
14070 9   
14071 67  
14072 2   
14073 3   
14074 6   
14075 1   
14076 1   
14077 10  
14078 5   
14079 6   
14080 81  
14081 5   
14082 8   
14083 6   
14084 2   
14085 8   
14086 2   
14087 68  
14088 10  
14089 5   
14090 3   
14091 1   
14092 4   
14093 10  
14094 2   
14095 6   
14096 9   
14097 1   
14098 5   
14099 50  
14100 2   
14101 8   
14102 5   
14103 7   
14104 7   
14105 65  
14106 1   
14107 6   
14108 8   
14109 2   
14110 3   
14111 10  
14112 63  
14113 10  
14114 10  
14115 7   
14116 6   
14117 75  
14118 3   
14119 1   
14120 10  
14121 9   
14122 6   
14123 9   
14124 10  
14125 74  
14126 2   
14127 4   
14128 8   
14129 2   
14130 9   
14131 58  
14132 52  
14133 7   
14134 90  
14135 90  
14136 3   
14137 8   
14138 1   
14139 9   
14140 9   
14141 8   
14142 5   
14143 1   
14144 5   
14145 51  
14146 4   
14147 2   
14148 8   
14149 10  
14150 2   
14151 3   
14152 4   
14153 99  
14154 7   
14155 2   
14156 2   
14157 4   
14158 6   
14159 56  
14160 1   
14161 2   
14162 6   
14163 10  
14164 10  
14165 3   
14166 95  
14167 3   
14168 1   
14169 4   
14170 97  
14171 89  
14172 2   
14173 8   
14174 3   
14175 6   
14176 2   
14177 2   
14178 5   
14179 95  
14180 10  
14181 6   
14182 6   
14183 4   
14184 8   
14185 3   
14186 5   
14187 10  
14188 10  
14189 57  
14190 2   
14191 1   
14192 3   
14193 3   
14194 2   
14195 3   
14196 63  
14197 79  
14198 1   
14199 8   
14200 1   
14201 6   
14202 4   
14203 7   
14204 4   
14205 8   
14206 9   
14207 1   
14208 10  
14209 83  
14210 3   
14211 65  
14212 2   
14213 5   
14214 7   
14215 8   
14216 52  
14217 78  
14218 3   
14219 1   
14220 8   
14221 9   
14222 7   
14223 6   
14224 2   
14225 8   
14226 3   
14227 4   
14228 6   
14229 5   
14230 5   
14231 95  
14232 10  
14233 60  
14234 8   
14235 4   
14236 9   
14237 1   
14238 1   
14239 4   
14240 8   
14241 6   
14242 71  
14243 9   
14244 4   
14245 89  
14246 56  
14247 4   
14248 5   
14249 4   
14250 1   
14251 3   
14252 9   
14253 9   
14254 4   
14255 2   
14256 1   
14257 9   
14258 5   
14259 5   
14260 71  
14261 2   
14262 7   
14263 8   
14264 1   
14265 1   
14266 62  
14267 7   
14268 10  
14269 1   
14270 8   
14271 7   
14272 4   
14273 10  
14274 99  
14275 8   
14276 2   
14277 10  
14278 5   
14279 7   
14280 3   
14281 83  
14282 80  
14283 3   
14284 6   
14285 96  
14286 1   
14287 3   
14288 6   
14289 10  
14290 5   
14291 4   
14292 5   
14293 95  
14294 61  
14295 3   
14296 3   
14297 57  
14298 7   
14299 9   
14300 51  
14301 86  
14302 3   
14303 7   
14304 94  
14305 87  
14306 10  
14307 10  
14308 9   
14309 7   
14310 3   
14311 4   
14312 4   
14313 8   
14314 7   
14315 52  
14316 86  
14317 69  
14318 8   
14319 2   
14320 1   
14321 75  
14322 1   
14323 10  
14324 72  
14325 83  
14326 7   
14327 5   
14328 8   
14329 73  
14330 74  
14331 55  
14332 7   
14333 9   
14334 66  
14335 1   
14336 4   
14337 5   
14338 7   
14339 4   
14340 10  
14341 5   
14342 72  
14343 9   
14344 2   
14345 7   
14346 3   
14347 7   
14348 1   
14349 7   
14350 61  
14351 7   
14352 9   
14353 55  
14354 88  
14355 1   
14356 74  
14357 10  
14358 1   
14359 10  
14360 91  
14361 6   
14362 1   
14363 4   
14364 90  
14365 7   
14366 5   
14367 2   
14368 6   
14369 2   
14370 5   
14371 9   
14372 8   
14373 6   
14374 1   
14375 9   
14376 7   
14377 2   
14378 2   
14379 1   
14380 92  
14381 91  
14382 10  
14383 69  
14384 4   
14385 10  
14386 1   
14387 66  
14388 7   
14389 65  
14390 6   
14391 60  
14392 50  
14393 10  
14394 7   
14395 6   
14396 9   
14397 10  
14398 9   
14399 9   
14400 1   
14401 9   
14402 66  
14403 9   
14404 3   
14405 8   
14406 9   
14407 9   
14408 2   
14409 6   
14410 3   
14411 5   
14412 5   
14413 8   
14414 78  
14415 4   
14416 8   
14417 9   
14418 5   
14419 5   
14420 69  
14421 6   
14422 5   
14423 3   
14424 52  
14425 10  
14426 5   
14427 10  
14428 8   
14429 7   
14430 2   
14431 10  
14432 1   
14433 81  
14434 2   
14435 92  
14436 8   
14437 3   
14438 9   
14439 6   
14440 6   
14441 62  
14442 7   
14443 83  
14444 7   
14445 2   
14446 80  
14447 3   
14448 4   
14449 82  
14450 7   
14451 10  
14452 79  
14453 58  
14454 3   
14455 9   
14456 8   
14457 9   
14458 9   
14459 4   
14460 7   
14461 2   
14462 85  
14463 2   
14464 3   
14465 5   
14466 5   
14467 7   
14468 5   
14469 8   
14470 72  
14471 3   
14472 7   
14473 3   
14474 9   
14475 9   
14476 6   
14477 9   
14478 10  
14479 5   
14480 3   
14481 6   
14482 100 
14483 10  
14484 10  
14485 10  
14486 6   
14487 93  
14488 2   
14489 4   
14490 6   
14491 7   
14492 72  
14493 1   
14494 10  
14495 8   
14496 7   
14497 3   
14498 3   
14499 2   
14500 6   
14501 3   
14502 78  
14503 3   
14504 93  
14505 9   
14506 6   
14507 8   
14508 1   
14509 4   
14510 10  
14511 1   
14512 7   
14513 5   
14514 8   
14515 8   
14516 1   
14517 3   
14518 7   
14519 5   
14520 4   
14521 77  
14522 4   
14523 91  
14524 71  
14525 4   
14526 1   
14527 6   
14528 3   
14529 4   
14530 7   
14531 3   
14532 10  
14533 4   
14534 10  
14535 5   
14536 89  
14537 6   
14538 8   
14539 2   
14540 7   
14541 1   
14542 10  
14543 9   
14544 7   
14545 1   
14546 5   
14547 8   
14548 8   
14549 4   
14550 8   
14551 6   
14552 4   
14553 6   
14554 68  
14555 9   
14556 5   
14557 66  
14558 7   
14559 4   
14560 3   
14561 67  
14562 2   
14563 9   
14564 4   
14565 3   
14566 4   
14567 4   
14568 1   
14569 8   
14570 1   
14571 6   
14572 7   
14573 1   
14574 3   
14575 6   
14576 8   
14577 93  
14578 1   
14579 9   
14580 6   
14581 2   
14582 74  
14583 59  
14584 8   
14585 8   
14586 7   
14587 75  
14588 10  
14589 1   
14590 50  
14591 72  
14592 79  
14593 5   
14594 6   
14595 8   
14596 7   
14597 65  
14598 9   
14599 10  
14600 10  
14601 7   
14602 1   
14603 9   
14604 5   
14605 5   
14606 3   
14607 5   
14608 1   
14609 6   
14610 59  
14611 62  
14612 9   
14613 54  
14614 1   
14615 100 
14616 5   
14617 9   
14618 6   
14619 5   
14620 88  
14621 9   
14622 4   
14623 10  
14624 4   
14625 98  
14626 80  
14627 6   
14628 5   
14629 7   
14630 9   
14631 6   
14632 7   
14633 8   
14634 78  
14635 5   
14636 6   
14637 4   
14638 4   
14639 5   
14640 5   
14641 9   
14642 84  
14643 9   
14644 8   
14645 10  
14646 9   
14647 8   
14648 7   
14649 3   
14650 4   
14651 1   
14652 1   
14653 9   
14654 92  
14655 1   
14656 1   
14657 62  
14658 4   
14659 9   
14660 1   
14661 10  
14662 87  
14663 3   
14664 1   
14665 3   
14666 4   
14667 1   
14668 2   
14669 5   
14670 6   
14671 2   
14672 4   
14673 7   
14674 8   
14675 5   
14676 10  
14677 83  
14678 10  
14679 10  
14680 5   
14681 6   
14682 75  
14683 1   
14684 10  
14685 8   
14686 10  
14687 2   
14688 6   
14689 57  
14690 3   
14691 3   
14692 5   
14693 2   
14694 9   
14695 5   
14696 10  
14697 4   
14698 4   
14699 85  
14700 6   
14701 7   
14702 8   
14703 69  
14704 8   
14705 7   
14706 1   
14707 10  
14708 55  
14709 2   
14710 3   
14711 4   
14712 57  
14713 4   
14714 87  
14715 7   
14716 10  
14717 10  
14718 3   
14719 2   
14720 55  
14721 3   
14722 67  
14723 2   
14724 8   
14725 4   
14726 10  
14727 3   
14728 84  
14729 6   
14730 99  
14731 4   
14732 8   
14733 4   
14734 7   
14735 8   
14736 7   
14737 6   
14738 61  
14739 10  
14740 8   
14741 80  
14742 3   
14743 90  
14744 9   
14745 7   
14746 10  
14747 8   
14748 3   
14749 2   
14750 10  
14751 3   
14752 10  
14753 6   
14754 2   
14755 3   
14756 69  
14757 9   
14758 8   
14759 3   
14760 84  
14761 4   
14762 8   
14763 8   
14764 75  
14765 6   
14766 6   
14767 3   
14768 4   
14769 2   
14770 10  
14771 8   
14772 3   
14773 2   
14774 10  
14775 84  
14776 10  
14777 5   
14778 10  
14779 2   
14780 2   
14781 60  
14782 4   
14783 8   
14784 83  
14785 3   
14786 10  
14787 4   
14788 2   
14789 100 
14790 3   
14791 1   
14792 4   
14793 9   
14794 8   
14795 2   
14796 3   
14797 7   
14798 7   
14799 7   
14800 10  
14801 7   
14802 7   
14803 1   
14804 9   
14805 83  
14806 82  
14807 3   
14808 7   
14809 2   
14810 4   
14811 8   
14812 7   
14813 8   
14814 5   
14815 4   
14816 6   
14817 97  
14818 7   
14819 96  
14820 10  
14821 9   
14822 7   
14823 10  
14824 8   
14825 89  
14826 3   
14827 3   
14828 7   
14829 4   
14830 4   
14831 62  
14832 2   
14833 91  
14834 3   
14835 3   
14836 7   
14837 7   
14838 3   
14839 2   
14840 1   
14841 7   
14842 8   
14843 68  
14844 63  
14845 3   
14846 2   
14847 1   
14848 10  
14849 77  
14850 4   
14851 8   
14852 10  
14853 2   
14854 3   
14855 10  
14856 5   
14857 5   
14858 2   
14859 7   
14860 9   
14861 5   
14862 10  
14863 6   
14864 10  
14865 7   
14866 2   
14867 67  
14868 7   
14869 2   
14870 6   
14871 3   
14872 2   
14873 5   
14874 6   
14875 83  
14876 8   
14877 4   
14878 10  
14879 10  
14880 6   
14881 1   
14882 1   
14883 8   
14884 10  
14885 10  
14886 6   
14887 86  
14888 8   
14889 3   
14890 9   
14891 1   
14892 61  
14893 4   
14894 8   
14895 9   
14896 6   
14897 1   
14898 3   
14899 7   
14900 6   
14901 9   
14902 2   
14903 1   
14904 91  
14905 54  
14906 2   
14907 63  
14908 10  
14909 2   
14910 9   
14911 8   
14912 7   
14913 2   
14914 56  
14915 7   
14916 98  
14917 4   
14918 6   
14919 3   
14920 2   
14921 3   
14922 10  
14923 1   
14924 1   
14925 9   
14926 8   
14927 1   
14928 6   
14929 9   
14930 8   
14931 73  
14932 93  
14933 8   
14934 7   
14935 8   
14936 10  
14937 2   
14938 2   
14939 5   
14940 3   
14941 9   
14942 1   
14943 81  
14944 6   
14945 6   
14946 1   
14947 3   
14948 8   
14949 6   
14950 3   
14951 4   
14952 10  
14953 10  
14954 5   
14955 2   
14956 3   
14957 10  
14958 6   
14959 5   
14960 8   
14961 9   
14962 6   
14963 2   
14964 71  
14965 8   
14966 5   
14967 4   
14968 81  
14969 4   
14970 9   
14971 5   
14972 9   
14973 73  
14974 97  
14975 8   
14976 6   
14977 8   
14978 9   
14979 58  
14980 89  
14981 65  
14982 3   
14983 10  
14984 4   
14985 2   
14986 89  
14987 76  
14988 1   
14989 5   
14990 6   
14991 9   
14992 10  
14993 90  
14994 6   
14995 4   
14996 2   
14997 2   
14998 6   
14999 5   
15000 86  
15001 2   
15002 7   
15003 92  
15004 8   
15005 10  
15006 8   
15007 82  
15008 60  
15009 2   
15010 9   
15011 5   
15012 6   
15013 81  
15014 92  
15015 2   
15016 10  
15017 73  
15018 3   
15019 5   
15020 10  
15021 3   
15022 7   
15023 9   
15024 6   
15025 3   
15026 3   
15027 4   
15028 5   
15029 4   
15030 6   
15031 7   
15032 6   
15033 8   
15034 8   
15035 7   
15036 9   
15037 6   
15038 8   
15039 81  
15040 5   
15041 5   
15042 3   
15043 9   
15044 8   
15045 10  
15046 55  
15047 10  
15048 5   
15049 5   
15050 5   
15051 7   
15052 67  
15053 56  
15054 6   
15055 9   
15056 90  
15057 86  
15058 6   
15059 4   
15060 10  
15061 100 
15062 10  
15063 64  
15064 2   
15065 10  
15066 10  
15067 1   
15068 55  
15069 86  
15070 3   
15071 5   
15072 10  
15073 6   
15074 7   
15075 81  
15076 2   
15077 10  
15078 54  
15079 6   
15080 68  
15081 6   
15082 96  
15083 1   
15084 1   
15085 10  
15086 8   
15087 7   
15088 1   
15089 5   
15090 78  
15091 10  
15092 70  
15093 100 
15094 4   
15095 2   
15096 3   
15097 6   
15098 8   
15099 2   
15100 1   
15101 1   
15102 7   
15103 10  
15104 6   
15105 10  
15106 100 
15107 10  
15108 1   
15109 6   
15110 2   
15111 2   
15112 7   
15113 6   
15114 9   
15115 95  
15116 4   
15117 7   
15118 5   
15119 70  
15120 85  
15121 8   
15122 10  
15123 4   
15124 7   
15125 5   
15126 3   
15127 9   
15128 7   
15129 72  
15130 6   
15131 9   
15132 9   
15133 2   
15134 7   
15135 10  
15136 9   
15137 3   
15138 79  
15139 1   
15140 5   
15141 2   
15142 5   
15143 10  
15144 10  
15145 5   
15146 9   
15147 9   
15148 10  
15149 2   
15150 6   
15151 9   
15152 5   
15153 7   
15154 8   
15155 4   
15156 10  
15157 4   
15158 1   
15159 8   
15160 10  
15161 4   
15162 1   
15163 8   
15164 71  
15165 69  
15166 1   
15167 6   
15168 7   
15169 80  
15170 7   
15171 52  
15172 7   
15173 68  
15174 10  
15175 1   
15176 5   
15177 8   
15178 8   
15179 3   
15180 8   
15181 2   
15182 5   
15183 93  
15184 9   
15185 6   
15186 4   
15187 3   
15188 10  
15189 10  
15190 59  
15191 84  
15192 2   
15193 3   
15194 10  
15195 2   
15196 3   
15197 9   
15198 4   
15199 91  
15200 5   
15201 2   
15202 66  
15203 58  
15204 6   
15205 6   
15206 4   
15207 4   
15208 6   
15209 1   
15210 4   
15211 8   
15212 1   
15213 8   
15214 7   
15215 8   
15216 3   
15217 5   
15218 10  
15219 1   
15220 9   
15221 1   
15222 88  
15223 9   
15224 9   
15225 9   
15226 99  
15227 4   
15228 7   
15229 1   
15230 1   
15231 3   
15232 99  
15233 5   
15234 5   
15235 2   
15236 4   
15237 6   
15238 76  
15239 5   
15240 2   
15241 5   
15242 2   
15243 6   
15244 79  
15245 70  
15246 10  
15247 65  
15248 3   
15249 6   
15250 5   
15251 69  
15252 9   
15253 4   
15254 7   
15255 61  
15256 10  
15257 1   
15258 7   
15259 3   
15260 10  
15261 6   
15262 94  
15263 56  
15264 4   
15265 5   
15266 3   
15267 2   
15268 9   
15269 3   
15270 75  
15271 1   
15272 4   
15273 3   
15274 4   
15275 5   
15276 3   
15277 10  
15278 3   
15279 8   
15280 10  
15281 6   
15282 80  
15283 92  
15284 5   
15285 1   
15286 8   
15287 10  
15288 1   
15289 8   
15290 3   
15291 10  
15292 5   
15293 86  
15294 4   
15295 6   
15296 7   
15297 4   
15298 2   
15299 3   
15300 8   
15301 85  
15302 10  
15303 2   
15304 9   
15305 1   
15306 7   
15307 1   
15308 6   
15309 6   
15310 51  
15311 7   
15312 8   
15313 9   
15314 5   
15315 9   
15316 8   
15317 9   
15318 9   
15319 4   
15320 6   
15321 70  
15322 4   
15323 6   
15324 4   
15325 59  
15326 90  
15327 9   
15328 9   
15329 4   
15330 7   
15331 8   
15332 5   
15333 2   
15334 10  
15335 8   
15336 93  
15337 57  
15338 4   
15339 90  
15340 2   
15341 6   
15342 2   
15343 1   
15344 4   
15345 5   
15346 4   
15347 7   
15348 9   
15349 1   
15350 3   
15351 8   
15352 8   
15353 10  
15354 98  
15355 4   
15356 4   
15357 9   
15358 7   
15359 10  
15360 3   
15361 2   
15362 2   
15363 9   
15364 7   
15365 9   
15366 86  
15367 3   
15368 10  
15369 5   
15370 3   
15371 4   
15372 1   
15373 6   
15374 2   
15375 3   
15376 1   
15377 9   
15378 7   
15379 8   
15380 4   
15381 7   
15382 73  
15383 9   
15384 2   
15385 1   
15386 3   
15387 8   
15388 4   
15389 6   
15390 6   
15391 2   
15392 3   
15393 10  
15394 52  
15395 7   
15396 95  
15397 1   
15398 6   
15399 10  
15400 3   
15401 66  
15402 4   
15403 100 
15404 55  
15405 3   
15406 1   
15407 4   
15408 8   
15409 58  
15410 4   
15411 2   
15412 7   
15413 60  
15414 1   
15415 2   
15416 7   
15417 55  
15418 5   
15419 2   
15420 75  
15421 1   
15422 76  
15423 9   
15424 8   
15425 5   
15426 3   
15427 67  
15428 2   
15429 4   
15430 99  
15431 4   
15432 6   
15433 10  
15434 9   
15435 9   
15436 98  
15437 1   
15438 10  
15439 10  
15440 3   
15441 10  
15442 2   
15443 5   
15444 10  
15445 10  
15446 91  
15447 4   
15448 77  
15449 4   
15450 93  
15451 4   
15452 2   
15453 3   
15454 7   
15455 1   
15456 6   
15457 8   
15458 9   
15459 3   
15460 9   
15461 97  
15462 8   
15463 3   
15464 65  
15465 10  
15466 4   
15467 71  
15468 70  
15469 60  
15470 1   
15471 7   
15472 8   
15473 2   
15474 76  
15475 71  
15476 9   
15477 2   
15478 7   
15479 1   
15480 3   
15481 5   
15482 1   
15483 5   
15484 84  
15485 3   
15486 57  
15487 1   
15488 8   
15489 1   
15490 10  
15491 2   
15492 3   
15493 6   
15494 7   
15495 9   
15496 62  
15497 8   
15498 94  
15499 7   
15500 77  
15501 94  
15502 8   
15503 4   
15504 3   
15505 7   
15506 5   
15507 9   
15508 80  
15509 87  
15510 67  
15511 9   
15512 1   
15513 8   
15514 9   
15515 90  
15516 7   
15517 2   
15518 8   
15519 10  
15520 1   
15521 8   
15522 8   
15523 5   
15524 9   
15525 4   
15526 3   
15527 80  
15528 2   
15529 9   
15530 9   
15531 8   
15532 6   
15533 4   
15534 9   
15535 7   
15536 2   
15537 83  
15538 5   
15539 1   
15540 6   
15541 2   
15542 6   
15543 1   
15544 10  
15545 5   
15546 10  
15547 7   
15548 10  
15549 4   
15550 5   
15551 78  
15552 3   
15553 2   
15554 6   
15555 10  
15556 6   
15557 56  
15558 7   
15559 5   
15560 98  
15561 6   
15562 8   
15563 4   
15564 6   
15565 5   
15566 56  
15567 4   
15568 4   
15569 9   
15570 8   
15571 71  
15572 4   
15573 100 
15574 8   
15575 98  
15576 10  
15577 6   
15578 3   
15579 2   
15580 7   
15581 83  
15582 4   
15583 2   
15584 68  
15585 1   
15586 1   
15587 8   
15588 3   
15589 3   
15590 5   
15591 3   
15592 97  
15593 2   
15594 10  
15595 6   
15596 5   
15597 4   
15598 2   
15599 6   
15600 8   
15601 7   
15602 5   
15603 7   
15604 3   
15605 100 
15606 6   
15607 5   
15608 10  
15609 4   
15610 10  
15611 100 
15612 8   
15613 1   
15614 3   
15615 3   
15616 9   
15617 9   
15618 6   
15619 10  
15620 99  
15621 9   
15622 5   
15623 7   
15624 3   
15625 85  
15626 8   
15627 3   
15628 6   
15629 78  
15630 3   
15631 9   
15632 8   
15633 1   
15634 10  
15635 3   
15636 3   
15637 4   
15638 52  
15639 8   
15640 1   
15641 5   
15642 3   
15643 6   
15644 3   
15645 2   
15646 1   
15647 88  
15648 10  
15649 2   
15650 79  
15651 4   
15652 9   
15653 4   
15654 7   
15655 10  
15656 3   
15657 3   
15658 10  
15659 78  
15660 5   
15661 7   
15662 1   
15663 8   
15664 6   
15665 8   
15666 1   
15667 6   
15668 9   
15669 3   
15670 3   
15671 8   
15672 4   
15673 63  
15674 5   
15675 5   
15676 59  
15677 8   
15678 9   
15679 60  
15680 10  
15681 2   
15682 8   
15683 9   
15684 83  
15685 7   
15686 7   
15687 3   
15688 87  
15689 3   
15690 1   
15691 1   
15692 8   
15693 7   
15694 1   
15695 2   
15696 75  
15697 3   
15698 2   
15699 5   
15700 1   
15701 53  
15702 5   
15703 3   
15704 8   
15705 10  
15706 5   
15707 70  
15708 1   
15709 6   
15710 94  
15711 3   
15712 5   
15713 8   
15714 10  
15715 57  
15716 7   
15717 10  
15718 6   
15719 3   
15720 71  
15721 9   
15722 2   
15723 76  
15724 4   
15725 8   
15726 1   
15727 9   
15728 80  
15729 8   
15730 5   
15731 2   
15732 3   
15733 4   
15734 2   
15735 10  
15736 3   
15737 8   
15738 1   
15739 5   
15740 2   
15741 1   
15742 8   
15743 2   
15744 89  
15745 10  
15746 1   
15747 1   
15748 9   
15749 2   
15750 100 
15751 8   
15752 4   
15753 7   
15754 3   
15755 63  
15756 8   
15757 8   
15758 6   
15759 4   
15760 69  
15761 10  
15762 6   
15763 1   
15764 8   
15765 58  
15766 3   
15767 76  
15768 59  
15769 6   
15770 57  
15771 8   
15772 5   
15773 3   
15774 91  
15775 10  
15776 2   
15777 3   
15778 59  
15779 100 
15780 84  
15781 1   
15782 4   
15783 9   
15784 80  
15785 2   
15786 10  
15787 4   
15788 8   
15789 8   
15790 2   
15791 1   
15792 1   
15793 10  
15794 3   
15795 2   
15796 7   
15797 6   
15798 10  
15799 81  
15800 4   
15801 5   
15802 3   
15803 1   
15804 9   
15805 5   
15806 96  
15807 5   
15808 6   
15809 4   
15810 6   
15811 71  
15812 6   
15813 2   
15814 1   
15815 10  
15816 5   
15817 2   
15818 9   
15819 8   
15820 63  
15821 4   
15822 1   
15823 6   
15824 98  
15825 8   
15826 1   
15827 9   
15828 2   
15829 8   
15830 4   
15831 71  
15832 2   
15833 5   
15834 5   
15835 5   
15836 10  
15837 10  
15838 98  
15839 10  
15840 6   
15841 2   
15842 50  
15843 7   
15844 2   
15845 4   
15846 10  
15847 60  
15848 77  
15849 9   
15850 61  
15851 5   
15852 6   
15853 9   
15854 5   
15855 1   
15856 7   
15857 4   
15858 8   
15859 3   
15860 7   
15861 92  
15862 1   
15863 9   
15864 3   
15865 1   
15866 74  
15867 99  
15868 4   
15869 4   
15870 65  
15871 4   
15872 3   
15873 97  
15874 77  
15875 6   
15876 8   
15877 2   
15878 3   
15879 2   
15880 96  
15881 67  
15882 89  
15883 5   
15884 5   
15885 6   
15886 2   
15887 2   
15888 9   
15889 4   
15890 6   
15891 1   
15892 6   
15893 57  
15894 52  
15895 5   
15896 4   
15897 5   
15898 1   
15899 6   
15900 7   
15901 6   
15902 7   
15903 7   
15904 5   
15905 92  
15906 64  
15907 5   
15908 1   
15909 5   
15910 76  
15911 7   
15912 8   
15913 4   
15914 8   
15915 6   
15916 5   
15917 2   
15918 10  
15919 2   
15920 4   
15921 2   
15922 2   
15923 3   
15924 10  
15925 57  
15926 7   
15927 7   
15928 7   
15929 7   
15930 96  
15931 7   
15932 52  
15933 1   
15934 8   
15935 100 
15936 2   
15937 1   
15938 94  
15939 1   
15940 5   
15941 69  
15942 8   
15943 8   
15944 56  
15945 9   
15946 2   
15947 1   
15948 5   
15949 5   
15950 3   
15951 1   
15952 3   
15953 8   
15954 8   
15955 74  
15956 6   
15957 2   
15958 5   
15959 8   
15960 91  
15961 54  
15962 9   
15963 74  
15964 6   
15965 6   
15966 97  
15967 1   
15968 3   
15969 2   
15970 6   
15971 5   
15972 97  
15973 3   
15974 9   
15975 8   
15976 7   
15977 7   
15978 6   
15979 10  
15980 4   
15981 7   
15982 87  
15983 6   
15984 5   
15985 6   
15986 1   
15987 7   
15988 4   
15989 2   
15990 8   
15991 2   
15992 6   
15993 54  
15994 91  
15995 5   
15996 1   
15997 3   
15998 85  
15999 5   
16000 5   
16001 3   
16002 3   
16003 4   
16004 8   
16005 4   
16006 9   
16007 2   
16008 9   
16009 70  
16010 9   
16011 97  
16012 8   
16013 6   
16014 1   
16015 1   
16016 9   
16017 97  
16018 6   
16019 3   
16020 9   
16021 4   
16022 8   
16023 5   
16024 10  
16025 8   
16026 3   
16027 6   
16028 66  
16029 9   
16030 7   
16031 2   
16032 8   
16033 4   
16034 1   
16035 8   
16036 94  
16037 6   
16038 7   
16039 8   
16040 4   
16041 3   
16042 62  
16043 92  
16044 9   
16045 6   
16046 64  
16047 9   
16048 4   
16049 6   
16050 1   
16051 10  
16052 4   
16053 2   
16054 7   
16055 89  
16056 7   
16057 8   
16058 63  
16059 7   
16060 5   
16061 7   
16062 7   
16063 4   
16064 7   
16065 93  
16066 2   
16067 3   
16068 2   
16069 7   
16070 9   
16071 5   
16072 6   
16073 2   
16074 10  
16075 2   
16076 83  
16077 8   
16078 55  
16079 5   
16080 5   
16081 9   
16082 9   
16083 69  
16084 9   
16085 66  
16086 5   
16087 10  
16088 9   
16089 7   
16090 5   
16091 1   
16092 7   
16093 53  
16094 65  
16095 2   
16096 88  
16097 80  
16098 3   
16099 8   
16100 6   
16101 51  
16102 99  
16103 63  
16104 8   
16105 51  
16106 8   
16107 8   
16108 4   
16109 10  
16110 3   
16111 7   
16112 5   
16113 58  
16114 94  
16115 6   
16116 64  
16117 9   
16118 2   
16119 3   
16120 59  
16121 68  
16122 10  
16123 9   
16124 3   
16125 6   
16126 65  
16127 83  
16128 75  
16129 9   
16130 10  
16131 2   
16132 8   
16133 9   
16134 1   
16135 6   
16136 77  
16137 62  
16138 3   
16139 7   
16140 8   
16141 9   
16142 59  
16143 4   
16144 6   
16145 8   
16146 8   
16147 8   
16148 6   
16149 60  
16150 3   
16151 3   
16152 10  
16153 8   
16154 7   
16155 52  
16156 8   
16157 1   
16158 7   
16159 4   
16160 8   
16161 5   
16162 5   
16163 6   
16164 6   
16165 9   
16166 53  
16167 83  
16168 8   
16169 5   
16170 5   
16171 7   
16172 86  
16173 8   
16174 5   
16175 1   
16176 6   
16177 7   
16178 7   
16179 9   
16180 100 
16181 69  
16182 66  
16183 4   
16184 2   
16185 55  
16186 5   
16187 10  
16188 4   
16189 64  
16190 1   
16191 7   
16192 79  
16193 65  
16194 9   
16195 9   
16196 4   
16197 80  
16198 56  
16199 1   
16200 3   
16201 2   
16202 6   
16203 89  
16204 9   
16205 59  
16206 10  
16207 8   
16208 4   
16209 10  
16210 4   
16211 4   
16212 3   
16213 7   
16214 7   
16215 2   
16216 9   
16217 2   
16218 2   
16219 60  
16220 3   
16221 54  
16222 8   
16223 5   
16224 10  
16225 7   
16226 10  
16227 69  
16228 9   
16229 5   
16230 5   
16231 8   
16232 8   
16233 81  
16234 8   
16235 4   
16236 3   
16237 9   
16238 1   
16239 9   
16240 4   
16241 95  
16242 3   
16243 9   
16244 6   
16245 7   
16246 7   
16247 8   
16248 7   
16249 9   
16250 5   
16251 2   
16252 8   
16253 76  
16254 8   
16255 7   
16256 2   
16257 3   
16258 9   
16259 5   
16260 1   
16261 8   
16262 3   
16263 3   
16264 4   
16265 3   
16266 7   
16267 99  
16268 7   
16269 2   
16270 95  
16271 58  
16272 10  
16273 9   
16274 5   
16275 5   
16276 8   
16277 10  
16278 2   
16279 7   
16280 67  
16281 9   
16282 1   
16283 8   
16284 68  
16285 69  
16286 96  
16287 7   
16288 7   
16289 8   
16290 7   
16291 4   
16292 9   
16293 61  
16294 1   
16295 7   
16296 3   
16297 2   
16298 5   
16299 7   
16300 7   
16301 2   
16302 7   
16303 79  
16304 7   
16305 3   
16306 5   
16307 95  
16308 53  
16309 5   
16310 78  
16311 1   
16312 89  
16313 10  
16314 8   
16315 69  
16316 10  
16317 9   
16318 5   
16319 4   
16320 5   
16321 6   
16322 8   
16323 2   
16324 6   
16325 3   
16326 1   
16327 3   
16328 8   
16329 8   
16330 3   
16331 1   
16332 6   
16333 4   
16334 8   
16335 71  
16336 2   
16337 7   
16338 7   
16339 5   
16340 6   
16341 5   
16342 5   
16343 1   
16344 3   
16345 10  
16346 7   
16347 10  
16348 5   
16349 5   
16350 9   
16351 66  
16352 4   
16353 4   
16354 3   
16355 3   
16356 2   
16357 5   
16358 91  
16359 6   
16360 5   
16361 56  
16362 1   
16363 4   
16364 4   
16365 60  
16366 1   
16367 9   
16368 1   
16369 5   
16370 71  
16371 67  
16372 9   
16373 73  
16374 62  
16375 5   
16376 6   
16377 2   
16378 6   
16379 10  
16380 2   
16381 5   
16382 7   
16383 7   
16384 4   
16385 56  
16386 4   
16387 2   
16388 9   
16389 7   
16390 2   
16391 94  
16392 83  
16393 1   
16394 5   
16395 9   
16396 8   
16397 1   
16398 1   
16399 5   
16400 3   
16401 8   
16402 10  
16403 10  
16404 6   
16405 5   
16406 7   
16407 4   
16408 5   
16409 10  
16410 80  
16411 6   
16412 90  
16413 60  
16414 6   
16415 1   
16416 63  
16417 95  
16418 1   
16419 10  
16420 4   
16421 5   
16422 7   
16423 5   
16424 79  
16425 67  
16426 9   
16427 53  
16428 6   
16429 4   
16430 70  
16431 5   
16432 10  
16433 76  
16434 6   
16435 5   
16436 4   
16437 10  
16438 9   
16439 10  
16440 74  
16441 2   
16442 10  
16443 9   
16444 3   
16445 82  
16446 8   
16447 77  
16448 1   
16449 85  
16450 9   
16451 3   
16452 96  
16453 5   
16454 8   
16455 8   
16456 4   
16457 4   
16458 10  
16459 6   
16460 7   
16461 54  
16462 4   
16463 2   
16464 1   
16465 100 
16466 9   
16467 77  
16468 4   
16469 10  
16470 82  
16471 7   
16472 2   
16473 64  
16474 5   
16475 8   
16476 10  
16477 65  
16478 3   
16479 86  
16480 3   
16481 4   
16482 4   
16483 4   
16484 1   
16485 3   
16486 1   
16487 83  
16488 6   
16489 1   
16490 60  
16491 3   
16492 63  
16493 3   
16494 4   
16495 2   
16496 7   
16497 10  
16498 53  
16499 7   
16500 10  
16501 6   
16502 2   
16503 10  
16504 8   
16505 75  
16506 5   
16507 6   
16508 60  
16509 92  
16510 9   
16511 6   
16512 7   
16513 56  
16514 7   
16515 4   
16516 7   
16517 82  
16518 6   
16519 3   
16520 2   
16521 2   
16522 55  
16523 1   
16524 9   
16525 7   
16526 2   
16527 77  
16528 3   
16529 2   
16530 4   
16531 4   
16532 10  
16533 6   
16534 8   
16535 8   
16536 4   
16537 2   
16538 1   
16539 5   
16540 3   
16541 10  
16542 6   
16543 5   
16544 9   
16545 69  
16546 6   
16547 3   
16548 6   
16549 2   
16550 54  
16551 4   
16552 4   
16553 7   
16554 9   
16555 6   
16556 10  
16557 10  
16558 55  
16559 10  
16560 5   
16561 4   
16562 1   
16563 2   
16564 86  
16565 3   
16566 5   
16567 5   
16568 9   
16569 9   
16570 8   
16571 2   
16572 70  
16573 7   
16574 2   
16575 2   
16576 9   
16577 2   
16578 3   
16579 3   
16580 3   
16581 67  
16582 2   
16583 51  
16584 8   
16585 9   
16586 8   
16587 59  
16588 1   
16589 80  
16590 1   
16591 100 
16592 10  
16593 9   
16594 7   
16595 2   
16596 8   
16597 4   
16598 92  
16599 9   
16600 3   
16601 8   
16602 9   
16603 73  
16604 88  
16605 9   
16606 1   
16607 2   
16608 83  
16609 8   
16610 2   
16611 5   
16612 5   
16613 61  
16614 9   
16615 3   
16616 8   
16617 4   
16618 3   
16619 82  
16620 76  
16621 87  
16622 7   
16623 10  
16624 72  
16625 6   
16626 9   
16627 3   
16628 5   
16629 6   
16630 9   
16631 55  
16632 5   
16633 4   
16634 7   
16635 1   
16636 5   
16637 4   
16638 6   
16639 81  
16640 8   
16641 5   
16642 7   
16643 1   
16644 4   
16645 4   
16646 9   
16647 9   
16648 1   
16649 9   
16650 1   
16651 10  
16652 66  
16653 6   
16654 3   
16655 8   
16656 5   
16657 1   
16658 7   
16659 6   
16660 7   
16661 5   
16662 9   
16663 8   
16664 10  
16665 61  
16666 1   
16667 68  
16668 10  
16669 3   
16670 7   
16671 96  
16672 9   
16673 6   
16674 9   
16675 83  
16676 6   
16677 5   
16678 61  
16679 6   
16680 3   
16681 9   
16682 2   
16683 2   
16684 52  
16685 5   
16686 7   
16687 8   
16688 5   
16689 6   
16690 84  
16691 3   
16692 2   
16693 5   
16694 100 
16695 1   
16696 65  
16697 8   
16698 9   
16699 53  
16700 10  
16701 6   
16702 7   
16703 2   
16704 4   
16705 1   
16706 7   
16707 9   
16708 7   
16709 2   
16710 6   
16711 8   
16712 99  
16713 1   
16714 7   
16715 81  
16716 6   
16717 2   
16718 4   
16719 9   
16720 1   
16721 2   
16722 10  
16723 4   
16724 10  
16725 4   
16726 3   
16727 5   
16728 54  
16729 4   
16730 72  
16731 10  
16732 4   
16733 10  
16734 9   
16735 2   
16736 9   
16737 94  
16738 3   
16739 3   
16740 3   
16741 5   
16742 90  
16743 6   
16744 9   
16745 92  
16746 3   
16747 7   
16748 3   
16749 5   
16750 10  
16751 6   
16752 5   
16753 10  
16754 10  
16755 3   
16756 10  
16757 6   
16758 1   
16759 10  
16760 3   
16761 6   
16762 55  
16763 2   
16764 1   
16765 2   
16766 8   
16767 1   
16768 10  
16769 64  
16770 10  
16771 6   
16772 8   
16773 10  
16774 5   
16775 9   
16776 75  
16777 5   
16778 3   
16779 97  
16780 52  
16781 7   
16782 10  
16783 4   
16784 6   
16785 4   
16786 87  
16787 5   
16788 6   
16789 7   
16790 1   
16791 3   
16792 6   
16793 10  
16794 4   
16795 86  
16796 5   
16797 6   
16798 10  
16799 6   
16800 5   
16801 4   
16802 90  
16803 7   
16804 5   
16805 8   
16806 55  
16807 7   
16808 1   
16809 7   
16810 2   
16811 4   
16812 95  
16813 9   
16814 1   
16815 8   
16816 7   
16817 6   
16818 5   
16819 10  
16820 87  
16821 8   
16822 88  
16823 87  
16824 7   
16825 8   
16826 8   
16827 9   
16828 9   
16829 2   
16830 5   
16831 85  
16832 8   
16833 1   
16834 5   
16835 1   
16836 2   
16837 8   
16838 8   
16839 53  
16840 3   
16841 1   
16842 10  
16843 3   
16844 2   
16845 10  
16846 3   
16847 7   
16848 5   
16849 2   
16850 6   
16851 10  
16852 59  
16853 10  
16854 3   
16855 8   
16856 5   
16857 10  
16858 9   
16859 10  
16860 64  
16861 4   
16862 2   
16863 9   
16864 5   
16865 6   
16866 5   
16867 8   
16868 70  
16869 10  
16870 5   
16871 8   
16872 2   
16873 97  
16874 98  
16875 9   
16876 2   
16877 5   
16878 3   
16879 9   
16880 9   
16881 3   
16882 8   
16883 2   
16884 7   
16885 6   
16886 10  
16887 100 
16888 5   
16889 1   
16890 4   
16891 86  
16892 3   
16893 71  
16894 2   
16895 10  
16896 58  
16897 3   
16898 1   
16899 7   
16900 6   
16901 3   
16902 10  
16903 88  
16904 6   
16905 8   
16906 5   
16907 4   
16908 2   
16909 5   
16910 5   
16911 7   
16912 3   
16913 6   
16914 6   
16915 5   
16916 2   
16917 57  
16918 6   
16919 10  
16920 1   
16921 7   
16922 10  
16923 6   
16924 2   
16925 1   
16926 8   
16927 8   
16928 5   
16929 95  
16930 3   
16931 7   
16932 72  
16933 1   
16934 9   
16935 1   
16936 5   
16937 57  
16938 8   
16939 10  
16940 8   
16941 2   
16942 4   
16943 8   
16944 5   
16945 1   
16946 9   
16947 4   
16948 94  
16949 10  
16950 69  
16951 8   
16952 8   
16953 66  
16954 6   
16955 8   
16956 87  
16957 10  
16958 1   
16959 5   
16960 4   
16961 61  
16962 1   
16963 6   
16964 10  
16965 5   
16966 58  
16967 3   
16968 99  
16969 80  
16970 5   
16971 6   
16972 9   
16973 95  
16974 1   
16975 7   
16976 6   
16977 9   
16978 7   
16979 3   
16980 3   
16981 4   
16982 63  
16983 86  
16984 9   
16985 7   
16986 5   
16987 6   
16988 8   
16989 1   
16990 4   
16991 8   
16992 76  
16993 10  
16994 9   
16995 3   
16996 10  
16997 4   
16998 9   
16999 1   
17000 3   
17001 1   
17002 6   
17003 67  
17004 3   
17005 95  
17006 9   
17007 10  
17008 10  
17009 3   
17010 9   
17011 5   
17012 5   
17013 85  
17014 5   
17015 10  
17016 8   
17017 7   
17018 2   
17019 58  
17020 4   
17021 2   
17022 2   
17023 52  
17024 2   
17025 9   
17026 9   
17027 9   
17028 96  
17029 3   
17030 3   
17031 68  
17032 9   
17033 4   
17034 3   
17035 6   
17036 5   
17037 86  
17038 7   
17039 6   
17040 2   
17041 5   
17042 7   
17043 1   
17044 77  
17045 4   
17046 7   
17047 1   
17048 10  
17049 10  
17050 4   
17051 4   
17052 6   
17053 9   
17054 5   
17055 9   
17056 57  
17057 9   
17058 68  
17059 55  
17060 1   
17061 9   
17062 10  
17063 78  
17064 2   
17065 4   
17066 4   
17067 5   
17068 1   
17069 6   
17070 63  
17071 3   
17072 5   
17073 8   
17074 7   
17075 5   
17076 5   
17077 5   
17078 9   
17079 4   
17080 87  
17081 2   
17082 6   
17083 1   
17084 3   
17085 2   
17086 100 
17087 7   
17088 9   
17089 4   
17090 61  
17091 60  
17092 9   
17093 3   
17094 87  
17095 8   
17096 5   
17097 10  
17098 4   
17099 5   
17100 4   
17101 77  
17102 3   
17103 5   
17104 2   
17105 6   
17106 5   
17107 3   
17108 83  
17109 100 
17110 6   
17111 59  
17112 1   
17113 69  
17114 9   
17115 4   
17116 98  
17117 8   
17118 9   
17119 2   
17120 10  
17121 3   
17122 4   
17123 51  
17124 3   
17125 95  
17126 7   
17127 3   
17128 1   
17129 55  
17130 6   
17131 3   
17132 1   
17133 79  
17134 10  
17135 10  
17136 3   
17137 73  
17138 1   
17139 3   
17140 1   
17141 2   
17142 5   
17143 4   
17144 6   
17145 8   
17146 10  
17147 8   
17148 93  
17149 2   
17150 10  
17151 4   
17152 2   
17153 50  
17154 8   
17155 3   
17156 9   
17157 57  
17158 85  
17159 61  
17160 8   
17161 3   
17162 8   
17163 7   
17164 9   
17165 10  
17166 7   
17167 94  
17168 4   
17169 8   
17170 2   
17171 5   
17172 58  
17173 8   
17174 6   
17175 54  
17176 5   
17177 4   
17178 4   
17179 10  
17180 10  
17181 100 
17182 10  
17183 100 
17184 100 
17185 89  
17186 6   
17187 5   
17188 72  
17189 2   
17190 3   
17191 93  
17192 10  
17193 4   
17194 2   
17195 9   
17196 2   
17197 1   
17198 1   
17199 73  
17200 2   
17201 70  
17202 7   
17203 8   
17204 2   
17205 3   
17206 6   
17207 9   
17208 94  
17209 10  
17210 10  
17211 8   
17212 5   
17213 63  
17214 6   
17215 8   
17216 5   
17217 7   
17218 5   
17219 9   
17220 9   
17221 1   
17222 72  
17223 2   
17224 9   
17225 9   
17226 1   
17227 100 
17228 10  
17229 5   
17230 8   
17231 10  
17232 76  
17233 7   
17234 5   
17235 8   
17236 10  
17237 4   
17238 9   
17239 1   
17240 10  
17241 98  
17242 7   
17243 6   
17244 3   
17245 1   
17246 98  
17247 7   
17248 82  
17249 1   
17250 65  
17251 74  
17252 4   
17253 3   
17254 9   
17255 2   
17256 2   
17257 10  
17258 8   
17259 7   
17260 2   
17261 3   
17262 10  
17263 2   
17264 5   
17265 6   
17266 68  
17267 2   
17268 56  
17269 7   
17270 10  
17271 4   
17272 2   
17273 4   
17274 3   
17275 10  
17276 7   
17277 3   
17278 6   
17279 5   
17280 2   
17281 1   
17282 2   
17283 6   
17284 8   
17285 7   
17286 5   
17287 6   
17288 5   
17289 6   
17290 9   
17291 6   
17292 6   
17293 8   
17294 5   
17295 1   
17296 5   
17297 5   
17298 3   
17299 7   
17300 7   
17301 2   
17302 6   
17303 4   
17304 3   
17305 8   
17306 7   
17307 5   
17308 10  
17309 94  
17310 4   
17311 7   
17312 8   
17313 1   
17314 97  
17315 9   
17316 3   
17317 10  
17318 6   
17319 65  
17320 8   
17321 9   
17322 10  
17323 6   
17324 2   
17325 4   
17326 7   
17327 10  
17328 2   
17329 5   
17330 74  
17331 86  
17332 1   
17333 8   
17334 57  
17335 5   
17336 1   
17337 2   
17338 99  
17339 70  
17340 3   
17341 54  
17342 3   
17343 6   
17344 50  
17345 3   
17346 4   
17347 4   
17348 1   
17349 2   
17350 1   
17351 7   
17352 5   
17353 74  
17354 6   
17355 9   
17356 2   
17357 7   
17358 7   
17359 7   
17360 2   
17361 2   
17362 6   
17363 1   
17364 4   
17365 4   
17366 4   
17367 1   
17368 8   
17369 90  
17370 58  
17371 9   
17372 6   
17373 3   
17374 8   
17375 5   
17376 1   
17377 10  
17378 55  
17379 62  
17380 9   
17381 73  
17382 1   
17383 2   
17384 10  
17385 1   
17386 9   
17387 7   
17388 7   
17389 10  
17390 1   
17391 8   
17392 7   
17393 78  
17394 2   
17395 1   
17396 97  
17397 9   
17398 2   
17399 5   
17400 5   
17401 9   
17402 82  
17403 99  
17404 9   
17405 2   
17406 6   
17407 6   
17408 60  
17409 9   
17410 75  
17411 3   
17412 9   
17413 7   
17414 61  
17415 2   
17416 2   
17417 4   
17418 8   
17419 6   
17420 72  
17421 4   
17422 6   
17423 85  
17424 57  
17425 86  
17426 1   
17427 2   
17428 88  
17429 3   
17430 74  
17431 6   
17432 1   
17433 8   
17434 5   
17435 2   
17436 54  
17437 77  
17438 6   
17439 1   
17440 8   
17441 7   
17442 7   
17443 4   
17444 2   
17445 2   
17446 6   
17447 9   
17448 1   
17449 5   
17450 7   
17451 8   
17452 4   
17453 8   
17454 62  
17455 4   
17456 75  
17457 9   
17458 8   
17459 93  
17460 3   
17461 9   
17462 4   
17463 5   
17464 10  
17465 2   
17466 1   
17467 8   
17468 96  
17469 10  
17470 3   
17471 7   
17472 10  
17473 4   
17474 2   
17475 10  
17476 63  
17477 62  
17478 8   
17479 3   
17480 76  
17481 3   
17482 10  
17483 2   
17484 7   
17485 4   
17486 3   
17487 5   
17488 76  
17489 7   
17490 10  
17491 3   
17492 10  
17493 5   
17494 8   
17495 6   
17496 2   
17497 7   
17498 95  
17499 4   
17500 4   
17501 5   
17502 6   
17503 9   
17504 5   
17505 4   
17506 2   
17507 3   
17508 61  
17509 77  
17510 9   
17511 5   
17512 8   
17513 1   
17514 7   
17515 6   
17516 2   
17517 9   
17518 1   
17519 10  
17520 58  
17521 4   
17522 2   
17523 67  
17524 8   
17525 4   
17526 5   
17527 4   
17528 3   
17529 6   
17530 2   
17531 10  
17532 1   
17533 7   
17534 4   
17535 9   
17536 2   
17537 10  
17538 6   
17539 6   
17540 7   
17541 10  
17542 1   
17543 3   
17544 8   
17545 10  
17546 3   
17547 5   
17548 56  
17549 2   
17550 3   
17551 10  
17552 4   
17553 7   
17554 53  
17555 3   
17556 4   
17557 7   
17558 3   
17559 6   
17560 4   
17561 6   
17562 1   
17563 65  
17564 4   
17565 1   
17566 9   
17567 3   
17568 6   
17569 4   
17570 7   
17571 7   
17572 4   
17573 5   
17574 9   
17575 61  
17576 2   
17577 4   
17578 3   
17579 1   
17580 85  
17581 4   
17582 1   
17583 4   
17584 9   
17585 1   
17586 1   
17587 3   
17588 3   
17589 9   
17590 4   
17591 3   
17592 6   
17593 84  
17594 3   
17595 5   
17596 83  
17597 4   
17598 2   
17599 8   
17600 8   
17601 2   
17602 7   
17603 7   
17604 2   
17605 7   
17606 2   
17607 8   
17608 10  
17609 6   
17610 6   
17611 2   
17612 7   
17613 2   
17614 5   
17615 5   
17616 6   
17617 8   
17618 2   
17619 5   
17620 8   
17621 10  
17622 10  
17623 7   
17624 7   
17625 7   
17626 4   
17627 60  
17628 7   
17629 54  
17630 2   
17631 1   
17632 52  
17633 8   
17634 2   
17635 73  
17636 84  
17637 9   
17638 10  
17639 51  
17640 3   
17641 9   
17642 7   
17643 1   
17644 9   
17645 5   
17646 2   
17647 70  
17648 7   
17649 75  
17650 6   
17651 6   
17652 2   
17653 3   
17654 10  
17655 9   
17656 10  
17657 6   
17658 9   
17659 3   
17660 2   
17661 9   
17662 61  
17663 5   
17664 7   
17665 4   
17666 4   
17667 10  
17668 10  
17669 1   
17670 5   
17671 9   
17672 1   
17673 7   
17674 1   
17675 99  
17676 2   
17677 8   
17678 1   
17679 55  
17680 3   
17681 3   
17682 51  
17683 3   
17684 2   
17685 64  
17686 9   
17687 2   
17688 10  
17689 7   
17690 2   
17691 4   
17692 8   
17693 10  
17694 6   
17695 2   
17696 7   
17697 4   
17698 9   
17699 7   
17700 4   
17701 2   
17702 10  
17703 2   
17704 10  
17705 5   
17706 5   
17707 10  
17708 96  
17709 4   
17710 96  
17711 9   
17712 96  
17713 8   
17714 4   
17715 10  
17716 87  
17717 9   
17718 7   
17719 65  
17720 65  
17721 6   
17722 8   
17723 1   
17724 1   
17725 6   
17726 6   
17727 10  
17728 6   
17729 1   
17730 9   
17731 9   
17732 2   
17733 7   
17734 4   
17735 4   
17736 51  
17737 78  
17738 10  
17739 9   
17740 4   
17741 7   
17742 85  
17743 1   
17744 10  
17745 76  
17746 5   
17747 7   
17748 51  
17749 5   
17750 9   
17751 5   
17752 57  
17753 3   
17754 63  
17755 58  
17756 6   
17757 55  
17758 8   
17759 9   
17760 4   
17761 9   
17762 2   
17763 10  
17764 5   
17765 69  
17766 2   
17767 2   
17768 9   
17769 2   
17770 8   
17771 1   
17772 9   
17773 1   
17774 2   
17775 88  
17776 91  
17777 97  
17778 4   
17779 4   
17780 10  
17781 4   
17782 6   
17783 5   
17784 3   
17785 9   
17786 3   
17787 2   
17788 5   
17789 10  
17790 3   
17791 10  
17792 10  
17793 8   
17794 5   
17795 8   
17796 10  
17797 10  
17798 10  
17799 1   
17800 1   
17801 6   
17802 1   
17803 9   
17804 4   
17805 5   
17806 1   
17807 69  
17808 8   
17809 2   
17810 65  
17811 6   
17812 5   
17813 3   
17814 9   
17815 8   
17816 98  
17817 50  
17818 6   
17819 7   
17820 70  
17821 8   
17822 10  
17823 64  
17824 10  
17825 6   
17826 2   
17827 9   
17828 7   
17829 7   
17830 7   
17831 8   
17832 2   
17833 64  
17834 59  
17835 6   
17836 55  
17837 2   
17838 6   
17839 4   
17840 5   
17841 3   
17842 3   
17843 3   
17844 9   
17845 8   
17846 2   
17847 8   
17848 6   
17849 4   
17850 5   
17851 75  
17852 3   
17853 9   
17854 8   
17855 75  
17856 7   
17857 4   
17858 7   
17859 2   
17860 53  
17861 74  
17862 9   
17863 4   
17864 9   
17865 89  
17866 82  
17867 8   
17868 4   
17869 1   
17870 7   
17871 2   
17872 2   
17873 9   
17874 7   
17875 5   
17876 81  
17877 2   
17878 4   
17879 63  
17880 3   
17881 5   
17882 5   
17883 6   
17884 2   
17885 7   
17886 74  
17887 1   
17888 6   
17889 6   
17890 4   
17891 4   
17892 9   
17893 3   
17894 5   
17895 83  
17896 6   
17897 1   
17898 5   
17899 70  
17900 2   
17901 2   
17902 9   
17903 10  
17904 10  
17905 8   
17906 2   
17907 1   
17908 9   
17909 10  
17910 3   
17911 2   
17912 10  
17913 64  
17914 2   
17915 82  
17916 10  
17917 5   
17918 5   
17919 3   
17920 3   
17921 3   
17922 1   
17923 10  
17924 7   
17925 2   
17926 4   
17927 8   
17928 3   
17929 7   
17930 2   
17931 7   
17932 4   
17933 8   
17934 10  
17935 10  
17936 3   
17937 8   
17938 9   
17939 7   
17940 4   
17941 3   
17942 9   
17943 7   
17944 8   
17945 3   
17946 9   
17947 5   
17948 87  
17949 61  
17950 9   
17951 10  
17952 6   
17953 10  
17954 8   
17955 7   
17956 1   
17957 8   
17958 9   
17959 1   
17960 7   
17961 1   
17962 4   
17963 79  
17964 9   
17965 2   
17966 8   
17967 5   
17968 9   
17969 10  
17970 6   
17971 2   
17972 2   
17973 7   
17974 7   
17975 6   
17976 10  
17977 1   
17978 7   
17979 88  
17980 5   
17981 8   
17982 4   
17983 5   
17984 6   
17985 4   
17986 2   
17987 8   
17988 1   
17989 3   
17990 88  
17991 3   
17992 5   
17993 1   
17994 2   
17995 10  
17996 1   
17997 86  
17998 4   
17999 5   
18000 1   
18001 2   
18002 4   
18003 4   
18004 8   
18005 9   
18006 5   
18007 2   
18008 6   
18009 89  
18010 2   
18011 10  
18012 7   
18013 7   
18014 4   
18015 3   
18016 61  
18017 1   
18018 77  
18019 1   
18020 1   
18021 1   
18022 10  
18023 10  
18024 9   
18025 3   
18026 3   
18027 80  
18028 83  
18029 5   
18030 5   
18031 3   
18032 5   
18033 9   
18034 2   
18035 9   
18036 50  
18037 5   
18038 87  
18039 6   
18040 3   
18041 3   
18042 7   
18043 5   
18044 79  
18045 66  
18046 1   
18047 4   
18048 54  
18049 50  
18050 2   
18051 94  
18052 5   
18053 50  
18054 82  
18055 8   
18056 6   
18057 1   
18058 3   
18059 95  
18060 6   
18061 77  
18062 75  
18063 86  
18064 1   
18065 2   
18066 8   
18067 8   
18068 58  
18069 6   
18070 9   
18071 10  
18072 8   
18073 7   
18074 7   
18075 2   
18076 10  
18077 1   
18078 72  
18079 8   
18080 4   
18081 65  
18082 5   
18083 1   
18084 7   
18085 9   
18086 1   
18087 64  
18088 10  
18089 8   
18090 72  
18091 5   
18092 3   
18093 9   
18094 3   
18095 8   
18096 54  
18097 8   
18098 6   
18099 8   
18100 1   
18101 3   
18102 96  
18103 2   
18104 2   
18105 100 
18106 6   
18107 1   
18108 2   
18109 2   
18110 90  
18111 4   
18112 5   
18113 5   
18114 1   
18115 8   
18116 3   
18117 8   
18118 2   
18119 7   
18120 7   
18121 10  
18122 67  
18123 8   
18124 3   
18125 55  
18126 8   
18127 4   
18128 3   
18129 5   
18130 9   
18131 2   
18132 2   
18133 4   
18134 4   
18135 4   
18136 7   
18137 1   
18138 9   
18139 1   
18140 3   
18141 51  
18142 7   
18143 4   
18144 95  
18145 10  
18146 57  
18147 3   
18148 3   
18149 5   
18150 8   
18151 2   
18152 6   
18153 2   
18154 6   
18155 1   
18156 8   
18157 2   
18158 1   
18159 9   
18160 6   
18161 1   
18162 1   
18163 71  
18164 79  
18165 7   
18166 5   
18167 7   
18168 10  
18169 10  
18170 1   
18171 1   
18172 4   
18173 6   
18174 4   
18175 9   
18176 2   
18177 2   
18178 69  
18179 10  
18180 2   
18181 7   
18182 64  
18183 2   
18184 6   
18185 9   
18186 4   
18187 9   
18188 5   
18189 4   
18190 66  
18191 2   
18192 6   
18193 8   
18194 7   
18195 7   
18196 6   
18197 7   
18198 6   
18199 8   
18200 4   
18201 2   
18202 5   
18203 2   
18204 2   
18205 5   
18206 1   
18207 10  
18208 5   
18209 50  
18210 8   
18211 4   
18212 9   
18213 7   
18214 4   
18215 85  
18216 3   
18217 88  
18218 5   
18219 86  
18220 1   
18221 1   
18222 52  
18223 95  
18224 70  
18225 60  
18226 79  
18227 5   
18228 1   
18229 4   
18230 3   
18231 66  
18232 80  
18233 10  
18234 7   
18235 6   
18236 62  
18237 9   
18238 8   
18239 80  
18240 10  
18241 1   
18242 3   
18243 6   
18244 10  
18245 8   
18246 3   
18247 9   
18248 6   
18249 5   
18250 98  
18251 10  
18252 8   
18253 89  
18254 6   
18255 92  
18256 58  
18257 4   
18258 2   
18259 91  
18260 2   
18261 2   
18262 4   
18263 3   
18264 50  
18265 2   
18266 1   
18267 74  
18268 2   
18269 8   
18270 1   
18271 7   
18272 3   
18273 3   
18274 9   
18275 7   
18276 9   
18277 62  
18278 69  
18279 4   
18280 10  
18281 3   
18282 5   
18283 7   
18284 4   
18285 8   
18286 3   
18287 1   
18288 9   
18289 74  
18290 72  
18291 3   
18292 10  
18293 1   
18294 1   
18295 52  
18296 1   
18297 3   
18298 3   
18299 75  
18300 2   
18301 3   
18302 6   
18303 95  
18304 7   
18305 3   
18306 10  
18307 8   
18308 9   
18309 4   
18310 3   
18311 8   
18312 10  
18313 8   
18314 3   
18315 5   
18316 8   
18317 4   
18318 8   
18319 5   
18320 51  
18321 8   
18322 10  
18323 8   
18324 4   
18325 6   
18326 1   
18327 6   
18328 7   
18329 6   
18330 6   
18331 94  
18332 9   
18333 9   
18334 10  
18335 5   
18336 1   
18337 10  
18338 3   
18339 9   
18340 96  
18341 3   
18342 8   
18343 9   
18344 10  
18345 4   
18346 70  
18347 2   
18348 2   
18349 9   
18350 10  
18351 7   
18352 9   
18353 3   
18354 3   
18355 9   
18356 7   
18357 4   
18358 5   
18359 7   
18360 1   
18361 1   
18362 1   
18363 8   
18364 71  
18365 9   
18366 5   
18367 9   
18368 93  
18369 3   
18370 64  
18371 1   
18372 7   
18373 10  
18374 6   
18375 1   
18376 3   
18377 7   
18378 7   
18379 7   
18380 1   
18381 5   
18382 9   
18383 56  
18384 1   
18385 5   
18386 55  
18387 4   
18388 93  
18389 10  
18390 74  
18391 9   
18392 2   
18393 4   
18394 89  
18395 8   
18396 9   
18397 8   
18398 4   
18399 1   
18400 6   
18401 10  
18402 3   
18403 4   
18404 8   
18405 4   
18406 5   
18407 1   
18408 2   
18409 4   
18410 3   
18411 6   
18412 1   
18413 7   
18414 9   
18415 8   
18416 6   
18417 63  
18418 7   
18419 52  
18420 3   
18421 72  
18422 4   
18423 4   
18424 9   
18425 3   
18426 94  
18427 1   
18428 5   
18429 1   
18430 3   
18431 9   
18432 8   
18433 86  
18434 3   
18435 2   
18436 3   
18437 9   
18438 65  
18439 7   
18440 3   
18441 1   
18442 9   
18443 68  
18444 2   
18445 8   
18446 2   
18447 8   
18448 8   
18449 10  
18450 4   
18451 9   
18452 1   
18453 6   
18454 2   
18455 8   
18456 2   
18457 4   
18458 6   
18459 9   
18460 3   
18461 9   
18462 2   
18463 8   
18464 2   
18465 10  
18466 51  
18467 5   
18468 3   
18469 3   
18470 7   
18471 7   
18472 6   
18473 3   
18474 5   
18475 81  
18476 8   
18477 10  
18478 55  
18479 8   
18480 8   
18481 7   
18482 69  
18483 6   
18484 1   
18485 10  
18486 81  
18487 5   
18488 6   
18489 7   
18490 4   
18491 7   
18492 3   
18493 9   
18494 6   
18495 2   
18496 2   
18497 8   
18498 7   
18499 8   
18500 6   
18501 3   
18502 1   
18503 8   
18504 6   
18505 3   
18506 6   
18507 5   
18508 10  
18509 67  
18510 5   
18511 10  
18512 7   
18513 5   
18514 2   
18515 1   
18516 86  
18517 1   
18518 85  
18519 1   
18520 5   
18521 3   
18522 3   
18523 53  
18524 3   
18525 2   
18526 3   
18527 7   
18528 73  
18529 85  
18530 8   
18531 9   
18532 8   
18533 5   
18534 76  
18535 9   
18536 100 
18537 6   
18538 8   
18539 7   
18540 3   
18541 58  
18542 2   
18543 7   
18544 99  
18545 10  
18546 1   
18547 2   
18548 10  
18549 7   
18550 2   
18551 5   
18552 86  
18553 9   
18554 5   
18555 1   
18556 10  
18557 9   
18558 76  
18559 9   
18560 2   
18561 1   
18562 7   
18563 1   
18564 8   
18565 51  
18566 9   
18567 4   
18568 8   
18569 5   
18570 3   
18571 96  
18572 2   
18573 5   
18574 5   
18575 9   
18576 10  
18577 7   
18578 3   
18579 2   
18580 93  
18581 8   
18582 10  
18583 8   
18584 5   
18585 8   
18586 9   
18587 2   
18588 5   
18589 2   
18590 81  
18591 1   
18592 8   
18593 3   
18594 57  
18595 7   
18596 9   
18597 3   
18598 7   
18599 10  
18600 8   
18601 1   
18602 9   
18603 4   
18604 8   
18605 87  
18606 4   
18607 9   
18608 3   
18609 8   
18610 10  
18611 58  
18612 10  
18613 10  
18614 93  
18615 85  
18616 7   
18617 1   
18618 3   
18619 10  
18620 4   
18621 9   
18622 5   
18623 2   
18624 10  
18625 1   
18626 8   
18627 4   
18628 52  
18629 7   
18630 3   
18631 9   
18632 8   
18633 2   
18634 6   
18635 5   
18636 1   
18637 8   
18638 9   
18639 7   
18640 5   
18641 85  
18642 3   
18643 6   
18644 6   
18645 8   
18646 9   
18647 4   
18648 2   
18649 5   
18650 55  
18651 2   
18652 1   
18653 2   
18654 7   
18655 9   
18656 8   
18657 2   
18658 10  
18659 3   
18660 6   
18661 88  
18662 1   
18663 2   
18664 58  
18665 5   
18666 7   
18667 3   
18668 3   
18669 9   
18670 6   
18671 68  
18672 10  
18673 10  
18674 5   
18675 73  
18676 10  
18677 76  
18678 8   
18679 81  
18680 5   
18681 3   
18682 10  
18683 9   
18684 1   
18685 10  
18686 8   
18687 95  
18688 4   
18689 5   
18690 10  
18691 3   
18692 8   
18693 10  
18694 7   
18695 92  
18696 5   
18697 4   
18698 3   
18699 7   
18700 71  
18701 10  
18702 6   
18703 6   
18704 2   
18705 5   
18706 3   
18707 10  
18708 10  
18709 4   
18710 8   
18711 72  
18712 4   
18713 6   
18714 6   
18715 87  
18716 6   
18717 5   
18718 2   
18719 63  
18720 7   
18721 76  
18722 4   
18723 3   
18724 10  
18725 6   
18726 2   
18727 10  
18728 10  
18729 1   
18730 10  
18731 2   
18732 10  
18733 2   
18734 95  
18735 58  
18736 4   
18737 4   
18738 1   
18739 95  
18740 8   
18741 3   
18742 5   
18743 7   
18744 6   
18745 9   
18746 97  
18747 5   
18748 1   
18749 1   
18750 3   
18751 5   
18752 9   
18753 9   
18754 5   
18755 87  
18756 83  
18757 5   
18758 7   
18759 3   
18760 97  
18761 4   
18762 1   
18763 6   
18764 8   
18765 50  
18766 9   
18767 5   
18768 2   
18769 85  
18770 1   
18771 3   
18772 99  
18773 3   
18774 1   
18775 10  
18776 9   
18777 8   
18778 4   
18779 5   
18780 10  
18781 7   
18782 9   
18783 9   
18784 4   
18785 53  
18786 6   
18787 4   
18788 10  
18789 10  
18790 5   
18791 74  
18792 1   
18793 1   
18794 10  
18795 5   
18796 5   
18797 8   
18798 8   
18799 2   
18800 1   
18801 3   
18802 4   
18803 4   
18804 6   
18805 86  
18806 6   
18807 9   
18808 5   
18809 73  
18810 85  
18811 4   
18812 93  
18813 5   
18814 4   
18815 9   
18816 7   
18817 4   
18818 51  
18819 10  
18820 5   
18821 71  
18822 2   
18823 3   
18824 63  
18825 7   
18826 4   
18827 7   
18828 3   
18829 1   
18830 9   
18831 5   
18832 8   
18833 6   
18834 60  
18835 10  
18836 79  
18837 8   
18838 10  
18839 84  
18840 6   
18841 9   
18842 2   
18843 4   
18844 3   
18845 85  
18846 67  
18847 6   
18848 3   
18849 72  
18850 3   
18851 52  
18852 2   
18853 2   
18854 8   
18855 7   
18856 6   
18857 5   
18858 6   
18859 3   
18860 57  
18861 5   
18862 10  
18863 4   
18864 95  
18865 3   
18866 8   
18867 10  
18868 8   
18869 5   
18870 3   
18871 9   
18872 1   
18873 1   
18874 2   
18875 2   
18876 1   
18877 9   
18878 4   
18879 9   
18880 8   
18881 8   
18882 2   
18883 3   
18884 10  
18885 4   
18886 97  
18887 7   
18888 2   
18889 10  
18890 99  
18891 8   
18892 4   
18893 2   
18894 5   
18895 1   
18896 10  
18897 4   
18898 5   
18899 68  
18900 2   
18901 6   
18902 8   
18903 10  
18904 67  
18905 2   
18906 74  
18907 9   
18908 4   
18909 5   
18910 1   
18911 8   
18912 9   
18913 8   
18914 94  
18915 58  
18916 2   
18917 1   
18918 7   
18919 8   
18920 2   
18921 76  
18922 4   
18923 10  
18924 7   
18925 1   
18926 4   
18927 10  
18928 4   
18929 8   
18930 9   
18931 52  
18932 1   
18933 5   
18934 3   
18935 2   
18936 3   
18937 6   
18938 8   
18939 10  
18940 10  
18941 3   
18942 7   
18943 8   
18944 8   
18945 3   
18946 2   
18947 8   
18948 99  
18949 1   
18950 1   
18951 5   
18952 3   
18953 6   
18954 60  
18955 10  
18956 7   
18957 88  
18958 8   
18959 52  
18960 79  
18961 10  
18962 2   
18963 5   
18964 8   
18965 5   
18966 5   
18967 70  
18968 79  
18969 7   
18970 8   
18971 7   
18972 65  
18973 7   
18974 78  
18975 2   
18976 7   
18977 2   
18978 2   
18979 65  
18980 8   
18981 4   
18982 10  
18983 83  
18984 90  
18985 10  
18986 4   
18987 6   
18988 8   
18989 6   
18990 7   
18991 7   
18992 2   
18993 5   
18994 9   
18995 4   
18996 5   
18997 6   
18998 59  
18999 8   
19000 1   
19001 5   
19002 6   
19003 6   
19004 4   
19005 3   
19006 4   
19007 10  
19008 9   
19009 10  
19010 2   
19011 3   
19012 2   
19013 84  
19014 5   
19015 2   
19016 9   
19017 1   
19018 4   
19019 6   
19020 6   
19021 5   
19022 94  
19023 10  
19024 4   
19025 50  
19026 5   
19027 8   
19028 5   
19029 6   
19030 2   
19031 7   
19032 93  
19033 8   
19034 6   
19035 3   
19036 10  
19037 10  
19038 5   
19039 8   
19040 3   
19041 2   
19042 83  
19043 70  
19044 7   
19045 7   
19046 7   
19047 4   
19048 8   
19049 4   
19050 5   
19051 4   
19052 9   
19053 58  
19054 1   
19055 2   
19056 1   
19057 72  
19058 3   
19059 9   
19060 5   
19061 1   
19062 9   
19063 6   
19064 1   
19065 6   
19066 10  
19067 7   
19068 4   
19069 1   
19070 10  
19071 94  
19072 10  
19073 83  
19074 95  
19075 9   
19076 4   
19077 88  
19078 1   
19079 6   
19080 9   
19081 2   
19082 1   
19083 5   
19084 8   
19085 95  
19086 9   
19087 2   
19088 5   
19089 7   
19090 9   
19091 5   
19092 4   
19093 8   
19094 1   
19095 8   
19096 82  
19097 4   
19098 7   
19099 6   
19100 4   
19101 1   
19102 54  
19103 9   
19104 98  
19105 52  
19106 9   
19107 10  
19108 10  
19109 10  
19110 2   
19111 4   
19112 6   
19113 91  
19114 3   
19115 2   
19116 7   
19117 10  
19118 3   
19119 1   
19120 4   
19121 3   
19122 7   
19123 3   
19124 8   
19125 1   
19126 7   
19127 91  
19128 86  
19129 9   
19130 10  
19131 10  
19132 54  
19133 4   
19134 5   
19135 7   
19136 4   
19137 7   
19138 2   
19139 3   
19140 1   
19141 7   
19142 71  
19143 1   
19144 8   
19145 53  
19146 5   
19147 3   
19148 8   
19149 5   
19150 4   
19151 8   
19152 2   
19153 95  
19154 3   
19155 7   
19156 4   
19157 9   
19158 8   
19159 3   
19160 97  
19161 6   
19162 91  
19163 7   
19164 4   
19165 2   
19166 5   
19167 3   
19168 9   
19169 91  
19170 1   
19171 4   
19172 2   
19173 4   
19174 8   
19175 2   
19176 10  
19177 8   
19178 10  
19179 65  
19180 10  
19181 8   
19182 73  
19183 93  
19184 2   
19185 75  
19186 80  
19187 4   
19188 6   
19189 9   
19190 3   
19191 10  
19192 8   
19193 1   
19194 7   
19195 9   
19196 5   
19197 6   
19198 4   
19199 10  
19200 8   
19201 8   
19202 83  
19203 4   
19204 50  
19205 10  
19206 5   
19207 5   
19208 10  
19209 3   
19210 2   
19211 4   
19212 10  
19213 4   
19214 1   
19215 4   
19216 1   
19217 10  
19218 75  
19219 4   
19220 4   
19221 2   
19222 9   
19223 5   
19224 7   
19225 2   
19226 3   
19227 8   
19228 3   
19229 1   
19230 62  
19231 7   
19232 3   
19233 8   
19234 4   
19235 1   
19236 76  
19237 5   
19238 63  
19239 5   
19240 5   
19241 68  
19242 5   
19243 9   
19244 93  
19245 3   
19246 79  
19247 9   
19248 87  
19249 1   
19250 6   
19251 9   
19252 85  
19253 4   
19254 1   
19255 51  
19256 1   
19257 10  
19258 8   
19259 7   
19260 8   
19261 63  
19262 1   
19263 8   
19264 4   
19265 1   
19266 79  
19267 8   
19268 10  
19269 5   
19270 69  
19271 77  
19272 4   
19273 5   
19274 1   
19275 7   
19276 3   
19277 9   
19278 3   
19279 7   
19280 6   
19281 7   
19282 4   
19283 5   
19284 2   
19285 66  
19286 4   
19287 50  
19288 6   
19289 9   
19290 9   
19291 1   
19292 89  
19293 10  
19294 8   
19295 3   
19296 4   
19297 2   
19298 64  
19299 6   
19300 5   
19301 3   
19302 63  
19303 3   
19304 88  
19305 2   
19306 2   
19307 10  
19308 4   
19309 5   
19310 9   
19311 4   
19312 9   
19313 55  
19314 8   
19315 5   
19316 87  
19317 9   
19318 3   
19319 61  
19320 6   
19321 2   
19322 4   
19323 98  
19324 4   
19325 4   
19326 3   
19327 10  
19328 80  
19329 7   
19330 10  
19331 1   
19332 5   
19333 9   
19334 2   
19335 6   
19336 10  
19337 88  
19338 97  
19339 50  
19340 6   
19341 2   
19342 8   
19343 6   
19344 2   
19345 7   
19346 73  
19347 4   
19348 7   
19349 4   
19350 6   
19351 10  
19352 3   
19353 3   
19354 2   
19355 91  
19356 100 
19357 51  
19358 92  
19359 9   
19360 1   
19361 7   
19362 7   
19363 9   
19364 52  
19365 3   
19366 68  
19367 3   
19368 3   
19369 5   
19370 83  
19371 62  
19372 7   
19373 3   
19374 5   
19375 2   
19376 8   
19377 1   
19378 55  
19379 2   
19380 3   
19381 6   
19382 4   
19383 1   
19384 6   
19385 70  
19386 2   
19387 7   
19388 8   
19389 10  
19390 10  
19391 5   
19392 10  
19393 74  
19394 2   
19395 3   
19396 7   
19397 1   
19398 8   
19399 67  
19400 6   
19401 1   
19402 8   
19403 6   
19404 1   
19405 2   
19406 2   
19407 6   
19408 7   
19409 9   
19410 2   
19411 4   
19412 77  
19413 1   
19414 8   
19415 6   
19416 6   
19417 5   
19418 3   
19419 7   
19420 10  
19421 85  
19422 2   
19423 2   
19424 9   
19425 78  
19426 4   
19427 3   
19428 93  
19429 9   
19430 4   
19431 6   
19432 8   
19433 10  
19434 1   
19435 65  
19436 89  
19437 59  
19438 2   
19439 5   
19440 9   
19441 10  
19442 53  
19443 61  
19444 8   
19445 61  
19446 98  
19447 4   
19448 2   
19449 8   
19450 10  
19451 3   
19452 3   
19453 10  
19454 2   
19455 10  
19456 8   
19457 5   
19458 6   
19459 6   
19460 9   
19461 5   
19462 7   
19463 6   
19464 10  
19465 8   
19466 1   
19467 7   
19468 6   
19469 8   
19470 6   
19471 7   
19472 5   
19473 7   
19474 9   
19475 3   
19476 4   
19477 10  
19478 62  
19479 5   
19480 6   
19481 5   
19482 5   
19483 8   
19484 8   
19485 9   
19486 62  
19487 9   
19488 2   
19489 10  
19490 1   
19491 7   
19492 87  
19493 1   
19494 59  
19495 4   
19496 93  
19497 5   
19498 10  
19499 88  
19500 10  
19501 2   
19502 6   
19503 10  
19504 65  
19505 59  
19506 7   
19507 82  
19508 4   
19509 1   
19510 7   
19511 94  
19512 2   
19513 10  
19514 1   
19515 79  
19516 92  
19517 5   
19518 6   
19519 6   
19520 1   
19521 10  
19522 10  
19523 65  
19524 6   
19525 61  
19526 5   
19527 87  
19528 1   
19529 1   
19530 10  
19531 10  
19532 7   
19533 91  
19534 2   
19535 8   
19536 5   
19537 10  
19538 3   
19539 4   
19540 9   
19541 95  
19542 4   
19543 1   
19544 4   
19545 4   
19546 7   
19547 4   
19548 9   
19549 5   
19550 1   
19551 3   
19552 81  
19553 8   
19554 4   
19555 2   
19556 7   
19557 2   
19558 9   
19559 5   
19560 5   
19561 8   
19562 8   
19563 10  
19564 8   
19565 5   
19566 7   
19567 2   
19568 55  
19569 8   
19570 6   
19571 57  
19572 3   
19573 7   
19574 9   
19575 6   
19576 5   
19577 84  
19578 73  
19579 1   
19580 8   
19581 85  
19582 2   
19583 10  
19584 3   
19585 2   
19586 5   
19587 3   
19588 5   
19589 1   
19590 2   
19591 92  
19592 9   
19593 7   
19594 3   
19595 5   
19596 5   
19597 7   
19598 8   
19599 7   
19600 7   
19601 10  
19602 1   
19603 7   
19604 8   
19605 52  
19606 8   
19607 3   
19608 1   
19609 2   
19610 6   
19611 7   
19612 10  
19613 6   
19614 5   
19615 7   
19616 2   
19617 9   
19618 8   
19619 3   
19620 7   
19621 5   
19622 8   
19623 6   
19624 7   
19625 6   
19626 10  
19627 7   
19628 85  
19629 4   
19630 2   
19631 6   
19632 10  
19633 5   
19634 6   
19635 88  
19636 8   
19637 9   
19638 76  
19639 5   
19640 3   
19641 3   
19642 6   
19643 2   
19644 9   
19645 6   
19646 6   
19647 9   
19648 8   
19649 7   
19650 6   
19651 9   
19652 8   
19653 62  
19654 94  
19655 7   
19656 10  
19657 8   
19658 90  
19659 1   
19660 2   
19661 8   
19662 3   
19663 6   
19664 8   
19665 9   
19666 3   
19667 85  
19668 4   
19669 1   
19670 7   
19671 8   
19672 3   
19673 4   
19674 2   
19675 10  
19676 5   
19677 3   
19678 6   
19679 2   
19680 7   
19681 9   
19682 10  
19683 3   
19684 6   
19685 4   
19686 9   
19687 8   
19688 8   
19689 2   
19690 97  
19691 9   
19692 10  
19693 82  
19694 8   
19695 72  
19696 2   
19697 8   
19698 5   
19699 2   
19700 7   
19701 5   
19702 2   
19703 8   
19704 8   
19705 9   
19706 10  
19707 58  
19708 2   
19709 6   
19710 86  
19711 73  
19712 5   
19713 10  
19714 2   
19715 6   
19716 85  
19717 5   
19718 5   
19719 9   
19720 5   
19721 4   
19722 7   
19723 6   
19724 58  
19725 6   
19726 3   
19727 94  
19728 3   
19729 75  
19730 59  
19731 7   
19732 8   
19733 4   
19734 2   
19735 5   
19736 10  
19737 58  
19738 4   
19739 5   
19740 8   
19741 4   
19742 2   
19743 10  
19744 1   
19745 98  
19746 8   
19747 6   
19748 84  
19749 2   
19750 61  
19751 3   
19752 4   
19753 73  
19754 8   
19755 92  
19756 2   
19757 7   
19758 5   
19759 9   
19760 2   
19761 3   
19762 5   
19763 5   
19764 6   
19765 1   
19766 3   
19767 2   
19768 84  
19769 1   
19770 9   
19771 9   
19772 3   
19773 1   
19774 7   
19775 5   
19776 88  
19777 7   
19778 8   
19779 8   
19780 8   
19781 5   
19782 7   
19783 71  
19784 1   
19785 9   
19786 7   
19787 8   
19788 10  
19789 10  
19790 8   
19791 2   
19792 3   
19793 4   
19794 6   
19795 71  
19796 6   
19797 10  
19798 61  
19799 6   
19800 2   
19801 9   
19802 8   
19803 7   
19804 70  
19805 2   
19806 71  
19807 7   
19808 72  
19809 5   
19810 2   
19811 3   
19812 6   
19813 60  
19814 5   
19815 5   
19816 50  
19817 9   
19818 7   
19819 1   
19820 2   
19821 8   
19822 1   
19823 7   
19824 9   
19825 10  
19826 5   
19827 2   
19828 6   
19829 3   
19830 3   
19831 6   
19832 6   
19833 9   
19834 95  
19835 9   
19836 1   
19837 78  
19838 5   
19839 7   
19840 2   
19841 95  
19842 10  
19843 10  
19844 7   
19845 70  
19846 95  
19847 7   
19848 5   
19849 10  
19850 2   
19851 2   
19852 10  
19853 1   
19854 5   
19855 2   
19856 85  
19857 5   
19858 5   
19859 10  
19860 50  
19861 1   
19862 10  
19863 1   
19864 3   
19865 3   
19866 2   
19867 76  
19868 6   
19869 90  
19870 5   
19871 66  
19872 7   
19873 9   
19874 2   
19875 69  
19876 6   
19877 71  
19878 65  
19879 6   
19880 2   
19881 4   
19882 10  
19883 1   
19884 3   
19885 59  
19886 82  
19887 8   
19888 10  
19889 2   
19890 85  
19891 62  
19892 62  
19893 10  
19894 5   
19895 6   
19896 6   
19897 8   
19898 2   
19899 10  
19900 5   
19901 8   
19902 3   
19903 53  
19904 3   
19905 84  
19906 1   
19907 84  
19908 9   
19909 1   
19910 4   
19911 6   
19912 7   
19913 10  
19914 2   
19915 10  
19916 5   
19917 5   
19918 54  
19919 9   
19920 10  
19921 3   
19922 8   
19923 61  
19924 7   
19925 7   
19926 8   
19927 10  
19928 2   
19929 6   
19930 9   
19931 4   
19932 72  
19933 2   
19934 10  
19935 8   
19936 8   
19937 60  
19938 3   
19939 2   
19940 70  
19941 5   
19942 65  
19943 10  
19944 3   
19945 9   
19946 6   
19947 68  
19948 6   
19949 8   
19950 8   
19951 9   
19952 9   
19953 4   
19954 9   
19955 6   
19956 57  
19957 9   
19958 4   
19959 10  
19960 91  
19961 3   
19962 5   
19963 1   
19964 2   
19965 7   
19966 2   
19967 9   
19968 66  
19969 77  
19970 76  
19971 8   
19972 3   
19973 99  
19974 85  
19975 10  
19976 3   
19977 4   
19978 7   
19979 90  
19980 9   
19981 2   
19982 60  
19983 6   
19984 84  
19985 9   
19986 8   
19987 3   
19988 5   
19989 7   
19990 65  
19991 74  
19992 10  
19993 5   
19994 6   
19995 77  
19996 6   
19997 1   
19998 3   
19999 10  
20000 5   
20001 1   
20002 7   
20003 5   
20004 10  
20005 72  
20006 4   
20007 5   
20008 3   
20009 2   
20010 10  
20011 4   
20012 3   
20013 5   
20014 2   
20015 1   
20016 5   
20017 3   
20018 1   
20019 97  
20020 5   
20021 9   
20022 10  
20023 57  
20024 2   
20025 10  
20026 3   
20027 6   
20028 74  
20029 3   
20030 10  
20031 7   
20032 70  
20033 1   
20034 4   
20035 10  
20036 5   
20037 9   
20038 8   
20039 1   
20040 10  
20041 4   
20042 7   
20043 2   
20044 88  
20045 5   
20046 7   
20047 64  
20048 9   
20049 59  
20050 9   
20051 2   
20052 6   
20053 2   
20054 69  
20055 2   
20056 7   
20057 2   
20058 57  
20059 5   
20060 3   
20061 9   
20062 8   
20063 1   
20064 7   
20065 10  
20066 2   
20067 2   
20068 10  
20069 92  
20070 4   
20071 5   
20072 95  
20073 8   
20074 51  
20075 91  
20076 2   
20077 9   
20078 8   
20079 10  
20080 2   
20081 99  
20082 10  
20083 10  
20084 4   
20085 78  
20086 75  
20087 3   
20088 74  
20089 5   
20090 4   
20091 9   
20092 2   
20093 8   
20094 2   
20095 65  
20096 77  
20097 3   
20098 65  
20099 4   
20100 53  
20101 3   
20102 8   
20103 7   
20104 7   
20105 79  
20106 6   
20107 3   
20108 4   
20109 9   
20110 5   
20111 1   
20112 69  
20113 60  
20114 9   
20115 54  
20116 10  
20117 10  
20118 10  
20119 3   
20120 71  
20121 5   
20122 9   
20123 4   
20124 75  
20125 4   
20126 1   
20127 7   
20128 79  
20129 9   
20130 5   
20131 2   
20132 8   
20133 6   
20134 8   
20135 4   
20136 3   
20137 9   
20138 57  
20139 63  
20140 7   
20141 74  
20142 3   
20143 3   
20144 10  
20145 5   
20146 7   
20147 6   
20148 8   
20149 2   
20150 9   
20151 2   
20152 4   
20153 1   
20154 1   
20155 1   
20156 5   
20157 5   
20158 8   
20159 5   
20160 1   
20161 1   
20162 7   
20163 2   
20164 7   
20165 9   
20166 4   
20167 10  
20168 10  
20169 8   
20170 1   
20171 98  
20172 77  
20173 8   
20174 7   
20175 9   
20176 5   
20177 1   
20178 3   
20179 1   
20180 80  
20181 2   
20182 57  
20183 4   
20184 6   
20185 3   
20186 5   
20187 1   
20188 86  
20189 4   
20190 97  
20191 91  
20192 3   
20193 6   
20194 7   
20195 7   
20196 7   
20197 70  
20198 10  
20199 50  
20200 1   
20201 82  
20202 85  
20203 65  
20204 92  
20205 2   
20206 4   
20207 55  
20208 3   
20209 9   
20210 7   
20211 3   
20212 78  
20213 69  
20214 3   
20215 4   
20216 8   
20217 10  
20218 68  
20219 9   
20220 2   
20221 7   
20222 50  
20223 10  
20224 7   
20225 98  
20226 9   
20227 3   
20228 3   
20229 6   
20230 7   
20231 10  
20232 10  
20233 98  
20234 74  
20235 1   
20236 77  
20237 10  
20238 6   
20239 10  
20240 10  
20241 4   
20242 4   
20243 2   
20244 9   
20245 8   
20246 4   
20247 10  
20248 5   
20249 6   
20250 6   
20251 7   
20252 8   
20253 78  
20254 8   
20255 3   
20256 4   
20257 7   
20258 5   
20259 9   
20260 10  
20261 10  
20262 90  
20263 10  
20264 4   
20265 3   
20266 4   
20267 10  
20268 8   
20269 3   
20270 5   
20271 1   
20272 70  
20273 10  
20274 8   
20275 5   
20276 4   
20277 2   
20278 9   
20279 62  
20280 70  
20281 3   
20282 1   
20283 7   
20284 10  
20285 9   
20286 76  
20287 77  
20288 6   
20289 9   
20290 56  
20291 80  
20292 1   
20293 73  
20294 10  
20295 60  
20296 5   
20297 4   
20298 8   
20299 6   
20300 1   
20301 4   
20302 6   
20303 8   
20304 4   
20305 6   
20306 7   
20307 8   
20308 84  
20309 2   
20310 9   
20311 1   
20312 9   
20313 2   
20314 5   
20315 8   
20316 10  
20317 6   
20318 4   
20319 55  
20320 2   
20321 91  
20322 1   
20323 3   
20324 5   
20325 7   
20326 8   
20327 2   
20328 10  
20329 7   
20330 54  
20331 9   
20332 10  
20333 4   
20334 82  
20335 2   
20336 83  
20337 9   
20338 6   
20339 5   
20340 2   
20341 64  
20342 7   
20343 54  
20344 3   
20345 3   
20346 8   
20347 3   
20348 4   
20349 3   
20350 9   
20351 4   
20352 1   
20353 4   
20354 6   
20355 5   
20356 3   
20357 1   
20358 10  
20359 9   
20360 5   
20361 87  
20362 59  
20363 2   
20364 4   
20365 6   
20366 1   
20367 7   
20368 2   
20369 3   
20370 10  
20371 91  
20372 4   
20373 8   
20374 8   
20375 1   
20376 4   
20377 9   
20378 7   
20379 5   
20380 10  
20381 5   
20382 2   
20383 81  
20384 8   
20385 1   
20386 55  
20387 3   
20388 60  
20389 1   
20390 60  
20391 6   
20392 7   
20393 10  
20394 7   
20395 9   
20396 3   
20397 6   
20398 2   
20399 7   
20400 2   
20401 2   
20402 4   
20403 8   
20404 1   
20405 1   
20406 8   
20407 1   
20408 5   
20409 9   
20410 68  
20411 4   
20412 96  
20413 4   
20414 1   
20415 2   
20416 9   
20417 8   
20418 9   
20419 8   
20420 6   
20421 1   
20422 6   
20423 5   
20424 74  
20425 4   
20426 99  
20427 99  
20428 6   
20429 8   
20430 4   
20431 5   
20432 4   
20433 6   
20434 2   
20435 2   
20436 8   
20437 7   
20438 5   
20439 10  
20440 9   
20441 80  
20442 1   
20443 7   
20444 9   
20445 9   
20446 3   
20447 9   
20448 5   
20449 7   
20450 9   
20451 2   
20452 10  
20453 7   
20454 8   
20455 73  
20456 7   
20457 65  
20458 6   
20459 62  
20460 1   
20461 8   
20462 5   
20463 75  
20464 4   
20465 95  
20466 51  
20467 6   
20468 1   
20469 7   
20470 88  
20471 10  
20472 2   
20473 5   
20474 9   
20475 77  
20476 4   
20477 9   
20478 85  
20479 97  
20480 3   
20481 8   
20482 7   
20483 10  
20484 8   
20485 10  
20486 4   
20487 87  
20488 5   
20489 1   
20490 2   
20491 58  
20492 9   
20493 8   
20494 3   
20495 2   
20496 8   
20497 4   
20498 8   
20499 8   
20500 9   
20501 3   
20502 3   
20503 5   
20504 9   
20505 3   
20506 80  
20507 77  
20508 58  
20509 9   
20510 4   
20511 2   
20512 4   
20513 5   
20514 1   
20515 6   
20516 73  
20517 4   
20518 7   
20519 6   
20520 10  
20521 4   
20522 2   
20523 2   
20524 7   
20525 7   
20526 6   
20527 10  
20528 9   
20529 10  
20530 7   
20531 3   
20532 73  
20533 4   
20534 4   
20535 2   
20536 6   
20537 5   
20538 5   
20539 1   
20540 2   
20541 2   
20542 7   
20543 7   
20544 1   
20545 6   
20546 3   
20547 5   
20548 99  
20549 5   
20550 8   
20551 8   
20552 1   
20553 7   
20554 8   
20555 60  
20556 10  
20557 1   
20558 75  
20559 2   
20560 1   
20561 4   
20562 8   
20563 4   
20564 10  
20565 7   
20566 8   
20567 5   
20568 3   
20569 10  
20570 10  
20571 5   
20572 4   
20573 93  
20574 1   
20575 6   
20576 3   
20577 1   
20578 7   
20579 62  
20580 88  
20581 9   
20582 2   
20583 8   
20584 8   
20585 6   
20586 7   
20587 5   
20588 6   
20589 7   
20590 7   
20591 7   
20592 66  
20593 9   
20594 10  
20595 6   
20596 3   
20597 57  
20598 58  
20599 9   
20600 76  
20601 8   
20602 6   
20603 9   
20604 5   
20605 7   
20606 7   
20607 6   
20608 8   
20609 97  
20610 81  
20611 2   
20612 7   
20613 4   
20614 2   
20615 10  
20616 10  
20617 57  
20618 52  
20619 7   
20620 56  
20621 81  
20622 8   
20623 2   
20624 10  
20625 3   
20626 75  
20627 7   
20628 2   
20629 5   
20630 6   
20631 5   
20632 9   
20633 55  
20634 4   
20635 2   
20636 9   
20637 10  
20638 87  
20639 6   
20640 87  
20641 2   
20642 93  
20643 4   
20644 9   
20645 10  
20646 5   
20647 1   
20648 50  
20649 1   
20650 5   
20651 5   
20652 6   
20653 5   
20654 52  
20655 3   
20656 4   
20657 3   
20658 6   
20659 8   
20660 8   
20661 10  
20662 8   
20663 5   
20664 7   
20665 3   
20666 3   
20667 2   
20668 1   
20669 58  
20670 7   
20671 8   
20672 1   
20673 1   
20674 60  
20675 64  
20676 67  
20677 1   
20678 6   
20679 4   
20680 4   
20681 6   
20682 3   
20683 5   
20684 7   
20685 4   
20686 4   
20687 7   
20688 3   
20689 5   
20690 4   
20691 8   
20692 53  
20693 92  
20694 6   
20695 6   
20696 4   
20697 6   
20698 2   
20699 5   
20700 1   
20701 4   
20702 7   
20703 7   
20704 1   
20705 7   
20706 3   
20707 7   
20708 4   
20709 3   
20710 1   
20711 1   
20712 63  
20713 62  
20714 86  
20715 5   
20716 2   
20717 3   
20718 10  
20719 56  
20720 2   
20721 7   
20722 10  
20723 96  
20724 3   
20725 8   
20726 10  
20727 10  
20728 84  
20729 9   
20730 8   
20731 86  
20732 3   
20733 7   
20734 6   
20735 1   
20736 8   
20737 3   
20738 7   
20739 2   
20740 4   
20741 91  
20742 2   
20743 55  
20744 9   
20745 61  
20746 9   
20747 61  
20748 10  
20749 9   
20750 10  
20751 6   
20752 6   
20753 58  
20754 4   
20755 7   
20756 2   
20757 2   
20758 10  
20759 54  
20760 93  
20761 50  
20762 57  
20763 7   
20764 7   
20765 9   
20766 3   
20767 2   
20768 74  
20769 7   
20770 9   
20771 3   
20772 6   
20773 3   
20774 3   
20775 10  
20776 6   
20777 2   
20778 8   
20779 8   
20780 10  
20781 93  
20782 2   
20783 5   
20784 68  
20785 61  
20786 5   
20787 8   
20788 6   
20789 83  
20790 5   
20791 2   
20792 1   
20793 5   
20794 9   
20795 4   
20796 76  
20797 8   
20798 7   
20799 10  
20800 68  
20801 8   
20802 7   
20803 10  
20804 5   
20805 64  
20806 8   
20807 88  
20808 6   
20809 8   
20810 7   
20811 5   
20812 3   
20813 5   
20814 4   
20815 71  
20816 8   
20817 6   
20818 3   
20819 9   
20820 7   
20821 9   
20822 53  
20823 10  
20824 2   
20825 58  
20826 83  
20827 3   
20828 4   
20829 2   
20830 5   
20831 5   
20832 6   
20833 2   
20834 10  
20835 96  
20836 4   
20837 10  
20838 10  
20839 10  
20840 80  
20841 92  
20842 55  
20843 5   
20844 5   
20845 1   
20846 86  
20847 8   
20848 3   
20849 9   
20850 9   
20851 7   
20852 6   
20853 9   
20854 7   
20855 97  
20856 83  
20857 10  
20858 9   
20859 6   
20860 9   
20861 3   
20862 10  
20863 76  
20864 3   
20865 59  
20866 6   
20867 7   
20868 68  
20869 79  
20870 5   
20871 84  
20872 1   
20873 5   
20874 4   
20875 93  
20876 3   
20877 3   
20878 2   
20879 4   
20880 3   
20881 7   
20882 2   
20883 9   
20884 90  
20885 6   
20886 3   
20887 8   
20888 77  
20889 3   
20890 10  
20891 4   
20892 9   
20893 10  
20894 10  
20895 5   
20896 2   
20897 7   
20898 9   
20899 4   
20900 8   
20901 10  
20902 100 
20903 4   
20904 8   
20905 5   
20906 9   
20907 6   
20908 8   
20909 10  
20910 82  
20911 100 
20912 8   
20913 85  
20914 10  
20915 9   
20916 6   
20917 9   
20918 8   
20919 9   
20920 3   
20921 10  
20922 5   
20923 5   
20924 5   
20925 6   
20926 7   
20927 10  
20928 57  
20929 3   
20930 66  
20931 4   
20932 3   
20933 95  
20934 7   
20935 3   
20936 7   
20937 6   
20938 4   
20939 1   
20940 10  
20941 1   
20942 3   
20943 9   
20944 5   
20945 10  
20946 7   
20947 8   
20948 5   
20949 3   
20950 78  
20951 68  
20952 7   
20953 3   
20954 83  
20955 7   
20956 59  
20957 10  
20958 2   
20959 3   
20960 8   
20961 87  
20962 9   
20963 60  
20964 3   
20965 4   
20966 6   
20967 2   
20968 98  
20969 5   
20970 9   
20971 7   
20972 4   
20973 9   
20974 10  
20975 8   
20976 1   
20977 8   
20978 87  
20979 2   
20980 4   
20981 4   
20982 9   
20983 8   
20984 4   
20985 5   
20986 4   
20987 1   
20988 2   
20989 84  
20990 56  
20991 10  
20992 3   
20993 6   
20994 1   
20995 6   
20996 2   
20997 2   
20998 2   
20999 3   
21000 10  
21001 10  
21002 2   
21003 6   
21004 10  
21005 9   
21006 4   
21007 1   
21008 10  
21009 75  
21010 66  
21011 10  
21012 3   
21013 9   
21014 99  
21015 54  
21016 4   
21017 9   
21018 9   
21019 8   
21020 1   
21021 2   
21022 1   
21023 5   
21024 9   
21025 10  
21026 3   
21027 3   
21028 7   
21029 2   
21030 7   
21031 88  
21032 10  
21033 83  
21034 7   
21035 6   
21036 73  
21037 3   
21038 2   
21039 6   
21040 5   
21041 93  
21042 1   
21043 7   
21044 4   
21045 57  
21046 72  
21047 3   
21048 93  
21049 53  
21050 1   
21051 6   
21052 56  
21053 9   
21054 72  
21055 2   
21056 2   
21057 9   
21058 9   
21059 5   
21060 2   
21061 75  
21062 10  
21063 69  
21064 5   
21065 1   
21066 1   
21067 3   
21068 2   
21069 10  
21070 7   
21071 10  
21072 8   
21073 2   
21074 8   
21075 10  
21076 2   
21077 2   
21078 1   
21079 6   
21080 9   
21081 100 
21082 10  
21083 73  
21084 7   
21085 5   
21086 8   
21087 63  
21088 7   
21089 55  
21090 63  
21091 87  
21092 10  
21093 2   
21094 3   
21095 4   
21096 8   
21097 3   
21098 2   
21099 2   
21100 10  
21101 6   
21102 3   
21103 9   
21104 10  
21105 1   
21106 1   
21107 2   
21108 9   
21109 4   
21110 5   
21111 1   
21112 10  
21113 4   
21114 10  
21115 8   
21116 7   
21117 10  
21118 9   
21119 4   
21120 6   
21121 3   
21122 10  
21123 7   
21124 2   
21125 82  
21126 10  
21127 8   
21128 89  
21129 8   
21130 4   
21131 4   
21132 4   
21133 3   
21134 3   
21135 8   
21136 8   
21137 6   
21138 4   
21139 5   
21140 10  
21141 8   
21142 4   
21143 8   
21144 1   
21145 9   
21146 6   
21147 77  
21148 4   
21149 3   
21150 4   
21151 5   
21152 3   
21153 2   
21154 1   
21155 5   
21156 2   
21157 7   
21158 2   
21159 6   
21160 10  
21161 100 
21162 2   
21163 64  
21164 3   
21165 10  
21166 4   
21167 2   
21168 2   
21169 10  
21170 70  
21171 6   
21172 63  
21173 90  
21174 2   
21175 2   
21176 95  
21177 7   
21178 4   
21179 10  
21180 9   
21181 6   
21182 9   
21183 1   
21184 6   
21185 8   
21186 4   
21187 8   
21188 8   
21189 1   
21190 10  
21191 2   
21192 8   
21193 8   
21194 55  
21195 1   
21196 6   
21197 3   
21198 1   
21199 4   
21200 100 
21201 7   
21202 10  
21203 64  
21204 7   
21205 3   
21206 8   
21207 5   
21208 7   
21209 5   
21210 8   
21211 1   
21212 5   
21213 2   
21214 6   
21215 59  
21216 4   
21217 4   
21218 1   
21219 8   
21220 70  
21221 4   
21222 64  
21223 79  
21224 7   
21225 96  
21226 10  
21227 9   
21228 9   
21229 8   
21230 2   
21231 2   
21232 69  
21233 3   
21234 1   
21235 3   
21236 85  
21237 8   
21238 9   
21239 1   
21240 7   
21241 95  
21242 2   
21243 2   
21244 1   
21245 6   
21246 5   
21247 63  
21248 1   
21249 1   
21250 5   
21251 1   
21252 6   
21253 8   
21254 3   
21255 6   
21256 3   
21257 3   
21258 2   
21259 6   
21260 97  
21261 3   
21262 61  
21263 9   
21264 7   
21265 7   
21266 67  
21267 60  
21268 5   
21269 5   
21270 9   
21271 67  
21272 1   
21273 4   
21274 5   
21275 2   
21276 67  
21277 9   
21278 4   
21279 7   
21280 5   
21281 4   
21282 4   
21283 4   
21284 7   
21285 7   
21286 1   
21287 7   
21288 9   
21289 9   
21290 7   
21291 2   
21292 6   
21293 7   
21294 69  
21295 90  
21296 3   
21297 10  
21298 10  
21299 9   
21300 58  
21301 1   
21302 10  
21303 1   
21304 9   
21305 2   
21306 57  
21307 4   
21308 10  
21309 8   
21310 7   
21311 78  
21312 4   
21313 3   
21314 3   
21315 3   
21316 4   
21317 1   
21318 4   
21319 6   
21320 1   
21321 2   
21322 5   
21323 1   
21324 6   
21325 9   
21326 7   
21327 10  
21328 1   
21329 3   
21330 7   
21331 6   
21332 1   
21333 3   
21334 8   
21335 89  
21336 4   
21337 4   
21338 10  
21339 6   
21340 1   
21341 5   
21342 8   
21343 62  
21344 5   
21345 7   
21346 7   
21347 10  
21348 73  
21349 10  
21350 10  
21351 9   
21352 9   
21353 52  
21354 1   
21355 9   
21356 5   
21357 5   
21358 9   
21359 2   
21360 6   
21361 6   
21362 4   
21363 10  
21364 76  
21365 7   
21366 8   
21367 62  
21368 3   
21369 1   
21370 81  
21371 3   
21372 10  
21373 8   
21374 2   
21375 2   
21376 7   
21377 3   
21378 10  
21379 5   
21380 2   
21381 8   
21382 1   
21383 4   
21384 91  
21385 7   
21386 7   
21387 7   
21388 7   
21389 10  
21390 92  
21391 79  
21392 10  
21393 3   
21394 8   
21395 5   
21396 10  
21397 6   
21398 1   
21399 10  
21400 10  
21401 1   
21402 9   
21403 1   
21404 7   
21405 100 
21406 7   
21407 8   
21408 8   
21409 82  
21410 10  
21411 4   
21412 5   
21413 10  
21414 67  
21415 6   
21416 6   
21417 9   
21418 2   
21419 1   
21420 7   
21421 4   
21422 3   
21423 7   
21424 1   
21425 3   
21426 4   
21427 95  
21428 3   
21429 10  
21430 2   
21431 4   
21432 53  
21433 6   
21434 54  
21435 5   
21436 4   
21437 7   
21438 2   
21439 6   
21440 4   
21441 57  
21442 84  
21443 5   
21444 67  
21445 8   
21446 10  
21447 4   
21448 77  
21449 1   
21450 3   
21451 5   
21452 2   
21453 4   
21454 88  
21455 53  
21456 9   
21457 6   
21458 6   
21459 6   
21460 96  
21461 9   
21462 59  
21463 5   
21464 4   
21465 63  
21466 10  
21467 3   
21468 4   
21469 1   
21470 59  
21471 10  
21472 9   
21473 6   
21474 1   
21475 82  
21476 6   
21477 3   
21478 2   
21479 7   
21480 3   
21481 95  
21482 7   
21483 4   
21484 10  
21485 2   
21486 1   
21487 7   
21488 2   
21489 6   
21490 4   
21491 52  
21492 6   
21493 99  
21494 4   
21495 6   
21496 6   
21497 2   
21498 86  
21499 67  
21500 81  
21501 7   
21502 7   
21503 3   
21504 1   
21505 2   
21506 79  
21507 7   
21508 1   
21509 3   
21510 10  
21511 8   
21512 10  
21513 7   
21514 5   
21515 9   
21516 8   
21517 2   
21518 3   
21519 82  
21520 8   
21521 1   
21522 8   
21523 1   
21524 62  
21525 5   
21526 3   
21527 63  
21528 8   
21529 6   
21530 58  
21531 10  
21532 3   
21533 90  
21534 6   
21535 90  
21536 4   
21537 3   
21538 90  
21539 6   
21540 2   
21541 10  
21542 9   
21543 50  
21544 5   
21545 9   
21546 5   
21547 57  
21548 90  
21549 1   
21550 52  
21551 4   
21552 5   
21553 10  
21554 8   
21555 9   
21556 5   
21557 4   
21558 3   
21559 8   
21560 1   
21561 8   
21562 5   
21563 1   
21564 95  
21565 78  
21566 88  
21567 99  
21568 79  
21569 4   
21570 3   
21571 3   
21572 1   
21573 89  
21574 90  
21575 10  
21576 3   
21577 8   
21578 5   
21579 9   
21580 10  
21581 7   
21582 7   
21583 10  
21584 5   
21585 6   
21586 10  
21587 5   
21588 1   
21589 9   
21590 96  
21591 1   
21592 94  
21593 3   
21594 3   
21595 1   
21596 76  
21597 8   
21598 6   
21599 8   
21600 73  
21601 4   
21602 52  
21603 7   
21604 8   
21605 7   
21606 5   
21607 1   
21608 5   
21609 90  
21610 10  
21611 8   
21612 2   
21613 60  
21614 10  
21615 7   
21616 4   
21617 2   
21618 2   
21619 5   
21620 2   
21621 5   
21622 74  
21623 4   
21624 8   
21625 10  
21626 2   
21627 2   
21628 9   
21629 70  
21630 3   
21631 56  
21632 70  
21633 3   
21634 5   
21635 2   
21636 8   
21637 2   
21638 5   
21639 2   
21640 3   
21641 89  
21642 7   
21643 73  
21644 3   
21645 62  
21646 4   
21647 80  
21648 5   
21649 10  
21650 2   
21651 3   
21652 96  
21653 3   
21654 5   
21655 2   
21656 10  
21657 100 
21658 3   
21659 6   
21660 3   
21661 53  
21662 94  
21663 8   
21664 6   
21665 9   
21666 93  
21667 5   
21668 85  
21669 94  
21670 7   
21671 7   
21672 71  
21673 2   
21674 3   
21675 7   
21676 1   
21677 9   
21678 2   
21679 5   
21680 1   
21681 6   
21682 5   
21683 72  
21684 62  
21685 3   
21686 7   
21687 7   
21688 9   
21689 5   
21690 9   
21691 2   
21692 9   
21693 57  
21694 7   
21695 5   
21696 68  
21697 4   
21698 7   
21699 7   
21700 5   
21701 89  
21702 10  
21703 1   
21704 87  
21705 4   
21706 10  
21707 4   
21708 4   
21709 9   
21710 1   
21711 5   
21712 5   
21713 6   
21714 71  
21715 3   
21716 4   
21717 7   
21718 10  
21719 6   
21720 81  
21721 64  
21722 62  
21723 3   
21724 4   
21725 3   
21726 7   
21727 9   
21728 3   
21729 9   
21730 10  
21731 78  
21732 50  
21733 89  
21734 8   
21735 80  
21736 2   
21737 87  
21738 87  
21739 92  
21740 4   
21741 1   
21742 10  
21743 3   
21744 4   
21745 79  
21746 7   
21747 61  
21748 1   
21749 1   
21750 81  
21751 3   
21752 7   
21753 5   
21754 1   
21755 10  
21756 3   
21757 69  
21758 3   
21759 3   
21760 5   
21761 61  
21762 2   
21763 8   
21764 9   
21765 1   
21766 3   
21767 2   
21768 7   
21769 10  
21770 7   
21771 7   
21772 58  
21773 5   
21774 10  
21775 10  
21776 1   
21777 9   
21778 1   
21779 6   
21780 10  
21781 6   
21782 1   
21783 10  
21784 5   
21785 1   
21786 3   
21787 8   
21788 6   
21789 1   
21790 9   
21791 7   
21792 100 
21793 75  
21794 3   
21795 5   
21796 3   
21797 1   
21798 5   
21799 2   
21800 5   
21801 1   
21802 6   
21803 8   
21804 2   
21805 9   
21806 2   
21807 9   
21808 9   
21809 3   
21810 1   
21811 4   
21812 65  
21813 9   
21814 4   
21815 53  
21816 4   
21817 7   
21818 6   
21819 2   
21820 9   
21821 4   
21822 78  
21823 4   
21824 6   
21825 7   
21826 7   
21827 5   
21828 4   
21829 9   
21830 8   
21831 3   
21832 3   
21833 6   
21834 8   
21835 6   
21836 78  
21837 4   
21838 4   
21839 4   
21840 4   
21841 6   
21842 9   
21843 9   
21844 5   
21845 4   
21846 10  
21847 8   
21848 88  
21849 9   
21850 96  
21851 1   
21852 4   
21853 8   
21854 72  
21855 2   
21856 5   
21857 10  
21858 1   
21859 7   
21860 6   
21861 5   
21862 77  
21863 5   
21864 61  
21865 2   
21866 5   
21867 99  
21868 1   
21869 2   
21870 84  
21871 1   
21872 1   
21873 4   
21874 2   
21875 7   
21876 5   
21877 5   
21878 7   
21879 6   
21880 62  
21881 71  
21882 1   
21883 4   
21884 3   
21885 1   
21886 55  
21887 72  
21888 90  
21889 9   
21890 6   
21891 6   
21892 8   
21893 9   
21894 10  
21895 9   
21896 10  
21897 1   
21898 1   
21899 3   
21900 5   
21901 7   
21902 6   
21903 4   
21904 53  
21905 2   
21906 4   
21907 58  
21908 51  
21909 8   
21910 1   
21911 9   
21912 4   
21913 79  
21914 9   
21915 59  
21916 1   
21917 8   
21918 1   
21919 1   
21920 8   
21921 2   
21922 5   
21923 90  
21924 71  
21925 5   
21926 4   
21927 8   
21928 3   
21929 7   
21930 6   
21931 73  
21932 9   
21933 2   
21934 86  
21935 3   
21936 1   
21937 8   
21938 5   
21939 10  
21940 88  
21941 6   
21942 1   
21943 5   
21944 4   
21945 9   
21946 8   
21947 3   
21948 5   
21949 8   
21950 3   
21951 2   
21952 9   
21953 7   
21954 60  
21955 68  
21956 1   
21957 5   
21958 7   
21959 65  
21960 10  
21961 3   
21962 70  
21963 1   
21964 3   
21965 8   
21966 2   
21967 7   
21968 3   
21969 10  
21970 7   
21971 6   
21972 9   
21973 9   
21974 4   
21975 10  
21976 2   
21977 6   
21978 4   
21979 8   
21980 9   
21981 74  
21982 69  
21983 4   
21984 2   
21985 6   
21986 10  
21987 8   
21988 4   
21989 3   
21990 9   
21991 2   
21992 10  
21993 10  
21994 8   
21995 6   
21996 65  
21997 5   
21998 6   
21999 4   
22000 71  
22001 2   
22002 3   
22003 59  
22004 10  
22005 1   
22006 2   
22007 66  
22008 7   
22009 3   
22010 1   
22011 9   
22012 8   
22013 1   
22014 2   
22015 95  
22016 5   
22017 1   
22018 1   
22019 7   
22020 8   
22021 3   
22022 10  
22023 54  
22024 10  
22025 2   
22026 9   
22027 1   
22028 6   
22029 1   
22030 2   
22031 6   
22032 68  
22033 6   
22034 62  
22035 2   
22036 9   
22037 7   
22038 6   
22039 6   
22040 5   
22041 10  
22042 1   
22043 8   
22044 3   
22045 94  
22046 10  
22047 6   
22048 7   
22049 76  
22050 10  
22051 3   
22052 4   
22053 7   
22054 4   
22055 10  
22056 2   
22057 9   
22058 10  
22059 65  
22060 86  
22061 10  
22062 1   
22063 2   
22064 3   
22065 5   
22066 8   
22067 92  
22068 88  
22069 2   
22070 98  
22071 58  
22072 4   
22073 10  
22074 9   
22075 75  
22076 1   
22077 2   
22078 5   
22079 69  
22080 4   
22081 3   
22082 85  
22083 10  
22084 2   
22085 4   
22086 8   
22087 1   
22088 5   
22089 2   
22090 8   
22091 10  
22092 6   
22093 3   
22094 89  
22095 88  
22096 10  
22097 6   
22098 78  
22099 5   
22100 61  
22101 5   
22102 3   
22103 2   
22104 7   
22105 5   
22106 4   
22107 7   
22108 5   
22109 82  
22110 54  
22111 6   
22112 10  
22113 2   
22114 10  
22115 6   
22116 4   
22117 60  
22118 4   
22119 84  
22120 1   
22121 7   
22122 3   
22123 9   
22124 7   
22125 3   
22126 87  
22127 8   
22128 9   
22129 93  
22130 5   
22131 8   
22132 6   
22133 4   
22134 5   
22135 4   
22136 2   
22137 2   
22138 10  
22139 10  
22140 4   
22141 2   
22142 5   
22143 1   
22144 74  
22145 2   
22146 2   
22147 6   
22148 55  
22149 3   
22150 76  
22151 2   
22152 5   
22153 5   
22154 7   
22155 6   
22156 6   
22157 6   
22158 6   
22159 6   
22160 2   
22161 59  
22162 10  
22163 7   
22164 6   
22165 6   
22166 55  
22167 53  
22168 1   
22169 2   
22170 88  
22171 3   
22172 10  
22173 6   
22174 5   
22175 5   
22176 7   
22177 94  
22178 99  
22179 2   
22180 9   
22181 10  
22182 4   
22183 3   
22184 6   
22185 79  
22186 2   
22187 99  
22188 8   
22189 2   
22190 10  
22191 3   
22192 54  
22193 2   
22194 4   
22195 77  
22196 78  
22197 8   
22198 5   
22199 10  
22200 91  
22201 10  
22202 74  
22203 6   
22204 10  
22205 3   
22206 8   
22207 3   
22208 91  
22209 5   
22210 6   
22211 9   
22212 3   
22213 68  
22214 6   
22215 56  
22216 5   
22217 8   
22218 7   
22219 2   
22220 5   
22221 6   
22222 1   
22223 2   
22224 1   
22225 10  
22226 1   
22227 6   
22228 1   
22229 2   
22230 79  
22231 2   
22232 3   
22233 4   
22234 10  
22235 4   
22236 10  
22237 4   
22238 9   
22239 4   
22240 8   
22241 9   
22242 1   
22243 5   
22244 3   
22245 73  
22246 7   
22247 1   
22248 55  
22249 8   
22250 3   
22251 5   
22252 87  
22253 2   
22254 4   
22255 6   
22256 82  
22257 4   
22258 10  
22259 8   
22260 5   
22261 1   
22262 4   
22263 1   
22264 4   
22265 3   
22266 8   
22267 80  
22268 5   
22269 4   
22270 8   
22271 3   
22272 10  
22273 2   
22274 2   
22275 8   
22276 2   
22277 4   
22278 10  
22279 3   
22280 95  
22281 8   
22282 2   
22283 2   
22284 8   
22285 74  
22286 4   
22287 10  
22288 10  
22289 7   
22290 8   
22291 1   
22292 5   
22293 91  
22294 7   
22295 10  
22296 4   
22297 88  
22298 73  
22299 9   
22300 9   
22301 10  
22302 8   
22303 6   
22304 56  
22305 8   
22306 8   
22307 6   
22308 4   
22309 1   
22310 2   
22311 8   
22312 1   
22313 9   
22314 63  
22315 7   
22316 82  
22317 9   
22318 9   
22319 2   
22320 10  
22321 4   
22322 9   
22323 9   
22324 73  
22325 92  
22326 3   
22327 9   
22328 7   
22329 2   
22330 4   
22331 3   
22332 3   
22333 8   
22334 5   
22335 3   
22336 1   
22337 1   
22338 6   
22339 5   
22340 5   
22341 5   
22342 10  
22343 2   
22344 9   
22345 7   
22346 5   
22347 5   
22348 57  
22349 63  
22350 7   
22351 85  
22352 10  
22353 1   
22354 3   
22355 9   
22356 6   
22357 2   
22358 7   
22359 9   
22360 9   
22361 10  
22362 1   
22363 2   
22364 6   
22365 1   
22366 2   
22367 96  
22368 6   
22369 8   
22370 7   
22371 3   
22372 9   
22373 3   
22374 66  
22375 10  
22376 6   
22377 5   
22378 4   
22379 67  
22380 93  
22381 3   
22382 1   
22383 5   
22384 2   
22385 1   
22386 97  
22387 1   
22388 7   
22389 9   
22390 95  
22391 10  
22392 5   
22393 7   
22394 53  
22395 4   
22396 76  
22397 9   
22398 64  
22399 1   
22400 3   
22401 5   
22402 5   
22403 9   
22404 55  
22405 88  
22406 4   
22407 4   
22408 8   
22409 3   
22410 5   
22411 58  
22412 10  
22413 93  
22414 9   
22415 9   
22416 4   
22417 6   
22418 3   
22419 7   
22420 1   
22421 8   
22422 71  
22423 6   
22424 10  
22425 7   
22426 5   
22427 2   
22428 10  
22429 52  
22430 64  
22431 8   
22432 71  
22433 72  
22434 9   
22435 2   
22436 8   
22437 85  
22438 4   
22439 5   
22440 10  
22441 79  
22442 78  
22443 6   
22444 3   
22445 10  
22446 10  
22447 8   
22448 93  
22449 9   
22450 9   
22451 1   
22452 70  
22453 89  
22454 1   
22455 2   
22456 9   
22457 10  
22458 3   
22459 67  
22460 10  
22461 8   
22462 5   
22463 6   
22464 3   
22465 10  
22466 9   
22467 82  
22468 9   
22469 80  
22470 2   
22471 8   
22472 4   
22473 5   
22474 4   
22475 2   
22476 4   
22477 7   
22478 58  
22479 9   
22480 10  
22481 6   
22482 52  
22483 2   
22484 1   
22485 3   
22486 1   
22487 5   
22488 9   
22489 10  
22490 9   
22491 3   
22492 5   
22493 5   
22494 4   
22495 8   
22496 6   
22497 1   
22498 85  
22499 61  
22500 5   
22501 2   
22502 3   
22503 1   
22504 5   
22505 3   
22506 96  
22507 6   
22508 76  
22509 99  
22510 3   
22511 7   
22512 7   
22513 6   
22514 72  
22515 1   
22516 3   
22517 7   
22518 7   
22519 2   
22520 6   
22521 8   
22522 3   
22523 2   
22524 1   
22525 4   
22526 7   
22527 5   
22528 7   
22529 1   
22530 8   
22531 8   
22532 6   
22533 2   
22534 7   
22535 5   
22536 6   
22537 2   
22538 1   
22539 1   
22540 8   
22541 1   
22542 8   
22543 4   
22544 10  
22545 85  
22546 7   
22547 8   
22548 53  
22549 6   
22550 7   
22551 2   
22552 5   
22553 1   
22554 4   
22555 10  
22556 7   
22557 79  
22558 3   
22559 5   
22560 7   
22561 10  
22562 8   
22563 3   
22564 9   
22565 9   
22566 4   
22567 9   
22568 9   
22569 1   
22570 5   
22571 8   
22572 4   
22573 2   
22574 1   
22575 4   
22576 8   
22577 2   
22578 6   
22579 77  
22580 4   
22581 3   
22582 6   
22583 10  
22584 3   
22585 8   
22586 52  
22587 9   
22588 7   
22589 10  
22590 5   
22591 2   
22592 3   
22593 69  
22594 2   
22595 6   
22596 5   
22597 8   
22598 5   
22599 2   
22600 7   
22601 4   
22602 1   
22603 7   
22604 56  
22605 73  
22606 3   
22607 10  
22608 1   
22609 2   
22610 9   
22611 5   
22612 1   
22613 9   
22614 69  
22615 53  
22616 3   
22617 95  
22618 10  
22619 51  
22620 5   
22621 6   
22622 2   
22623 94  
22624 1   
22625 8   
22626 2   
22627 79  
22628 8   
22629 5   
22630 9   
22631 9   
22632 100 
22633 8   
22634 3   
22635 71  
22636 10  
22637 3   
22638 6   
22639 10  
22640 1   
22641 2   
22642 5   
22643 7   
22644 8   
22645 9   
22646 80  
22647 59  
22648 3   
22649 83  
22650 8   
22651 81  
22652 68  
22653 3   
22654 73  
22655 6   
22656 4   
22657 5   
22658 2   
22659 1   
22660 3   
22661 9   
22662 1   
22663 1   
22664 2   
22665 8   
22666 4   
22667 2   
22668 96  
22669 2   
22670 8   
22671 2   
22672 6   
22673 5   
22674 5   
22675 92  
22676 4   
22677 86  
22678 10  
22679 8   
22680 6   
22681 8   
22682 5   
22683 7   
22684 92  
22685 8   
22686 2   
22687 7   
22688 6   
22689 5   
22690 4   
22691 6   
22692 89  
22693 1   
22694 2   
22695 3   
22696 4   
22697 5   
22698 78  
22699 67  
22700 1   
22701 1   
22702 95  
22703 7   
22704 6   
22705 2   
22706 1   
22707 7   
22708 6   
22709 8   
22710 3   
22711 8   
22712 8   
22713 9   
22714 4   
22715 4   
22716 6   
22717 1   
22718 2   
22719 6   
22720 5   
22721 91  
22722 5   
22723 2   
22724 1   
22725 7   
22726 4   
22727 10  
22728 56  
22729 6   
22730 6   
22731 75  
22732 6   
22733 2   
22734 5   
22735 10  
22736 81  
22737 10  
22738 1   
22739 3   
22740 3   
22741 6   
22742 3   
22743 5   
22744 10  
22745 10  
22746 88  
22747 5   
22748 6   
22749 10  
22750 10  
22751 83  
22752 3   
22753 9   
22754 3   
22755 4   
22756 9   
22757 10  
22758 10  
22759 4   
22760 3   
22761 5   
22762 8   
22763 8   
22764 5   
22765 2   
22766 4   
22767 4   
22768 10  
22769 10  
22770 6   
22771 4   
22772 3   
22773 6   
22774 9   
22775 9   
22776 85  
22777 6   
22778 4   
22779 5   
22780 2   
22781 10  
22782 9   
22783 10  
22784 2   
22785 80  
22786 97  
22787 70  
22788 4   
22789 53  
22790 75  
22791 7   
22792 3   
22793 3   
22794 9   
22795 10  
22796 3   
22797 4   
22798 6   
22799 7   
22800 5   
22801 4   
22802 67  
22803 3   
22804 5   
22805 7   
22806 10  
22807 7   
22808 8   
22809 4   
22810 4   
22811 53  
22812 5   
22813 1   
22814 4   
22815 10  
22816 1   
22817 8   
22818 72  
22819 1   
22820 94  
22821 4   
22822 9   
22823 5   
22824 6   
22825 52  
22826 92  
22827 9   
22828 3   
22829 7   
22830 9   
22831 92  
22832 3   
22833 6   
22834 10  
22835 77  
22836 89  
22837 78  
22838 2   
22839 3   
22840 8   
22841 3   
22842 97  
22843 2   
22844 5   
22845 84  
22846 7   
22847 53  
22848 85  
22849 5   
22850 4   
22851 7   
22852 9   
22853 2   
22854 6   
22855 5   
22856 5   
22857 6   
22858 2   
22859 1   
22860 3   
22861 66  
22862 9   
22863 4   
22864 7   
22865 3   
22866 10  
22867 10  
22868 6   
22869 10  
22870 95  
22871 7   
22872 9   
22873 5   
22874 4   
22875 10  
22876 3   
22877 3   
22878 3   
22879 7   
22880 3   
22881 5   
22882 63  
22883 65  
22884 4   
22885 88  
22886 3   
22887 10  
22888 9   
22889 4   
22890 90  
22891 81  
22892 10  
22893 5   
22894 98  
22895 2   
22896 7   
22897 3   
22898 9   
22899 2   
22900 89  
22901 8   
22902 10  
22903 5   
22904 5   
22905 86  
22906 2   
22907 8   
22908 3   
22909 79  
22910 9   
22911 5   
22912 3   
22913 9   
22914 67  
22915 3   
22916 89  
22917 6   
22918 2   
22919 50  
22920 4   
22921 8   
22922 52  
22923 6   
22924 95  
22925 5   
22926 8   
22927 1   
22928 2   
22929 4   
22930 10  
22931 10  
22932 3   
22933 2   
22934 9   
22935 99  
22936 4   
22937 5   
22938 75  
22939 5   
22940 75  
22941 7   
22942 6   
22943 3   
22944 50  
22945 88  
22946 3   
22947 8   
22948 6   
22949 3   
22950 1   
22951 1   
22952 10  
22953 4   
22954 60  
22955 70  
22956 71  
22957 2   
22958 2   
22959 6   
22960 92  
22961 6   
22962 87  
22963 51  
22964 8   
22965 4   
22966 4   
22967 80  
22968 57  
22969 1   
22970 7   
22971 6   
22972 1   
22973 1   
22974 3   
22975 58  
22976 85  
22977 66  
22978 1   
22979 5   
22980 81  
22981 4   
22982 1   
22983 7   
22984 7   
22985 10  
22986 4   
22987 8   
22988 54  
22989 9   
22990 2   
22991 4   
22992 6   
22993 2   
22994 3   
22995 1   
22996 8   
22997 6   
22998 53  
22999 62  
23000 66  
23001 64  
23002 87  
23003 4   
23004 10  
23005 3   
23006 6   
23007 83  
23008 8   
23009 3   
23010 5   
23011 63  
23012 7   
23013 8   
23014 10  
23015 10  
23016 4   
23017 8   
23018 3   
23019 5   
23020 1   
23021 5   
23022 10  
23023 4   
23024 92  
23025 4   
23026 5   
23027 2   
23028 67  
23029 9   
23030 94  
23031 10  
23032 1   
23033 6   
23034 2   
23035 10  
23036 9   
23037 5   
23038 8   
23039 10  
23040 92  
23041 2   
23042 91  
23043 8   
23044 8   
23045 79  
23046 2   
23047 80  
23048 6   
23049 73  
23050 89  
23051 52  
23052 5   
23053 2   
23054 9   
23055 5   
23056 7   
23057 6   
23058 98  
23059 7   
23060 51  
23061 5   
23062 5   
23063 2   
23064 6   
23065 7   
23066 1   
23067 87  
23068 6   
23069 9   
23070 8   
23071 10  
23072 99  
23073 8   
23074 9   
23075 8   
23076 68  
23077 2   
23078 4   
23079 7   
23080 100 
23081 91  
23082 6   
23083 4   
23084 4   
23085 2   
23086 5   
23087 10  
23088 1   
23089 6   
23090 3   
23091 4   
23092 84  
23093 10  
23094 6   
23095 100 
23096 2   
23097 3   
23098 8   
23099 10  
23100 9   
23101 8   
23102 77  
23103 5   
23104 4   
23105 4   
23106 3   
23107 6   
23108 7   
23109 5   
23110 4   
23111 1   
23112 3   
23113 7   
23114 8   
23115 4   
23116 8   
23117 2   
23118 100 
23119 1   
23120 6   
23121 1   
23122 10  
23123 6   
23124 86  
23125 10  
23126 69  
23127 2   
23128 9   
23129 81  
23130 4   
23131 10  
23132 2   
23133 9   
23134 6   
23135 7   
23136 8   
23137 57  
23138 1   
23139 2   
23140 3   
23141 3   
23142 4   
23143 3   
23144 100 
23145 7   
23146 6   
23147 63  
23148 7   
23149 5   
23150 8   
23151 86  
23152 1   
23153 3   
23154 2   
23155 5   
23156 7   
23157 4   
23158 2   
23159 98  
23160 3   
23161 8   
23162 76  
23163 6   
23164 66  
23165 9   
23166 10  
23167 1   
23168 4   
23169 10  
23170 2   
23171 83  
23172 4   
23173 10  
23174 97  
23175 61  
23176 86  
23177 3   
23178 69  
23179 6   
23180 9   
23181 10  
23182 6   
23183 2   
23184 9   
23185 8   
23186 3   
23187 8   
23188 3   
23189 5   
23190 94  
23191 10  
23192 8   
23193 72  
23194 1   
23195 5   
23196 4   
23197 2   
23198 72  
23199 10  
23200 1   
23201 50  
23202 8   
23203 7   
23204 59  
23205 6   
23206 1   
23207 85  
23208 3   
23209 78  
23210 10  
23211 10  
23212 77  
23213 95  
23214 2   
23215 90  
23216 6   
23217 10  
23218 56  
23219 85  
23220 6   
23221 3   
23222 54  
23223 3   
23224 93  
23225 9   
23226 2   
23227 9   
23228 3   
23229 5   
23230 6   
23231 5   
23232 79  
23233 98  
23234 1   
23235 10  
23236 61  
23237 1   
23238 67  
23239 7   
23240 2   
23241 4   
23242 10  
23243 3   
23244 89  
23245 2   
23246 92  
23247 2   
23248 3   
23249 9   
23250 1   
23251 6   
23252 2   
23253 5   
23254 52  
23255 5   
23256 1   
23257 72  
23258 50  
23259 9   
23260 8   
23261 5   
23262 7   
23263 98  
23264 7   
23265 10  
23266 54  
23267 7   
23268 1   
23269 63  
23270 4   
23271 2   
23272 10  
23273 4   
23274 4   
23275 90  
23276 7   
23277 8   
23278 75  
23279 7   
23280 5   
23281 6   
23282 3   
23283 4   
23284 9   
23285 2   
23286 6   
23287 9   
23288 52  
23289 9   
23290 87  
23291 6   
23292 2   
23293 8   
23294 1   
23295 7   
23296 7   
23297 6   
23298 5   
23299 2   
23300 1   
23301 9   
23302 2   
23303 5   
23304 7   
23305 57  
23306 4   
23307 4   
23308 9   
23309 9   
23310 6   
23311 3   
23312 72  
23313 2   
23314 5   
23315 4   
23316 3   
23317 3   
23318 3   
23319 10  
23320 10  
23321 6   
23322 9   
23323 9   
23324 87  
23325 1   
23326 2   
23327 67  
23328 3   
23329 10  
23330 10  
23331 69  
23332 7   
23333 10  
23334 9   
23335 1   
23336 6   
23337 3   
23338 9   
23339 78  
23340 60  
23341 8   
23342 2   
23343 2   
23344 9   
23345 5   
23346 3   
23347 6   
23348 88  
23349 9   
23350 2   
23351 50  
23352 7   
23353 1   
23354 2   
23355 8   
23356 83  
23357 3   
23358 8   
23359 57  
23360 2   
23361 9   
23362 2   
23363 3   
23364 57  
23365 5   
23366 93  
23367 73  
23368 2   
23369 6   
23370 3   
23371 1   
23372 10  
23373 1   
23374 59  
23375 8   
23376 2   
23377 9   
23378 5   
23379 9   
23380 2   
23381 2   
23382 8   
23383 69  
23384 91  
23385 9   
23386 9   
23387 5   
23388 6   
23389 1   
23390 4   
23391 8   
23392 10  
23393 9   
23394 6   
23395 5   
23396 8   
23397 3   
23398 5   
23399 6   
23400 5   
23401 4   
23402 4   
23403 5   
23404 2   
23405 2   
23406 9   
23407 6   
23408 4   
23409 61  
23410 95  
23411 4   
23412 8   
23413 7   
23414 2   
23415 61  
23416 6   
23417 4   
23418 9   
23419 85  
23420 9   
23421 2   
23422 4   
23423 3   
23424 60  
23425 4   
23426 5   
23427 4   
23428 1   
23429 88  
23430 8   
23431 3   
23432 6   
23433 72  
23434 2   
23435 10  
23436 1   
23437 3   
23438 56  
23439 6   
23440 52  
23441 6   
23442 95  
23443 82  
23444 2   
23445 10  
23446 8   
23447 2   
23448 10  
23449 4   
23450 1   
23451 86  
23452 7   
23453 4   
23454 80  
23455 67  
23456 7   
23457 1   
23458 4   
23459 84  
23460 4   
23461 1   
23462 6   
23463 62  
23464 69  
23465 1   
23466 3   
23467 9   
23468 3   
23469 5   
23470 4   
23471 10  
23472 5   
23473 5   
23474 7   
23475 4   
23476 8   
23477 9   
23478 9   
23479 64  
23480 8   
23481 3   
23482 3   
23483 1   
23484 8   
23485 3   
23486 63  
23487 4   
23488 3   
23489 1   
23490 95  
23491 10  
23492 10  
23493 10  
23494 10  
23495 67  
23496 3   
23497 10  
23498 80  
23499 1   
23500 69  
23501 65  
23502 2   
23503 10  
23504 3   
23505 5   
23506 8   
23507 10  
23508 7   
23509 90  
23510 2   
23511 3   
23512 94  
23513 4   
23514 9   
23515 7   
23516 4   
23517 5   
23518 89  
23519 4   
23520 8   
23521 8   
23522 8   
23523 10  
23524 1   
23525 4   
23526 1   
23527 4   
23528 5   
23529 83  
23530 4   
23531 4   
23532 9   
23533 63  
23534 100 
23535 66  
23536 3   
23537 10  
23538 4   
23539 5   
23540 9   
23541 10  
23542 9   
23543 7   
23544 81  
23545 65  
23546 10  
23547 10  
23548 1   
23549 1   
23550 9   
23551 9   
23552 7   
23553 1   
23554 5   
23555 8   
23556 61  
23557 9   
23558 9   
23559 9   
23560 2   
23561 1   
23562 3   
23563 5   
23564 3   
23565 2   
23566 4   
23567 7   
23568 5   
23569 2   
23570 95  
23571 7   
23572 78  
23573 9   
23574 1   
23575 3   
23576 1   
23577 5   
23578 7   
23579 1   
23580 4   
23581 6   
23582 7   
23583 6   
23584 53  
23585 73  
23586 3   
23587 6   
23588 4   
23589 2   
23590 10  
23591 4   
23592 9   
23593 7   
23594 63  
23595 9   
23596 8   
23597 65  
23598 10  
23599 2   
23600 9   
23601 2   
23602 6   
23603 5   
23604 9   
23605 66  
23606 79  
23607 57  
23608 9   
23609 6   
23610 4   
23611 10  
23612 8   
23613 9   
23614 7   
23615 8   
23616 6   
23617 1   
23618 1   
23619 10  
23620 3   
23621 6   
23622 95  
23623 6   
23624 5   
23625 3   
23626 68  
23627 2   
23628 7   
23629 2   
23630 4   
23631 10  
23632 3   
23633 10  
23634 8   
23635 63  
23636 6   
23637 10  
23638 1   
23639 5   
23640 71  
23641 6   
23642 2   
23643 3   
23644 79  
23645 5   
23646 5   
23647 10  
23648 90  
23649 3   
23650 4   
23651 3   
23652 59  
23653 9   
23654 1   
23655 5   
23656 5   
23657 2   
23658 3   
23659 2   
23660 5   
23661 4   
23662 3   
23663 6   
23664 1   
23665 63  
23666 3   
23667 6   
23668 7   
23669 7   
23670 7   
23671 6   
23672 8   
23673 56  
23674 56  
23675 2   
23676 2   
23677 92  
23678 99  
23679 1   
23680 1   
23681 5   
23682 71  
23683 4   
23684 9   
23685 81  
23686 74  
23687 4   
23688 7   
23689 7   
23690 88  
23691 1   
23692 2   
23693 4   
23694 7   
23695 8   
23696 3   
23697 9   
23698 7   
23699 66  
23700 4   
23701 8   
23702 85  
23703 7   
23704 10  
23705 75  
23706 6   
23707 4   
23708 10  
23709 2   
23710 5   
23711 87  
23712 2   
23713 10  
23714 3   
23715 8   
23716 57  
23717 7   
23718 85  
23719 8   
23720 88  
23721 5   
23722 1   
23723 67  
23724 1   
23725 9   
23726 99  
23727 9   
23728 2   
23729 5   
23730 8   
23731 10  
23732 9   
23733 9   
23734 8   
23735 2   
23736 73  
23737 9   
23738 1   
23739 2   
23740 6   
23741 9   
23742 7   
23743 1   
23744 2   
23745 5   
23746 3   
23747 10  
23748 62  
23749 2   
23750 1   
23751 8   
23752 4   
23753 6   
23754 53  
23755 2   
23756 9   
23757 9   
23758 9   
23759 4   
23760 10  
23761 63  
23762 7   
23763 8   
23764 9   
23765 3   
23766 5   
23767 77  
23768 6   
23769 75  
23770 5   
23771 9   
23772 2   
23773 5   
23774 2   
23775 10  
23776 8   
23777 3   
23778 8   
23779 89  
23780 67  
23781 89  
23782 4   
23783 1   
23784 1   
23785 1   
23786 8   
23787 3   
23788 50  
23789 4   
23790 59  
23791 1   
23792 10  
23793 4   
23794 5   
23795 82  
23796 73  
23797 6   
23798 59  
23799 2   
23800 7   
23801 4   
23802 7   
23803 10  
23804 1   
23805 5   
23806 71  
23807 5   
23808 7   
23809 10  
23810 3   
23811 10  
23812 4   
23813 2   
23814 8   
23815 8   
23816 1   
23817 3   
23818 8   
23819 4   
23820 2   
23821 9   
23822 1   
23823 67  
23824 10  
23825 92  
23826 1   
23827 7   
23828 4   
23829 3   
23830 1   
23831 74  
23832 6   
23833 6   
23834 3   
23835 81  
23836 9   
23837 1   
23838 10  
23839 10  
23840 4   
23841 7   
23842 8   
23843 76  
23844 59  
23845 6   
23846 1   
23847 3   
23848 2   
23849 2   
23850 5   
23851 5   
23852 7   
23853 2   
23854 2   
23855 6   
23856 1   
23857 2   
23858 2   
23859 5   
23860 4   
23861 4   
23862 3   
23863 70  
23864 10  
23865 10  
23866 1   
23867 9   
23868 61  
23869 2   
23870 63  
23871 10  
23872 6   
23873 4   
23874 56  
23875 7   
23876 4   
23877 8   
23878 9   
23879 10  
23880 8   
23881 6   
23882 4   
23883 6   
23884 66  
23885 95  
23886 5   
23887 2   
23888 86  
23889 66  
23890 7   
23891 3   
23892 1   
23893 5   
23894 9   
23895 10  
23896 7   
23897 3   
23898 10  
23899 6   
23900 74  
23901 9   
23902 61  
23903 10  
23904 8   
23905 3   
23906 7   
23907 4   
23908 62  
23909 5   
23910 6   
23911 6   
23912 3   
23913 1   
23914 8   
23915 2   
23916 64  
23917 4   
23918 75  
23919 5   
23920 6   
23921 88  
23922 90  
23923 67  
23924 3   
23925 62  
23926 8   
23927 2   
23928 10  
23929 5   
23930 6   
23931 8   
23932 9   
23933 6   
23934 7   
23935 2   
23936 55  
23937 1   
23938 7   
23939 56  
23940 1   
23941 84  
23942 1   
23943 67  
23944 8   
23945 3   
23946 10  
23947 10  
23948 2   
23949 5   
23950 9   
23951 2   
23952 2   
23953 9   
23954 2   
23955 2   
23956 4   
23957 5   
23958 9   
23959 6   
23960 3   
23961 67  
23962 2   
23963 8   
23964 8   
23965 7   
23966 6   
23967 95  
23968 95  
23969 5   
23970 1   
23971 61  
23972 87  
23973 8   
23974 3   
23975 4   
23976 1   
23977 6   
23978 3   
23979 7   
23980 8   
23981 4   
23982 4   
23983 10  
23984 4   
23985 10  
23986 6   
23987 8   
23988 4   
23989 8   
23990 76  
23991 1   
23992 1   
23993 2   
23994 5   
23995 53  
23996 3   
23997 80  
23998 60  
23999 5   
24000 2   
24001 53  
24002 10  
24003 4   
24004 6   
24005 10  
24006 6   
24007 82  
24008 93  
24009 9   
24010 65  
24011 92  
24012 9   
24013 8   
24014 5   
24015 6   
24016 86  
24017 5   
24018 2   
24019 5   
24020 10  
24021 66  
24022 70  
24023 1   
24024 80  
24025 85  
24026 10  
24027 6   
24028 6   
24029 3   
24030 9   
24031 10  
24032 59  
24033 100 
24034 7   
24035 94  
24036 4   
24037 5   
24038 4   
24039 9   
24040 7   
24041 3   
24042 98  
24043 10  
24044 3   
24045 2   
24046 3   
24047 81  
24048 9   
24049 3   
24050 10  
24051 2   
24052 6   
24053 1   
24054 5   
24055 9   
24056 9   
24057 6   
24058 8   
24059 2   
24060 3   
24061 2   
24062 9   
24063 6   
24064 6   
24065 5   
24066 1   
24067 1   
24068 9   
24069 68  
24070 1   
24071 2   
24072 3   
24073 6   
24074 9   
24075 88  
24076 6   
24077 10  
24078 59  
24079 10  
24080 6   
24081 10  
24082 67  
24083 6   
24084 89  
24085 2   
24086 1   
24087 4   
24088 8   
24089 3   
24090 3   
24091 1   
24092 7   
24093 2   
24094 7   
24095 2   
24096 8   
24097 2   
24098 8   
24099 65  
24100 6   
24101 51  
24102 3   
24103 5   
24104 4   
24105 5   
24106 83  
24107 6   
24108 88  
24109 7   
24110 10  
24111 10  
24112 8   
24113 10  
24114 3   
24115 1   
24116 5   
24117 1   
24118 7   
24119 9   
24120 8   
24121 4   
24122 7   
24123 7   
24124 8   
24125 3   
24126 1   
24127 3   
24128 4   
24129 9   
24130 9   
24131 4   
24132 6   
24133 4   
24134 2   
24135 8   
24136 6   
24137 3   
24138 2   
24139 78  
24140 68  
24141 2   
24142 82  
24143 4   
24144 64  
24145 5   
24146 4   
24147 63  
24148 9   
24149 3   
24150 1   
24151 7   
24152 10  
24153 8   
24154 9   
24155 8   
24156 3   
24157 2   
24158 77  
24159 2   
24160 2   
24161 5   
24162 6   
24163 2   
24164 9   
24165 7   
24166 7   
24167 10  
24168 3   
24169 2   
24170 5   
24171 7   
24172 4   
24173 7   
24174 3   
24175 9   
24176 4   
24177 2   
24178 9   
24179 8   
24180 7   
24181 8   
24182 10  
24183 9   
24184 9   
24185 9   
24186 7   
24187 3   
24188 5   
24189 62  
24190 5   
24191 72  
24192 75  
24193 3   
24194 9   
24195 8   
24196 99  
24197 9   
24198 6   
24199 9   
24200 81  
24201 5   
24202 7   
24203 8   
24204 6   
24205 7   
24206 7   
24207 10  
24208 9   
24209 7   
24210 5   
24211 66  
24212 3   
24213 8   
24214 96  
24215 3   
24216 8   
24217 9   
24218 3   
24219 10  
24220 9   
24221 8   
24222 9   
24223 3   
24224 5   
24225 4   
24226 6   
24227 8   
24228 2   
24229 67  
24230 6   
24231 5   
24232 3   
24233 6   
24234 63  
24235 9   
24236 78  
24237 2   
24238 7   
24239 7   
24240 8   
24241 8   
24242 5   
24243 9   
24244 6   
24245 6   
24246 87  
24247 4   
24248 3   
24249 97  
24250 5   
24251 7   
24252 61  
24253 7   
24254 9   
24255 81  
24256 90  
24257 96  
24258 7   
24259 1   
24260 3   
24261 6   
24262 1   
24263 3   
24264 2   
24265 3   
24266 4   
24267 6   
24268 3   
24269 5   
24270 2   
24271 54  
24272 53  
24273 5   
24274 5   
24275 5   
24276 65  
24277 9   
24278 10  
24279 4   
24280 4   
24281 8   
24282 86  
24283 5   
24284 6   
24285 4   
24286 1   
24287 10  
24288 2   
24289 6   
24290 9   
24291 6   
24292 7   
24293 2   
24294 3   
24295 9   
24296 3   
24297 7   
24298 10  
24299 1   
24300 64  
24301 2   
24302 5   
24303 5   
24304 9   
24305 6   
24306 9   
24307 6   
24308 1   
24309 8   
24310 6   
24311 4   
24312 10  
24313 5   
24314 2   
24315 3   
24316 6   
24317 5   
24318 9   
24319 10  
24320 4   
24321 85  
24322 9   
24323 10  
24324 7   
24325 67  
24326 3   
24327 10  
24328 95  
24329 3   
24330 6   
24331 10  
24332 1   
24333 8   
24334 9   
24335 10  
24336 6   
24337 8   
24338 8   
24339 1   
24340 68  
24341 4   
24342 92  
24343 92  
24344 7   
24345 1   
24346 5   
24347 8   
24348 52  
24349 76  
24350 7   
24351 4   
24352 5   
24353 4   
24354 4   
24355 10  
24356 87  
24357 52  
24358 3   
24359 1   
24360 8   
24361 5   
24362 10  
24363 2   
24364 4   
24365 3   
24366 9   
24367 7   
24368 8   
24369 3   
24370 7   
24371 7   
24372 9   
24373 10  
24374 100 
24375 5   
24376 91  
24377 10  
24378 3   
24379 99  
24380 7   
24381 6   
24382 8   
24383 57  
24384 9   
24385 77  
24386 8   
24387 5   
24388 6   
24389 1   
24390 8   
24391 5   
24392 1   
24393 54  
24394 8   
24395 9   
24396 3   
24397 78  
24398 51  
24399 2   
24400 6   
24401 4   
24402 9   
24403 2   
24404 6   
24405 6   
24406 7   
24407 10  
24408 3   
24409 6   
24410 9   
24411 10  
24412 5   
24413 2   
24414 3   
24415 3   
24416 7   
24417 10  
24418 4   
24419 3   
24420 6   
24421 5   
24422 3   
24423 6   
24424 9   
24425 3   
24426 3   
24427 10  
24428 4   
24429 8   
24430 5   
24431 10  
24432 8   
24433 51  
24434 82  
24435 58  
24436 9   
24437 6   
24438 9   
24439 9   
24440 3   
24441 5   
24442 8   
24443 3   
24444 3   
24445 96  
24446 3   
24447 88  
24448 4   
24449 70  
24450 4   
24451 8   
24452 3   
24453 1   
24454 2   
24455 6   
24456 59  
24457 85  
24458 3   
24459 3   
24460 3   
24461 1   
24462 2   
24463 62  
24464 84  
24465 1   
24466 51  
24467 1   
24468 72  
24469 5   
24470 2   
24471 2   
24472 4   
24473 8   
24474 10  
24475 9   
24476 2   
24477 4   
24478 7   
24479 9   
24480 55  
24481 54  
24482 84  
24483 6   
24484 5   
24485 10  
24486 8   
24487 6   
24488 6   
24489 9   
24490 9   
24491 1   
24492 10  
24493 5   
24494 1   
24495 3   
24496 4   
24497 2   
24498 7   
24499 89  
24500 5   
24501 9   
24502 75  
24503 4   
24504 5   
24505 5   
24506 9   
24507 6   
24508 5   
24509 81  
24510 6   
24511 6   
24512 3   
24513 8   
24514 6   
24515 10  
24516 4   
24517 81  
24518 3   
24519 1   
24520 5   
24521 10  
24522 78  
24523 53  
24524 2   
24525 9   
24526 4   
24527 10  
24528 4   
24529 6   
24530 60  
24531 4   
24532 5   
24533 7   
24534 9   
24535 98  
24536 10  
24537 2   
24538 10  
24539 9   
24540 1   
24541 2   
24542 9   
24543 5   
24544 1   
24545 10  
24546 1   
24547 10  
24548 9   
24549 6   
24550 2   
24551 9   
24552 10  
24553 10  
24554 1   
24555 2   
24556 9   
24557 9   
24558 5   
24559 76  
24560 5   
24561 8   
24562 1   
24563 6   
24564 73  
24565 10  
24566 3   
24567 9   
24568 4   
24569 5   
24570 3   
24571 80  
24572 86  
24573 7   
24574 5   
24575 8   
24576 4   
24577 7   
24578 4   
24579 72  
24580 3   
24581 6   
24582 8   
24583 9   
24584 9   
24585 9   
24586 6   
24587 5   
24588 87  
24589 10  
24590 3   
24591 7   
24592 74  
24593 6   
24594 2   
24595 5   
24596 5   
24597 9   
24598 3   
24599 10  
24600 8   
24601 7   
24602 8   
24603 5   
24604 2   
24605 1   
24606 8   
24607 2   
24608 77  
24609 4   
24610 6   
24611 55  
24612 9   
24613 9   
24614 3   
24615 6   
24616 7   
24617 9   
24618 86  
24619 2   
24620 1   
24621 4   
24622 6   
24623 6   
24624 6   
24625 6   
24626 10  
24627 3   
24628 7   
24629 8   
24630 78  
24631 6   
24632 4   
24633 8   
24634 79  
24635 8   
24636 4   
24637 10  
24638 4   
24639 4   
24640 6   
24641 82  
24642 78  
24643 3   
24644 8   
24645 67  
24646 10  
24647 5   
24648 5   
24649 7   
24650 8   
24651 8   
24652 5   
24653 4   
24654 6   
24655 5   
24656 10  
24657 5   
24658 7   
24659 66  
24660 5   
24661 75  
24662 6   
24663 1   
24664 3   
24665 70  
24666 7   
24667 3   
24668 9   
24669 70  
24670 4   
24671 3   
24672 86  
24673 8   
24674 4   
24675 10  
24676 4   
24677 6   
24678 6   
24679 8   
24680 62  
24681 8   
24682 65  
24683 9   
24684 83  
24685 5   
24686 9   
24687 5   
24688 65  
24689 2   
24690 6   
24691 3   
24692 4   
24693 2   
24694 98  
24695 85  
24696 2   
24697 52  
24698 3   
24699 6   
24700 6   
24701 8   
24702 9   
24703 2   
24704 3   
24705 1   
24706 87  
24707 7   
24708 6   
24709 100 
24710 7   
24711 73  
24712 99  
24713 5   
24714 8   
24715 54  
24716 5   
24717 3   
24718 9   
24719 4   
24720 54  
24721 9   
24722 3   
24723 6   
24724 7   
24725 65  
24726 99  
24727 10  
24728 5   
24729 6   
24730 8   
24731 8   
24732 5   
24733 5   
24734 9   
24735 58  
24736 77  
24737 8   
24738 7   
24739 59  
24740 3   
24741 85  
24742 1   
24743 6   
24744 2   
24745 7   
24746 10  
24747 1   
24748 10  
24749 7   
24750 4   
24751 57  
24752 94  
24753 7   
24754 10  
24755 8   
24756 10  
24757 8   
24758 6   
24759 4   
24760 8   
24761 96  
24762 10  
24763 65  
24764 3   
24765 3   
24766 9   
24767 7   
24768 84  
24769 72  
24770 1   
24771 5   
24772 9   
24773 1   
24774 2   
24775 3   
24776 5   
24777 9   
24778 5   
24779 9   
24780 6   
24781 80  
24782 3   
24783 89  
24784 3   
24785 86  
24786 2   
24787 91  
24788 1   
24789 56  
24790 65  
24791 1   
24792 7   
24793 71  
24794 4   
24795 92  
24796 8   
24797 72  
24798 10  
24799 9   
24800 1   
24801 10  
24802 9   
24803 9   
24804 5   
24805 9   
24806 60  
24807 2   
24808 9   
24809 8   
24810 9   
24811 60  
24812 1   
24813 1   
24814 5   
24815 74  
24816 6   
24817 3   
24818 6   
24819 4   
24820 71  
24821 5   
24822 1   
24823 8   
24824 2   
24825 94  
24826 62  
24827 4   
24828 10  
24829 9   
24830 7   
24831 10  
24832 7   
24833 6   
24834 3   
24835 2   
24836 1   
24837 2   
24838 6   
24839 4   
24840 75  
24841 1   
24842 53  
24843 81  
24844 8   
24845 9   
24846 7   
24847 5   
24848 7   
24849 1   
24850 74  
24851 1   
24852 8   
24853 7   
24854 5   
24855 7   
24856 8   
24857 3   
24858 92  
24859 2   
24860 57  
24861 89  
24862 7   
24863 3   
24864 10  
24865 7   
24866 4   
24867 4   
24868 7   
24869 9   
24870 1   
24871 9   
24872 10  
24873 9   
24874 2   
24875 10  
24876 85  
24877 1   
24878 79  
24879 73  
24880 10  
24881 8   
24882 2   
24883 8   
24884 2   
24885 98  
24886 10  
24887 9   
24888 1   
24889 100 
24890 95  
24891 10  
24892 5   
24893 3   
24894 1   
24895 2   
24896 8   
24897 5   
24898 3   
24899 8   
24900 2   
24901 2   
24902 8   
24903 3   
24904 3   
24905 5   
24906 7   
24907 5   
24908 10  
24909 4   
24910 6   
24911 63  
24912 1   
24913 4   
24914 4   
24915 4   
24916 53  
24917 6   
24918 5   
24919 9   
24920 8   
24921 9   
24922 8   
24923 9   
24924 5   
24925 1   
24926 4   
24927 9   
24928 4   
24929 7   
24930 10  
24931 3   
24932 5   
24933 8   
24934 9   
24935 80  
24936 1   
24937 1   
24938 7   
24939 5   
24940 92  
24941 9   
24942 9   
24943 78  
24944 8   
24945 6   
24946 3   
24947 84  
24948 9   
24949 4   
24950 1   
24951 4   
24952 3   
24953 2   
24954 2   
24955 8   
24956 2   
24957 56  
24958 3   
24959 3   
24960 2   
24961 9   
24962 95  
24963 10  
24964 85  
24965 6   
24966 5   
24967 55  
24968 3   
24969 6   
24970 67  
24971 3   
24972 96  
24973 5   
24974 5   
24975 2   
24976 5   
24977 7   
24978 4   
24979 3   
24980 57  
24981 10  
24982 3   
24983 4   
24984 4   
24985 6   
24986 8   
24987 2   
24988 8   
24989 2   
24990 1   
24991 2   
24992 6   
24993 62  
24994 3   
24995 68  
24996 7   
24997 66  
24998 3   
24999 2   
25000 9   
25001 6   
DEPOT_SECTION
1
-1
EOF
