NAME : XML100_1173_01
COMMENT : Generated as the XML100 dataset from the CVRPLIB
TYPE : CVRP
DIMENSION : 101
EDGE_WEIGHT_TYPE : EUC_2D
CAPACITY : 133
NODE_COORD_SECTION
1    494  591 
2    970  357 
3    501  335 
4    790  919 
5    244  37  
6    621  673 
7    278  532 
8    82   153 
9    251  697 
10   729  44  
11   35   533 
12   572  451 
13   81   268 
14   549  374 
15   443  993 
16   241  137 
17   245  992 
18   786  880 
19   763  369 
20   393  580 
21   848  36  
22   449  548 
23   491  791 
24   632  534 
25   596  4   
26   397  501 
27   182  885 
28   997  425 
29   467  178 
30   332  864 
31   284  669 
32   826  195 
33   691  268 
34   122  273 
35   32   508 
36   934  615 
37   617  363 
38   139  430 
39   308  837 
40   513  160 
41   718  169 
42   494  616 
43   481  66  
44   73   546 
45   281  146 
46   384  45  
47   702  310 
48   840  178 
49   830  164 
50   15   211 
51   45   430 
52   357  551 
53   466  309 
54   168  676 
55   199  963 
56   537  932 
57   986  794 
58   968  383 
59   791  98  
60   993  422 
61   862  229 
62   919  410 
63   101  991 
64   931  310 
65   682  562 
66   796  180 
67   503  843 
68   596  162 
69   153  115 
70   668  598 
71   5    557 
72   689  914 
73   327  248 
74   677  371 
75   892  2   
76   77   255 
77   390  431 
78   554  598 
79   355  335 
80   890  507 
81   247  753 
82   690  472 
83   450  628 
84   473  832 
85   399  942 
86   290  846 
87   975  975 
88   66   51  
89   245  321 
90   136  467 
91   424  456 
92   170  501 
93   339  918 
94   511  64  
95   452  170 
96   458  414 
97   664  965 
98   461  446 
99   880  142 
100  946  875 
101  445  229 
DEMAND_SECTION
1    0   
2    1   
3    2   
4    10  
5    3   
6    6   
7    8   
8    6   
9    10  
10   4   
11   55  
12   54  
13   4   
14   1   
15   66  
16   2   
17   1   
18   5   
19   2   
20   4   
21   7   
22   8   
23   90  
24   8   
25   10  
26   1   
27   5   
28   7   
29   10  
30   6   
31   4   
32   8   
33   7   
34   7   
35   1   
36   76  
37   57  
38   4   
39   1   
40   8   
41   8   
42   7   
43   10  
44   5   
45   3   
46   5   
47   6   
48   78  
49   10  
50   4   
51   4   
52   62  
53   9   
54   79  
55   3   
56   4   
57   9   
58   1   
59   7   
60   5   
61   8   
62   51  
63   2   
64   1   
65   10  
66   10  
67   57  
68   67  
69   9   
70   59  
71   89  
72   8   
73   5   
74   8   
75   66  
76   6   
77   3   
78   6   
79   5   
80   6   
81   7   
82   6   
83   7   
84   6   
85   2   
86   6   
87   5   
88   4   
89   4   
90   2   
91   6   
92   92  
93   10  
94   9   
95   2   
96   7   
97   9   
98   2   
99   4   
100  7   
101  65  
DEPOT_SECTION
1
-1
EOF
