NAME : XML100_2173_01
COMMENT : Generated as the XML100 dataset from the CVRPLIB
TYPE : CVRP
DIMENSION : 101
EDGE_WEIGHT_TYPE : EUC_2D
CAPACITY : 152
NODE_COORD_SECTION
1    500  500 
2    970  357 
3    501  335 
4    790  919 
5    244  37  
6    621  673 
7    278  532 
8    82   153 
9    251  697 
10   729  44  
11   35   533 
12   572  451 
13   81   268 
14   549  374 
15   443  993 
16   241  137 
17   245  992 
18   786  880 
19   763  369 
20   393  580 
21   848  36  
22   449  548 
23   491  791 
24   632  534 
25   596  4   
26   397  501 
27   182  885 
28   997  425 
29   467  178 
30   332  864 
31   284  669 
32   826  195 
33   691  268 
34   122  273 
35   32   508 
36   934  615 
37   617  363 
38   139  430 
39   308  837 
40   513  160 
41   718  169 
42   494  616 
43   481  66  
44   73   546 
45   281  146 
46   384  45  
47   702  310 
48   840  178 
49   830  164 
50   15   211 
51   45   430 
52   357  551 
53   494  591 
54   466  309 
55   168  676 
56   199  963 
57   537  932 
58   986  794 
59   968  383 
60   791  98  
61   993  422 
62   862  229 
63   919  410 
64   101  991 
65   931  310 
66   682  562 
67   796  180 
68   503  843 
69   596  162 
70   153  115 
71   668  598 
72   5    557 
73   689  914 
74   327  248 
75   677  371 
76   892  2   
77   77   255 
78   390  431 
79   554  598 
80   355  335 
81   890  507 
82   247  753 
83   690  472 
84   450  628 
85   473  832 
86   399  942 
87   290  846 
88   975  975 
89   245  321 
90   136  467 
91   424  456 
92   170  501 
93   339  918 
94   511  64  
95   452  170 
96   458  414 
97   664  965 
98   461  446 
99   880  142 
100  946  875 
101  445  229 
DEMAND_SECTION
1    0   
2    9   
3    1   
4    6   
5    7   
6    9   
7    2   
8    5   
9    4   
10   9   
11   100 
12   64  
13   6   
14   2   
15   73  
16   10  
17   7   
18   3   
19   9   
20   9   
21   10  
22   5   
23   63  
24   9   
25   4   
26   6   
27   6   
28   4   
29   10  
30   4   
31   4   
32   8   
33   5   
34   9   
35   6   
36   76  
37   67  
38   9   
39   9   
40   2   
41   5   
42   5   
43   8   
44   4   
45   4   
46   10  
47   10  
48   80  
49   8   
50   5   
51   5   
52   93  
53   8   
54   96  
55   7   
56   5   
57   10  
58   9   
59   10  
60   1   
61   6   
62   82  
63   9   
64   6   
65   8   
66   10  
67   90  
68   97  
69   4   
70   51  
71   93  
72   2   
73   9   
74   87  
75   5   
76   5   
77   3   
78   4   
79   4   
80   5   
81   5   
82   9   
83   10  
84   8   
85   9   
86   1   
87   4   
88   10  
89   1   
90   81  
91   5   
92   8   
93   9   
94   1   
95   8   
96   7   
97   8   
98   2   
99   55  
100  2   
101  6   
DEPOT_SECTION
1
-1
EOF
