NAME : XML50_1176_01
COMMENT : Generated as the XML100 dataset from the CVRPLIB
TYPE : CVRP
DIMENSION : 51
EDGE_WEIGHT_TYPE : EUC_2D
CAPACITY : 198
NODE_COORD_SECTION
1    494  591 
2    199  963 
3    467  178 
4    501  335 
5    790  919 
6    332  864 
7    284  669 
8    968  383 
9    677  371 
10   691  268 
11   993  422 
12   862  229 
13   244  37  
14   77   255 
15   390  431 
16   32   508 
17   621  673 
18   934  615 
19   931  310 
20   82   153 
21   450  628 
22   35   533 
23   682  562 
24   473  832 
25   617  363 
26   549  374 
27   308  837 
28   513  160 
29   290  846 
30   975  975 
31   481  66  
32   241  137 
33   245  992 
34   73   546 
35   503  843 
36   245  321 
37   153  115 
38   384  45  
39   668  598 
40   702  310 
41   786  880 
42   136  467 
43   763  369 
44   393  580 
45   830  164 
46   15   211 
47   45   430 
48   461  446 
49   880  142 
50   596  4   
51   946  875 
DEMAND_SECTION
1    0   
2    10  
3    1   
4    7   
5    1   
6    6   
7    5   
8    5   
9    4   
10   3   
11   9   
12   6   
13   2   
14   2   
15   2   
16   3   
17   8   
18   7   
19   8   
20   4   
21   4   
22   9   
23   5   
24   10  
25   2   
26   9   
27   10  
28   3   
29   4   
30   5   
31   6   
32   4   
33   3   
34   5   
35   7   
36   10  
37   10  
38   89  
39   10  
40   9   
41   9   
42   5   
43   2   
44   10  
45   9   
46   9   
47   8   
48   6   
49   8   
50   5   
51   4   
DEPOT_SECTION
1
-1
EOF
