NAME : XML50_2173_01
COMMENT : Generated as the XML100 dataset from the CVRPLIB
TYPE : CVRP
DIMENSION : 51
EDGE_WEIGHT_TYPE : EUC_2D
CAPACITY : 138
NODE_COORD_SECTION
1    500  500 
2    199  963 
3    467  178 
4    501  335 
5    790  919 
6    332  864 
7    284  669 
8    968  383 
9    677  371 
10   691  268 
11   993  422 
12   862  229 
13   244  37  
14   77   255 
15   390  431 
16   32   508 
17   621  673 
18   934  615 
19   931  310 
20   82   153 
21   450  628 
22   35   533 
23   682  562 
24   473  832 
25   617  363 
26   549  374 
27   308  837 
28   513  160 
29   290  846 
30   975  975 
31   481  66  
32   241  137 
33   245  992 
34   73   546 
35   503  843 
36   245  321 
37   384  45  
38   668  598 
39   702  310 
40   786  880 
41   136  467 
42   763  369 
43   393  580 
44   830  164 
45   15   211 
46   45   430 
47   494  591 
48   461  446 
49   880  142 
50   596  4   
51   946  875 
DEMAND_SECTION
1    0   
2    2   
3    4   
4    6   
5    6   
6    1   
7    8   
8    99  
9    6   
10   10  
11   76  
12   3   
13   1   
14   9   
15   84  
16   3   
17   9   
18   2   
19   4   
20   8   
21   63  
22   10  
23   10  
24   8   
25   2   
26   1   
27   72  
28   4   
29   1   
30   2   
31   4   
32   59  
33   3   
34   9   
35   2   
36   8   
37   6   
38   99  
39   83  
40   10  
41   3   
42   5   
43   5   
44   2   
45   2   
46   2   
47   9   
48   6   
49   4   
50   7   
51   5   
DEPOT_SECTION
1
-1
EOF
